Cr3C2 (n=2)                             
   1.00000000000000     
     2.6561679244972352    0.0000000000000000    0.0000000000000000
    -1.3280839622486176    2.3003088993181517    0.0000000000000000
     0.0000000000000000    0.0000000000000000   43.3388426033530081
   Cr   C 
     3     2
Selective dynamics
Direct
  0.0000000000000000  0.0000000000000000  0.0118691394102606   T   T   T
  0.0000000000000000  0.0000000000000000  0.0714285714285694   T   T   T
  0.0000000000000000  0.0000000000000000  0.1309880034468852   T   T   T
  0.3333333333333357  0.6666666666666643  0.0402890559484109   T   T   T
  0.3333333333333357  0.6666666666666643  0.1025680869087279   T   T   T
 
  0.00000000E+00  0.00000000E+00  0.00000000E+00
  0.00000000E+00  0.00000000E+00  0.00000000E+00
  0.00000000E+00  0.00000000E+00  0.00000000E+00
  0.00000000E+00  0.00000000E+00  0.00000000E+00
  0.00000000E+00  0.00000000E+00  0.00000000E+00
