Zr3N2 (n=2)                             
   1.00000000000000     
     3.1211847136621871    0.0000000000000000    0.0000000000000000
    -1.5605923568310935    2.7030252520695255    0.0000000000000000
     0.0000000000000000    0.0000000000000000   32.6202518543437705
   Zr   N 
     3     2
Selective dynamics
Direct
  0.0000000000000000  0.0000000000000000  0.9815363061056068   T   T   T
  0.0000000000000000  0.0000000000000000  0.0714285714285694   T   T   T
  0.0000000000000000  0.0000000000000000  0.1613208367515391   T   T   T
  0.3333333333333357  0.6666666666666643  0.0256303112970900   T   T   T
  0.3333333333333357  0.6666666666666643  0.1172268315600488   T   T   T
 
  0.00000000E+00  0.00000000E+00  0.00000000E+00
  0.00000000E+00  0.00000000E+00  0.00000000E+00
  0.00000000E+00  0.00000000E+00  0.00000000E+00
  0.00000000E+00  0.00000000E+00  0.00000000E+00
  0.00000000E+00  0.00000000E+00  0.00000000E+00
