Nb3N2 (n=2)                             
   1.00000000000000     
     2.9277369956781794    0.0000000000000000    0.0000000000000000
    -1.4638684978390897    2.5354946139224919    0.0000000000000000
     0.0000000000000000    0.0000000000000000   36.2997715525216265
   Nb   N 
     3     2
Selective dynamics
Direct
  0.0000000000000000  0.0000000000000000  0.9914083148429067   T   T   T
  0.0000000000000000  0.0000000000000000  0.0714285714285694   T   T   T
  0.0000000000000000  0.0000000000000000  0.1514488280142393   T   T   T
  0.3333333333333357  0.6666666666666643  0.0315269505041466   T   T   T
  0.3333333333333357  0.6666666666666643  0.1113301923529922   T   T   T
 
  0.00000000E+00  0.00000000E+00  0.00000000E+00
  0.00000000E+00  0.00000000E+00  0.00000000E+00
  0.00000000E+00  0.00000000E+00  0.00000000E+00
  0.00000000E+00  0.00000000E+00  0.00000000E+00
  0.00000000E+00  0.00000000E+00  0.00000000E+00
