Zr3C2 (n=2)                             
   1.00000000000000     
     3.2976103502714578    0.0000000000000000    0.0000000000000000
    -1.6488051751357289    2.8558143353594021    0.0000000000000000
     0.0000000000000000    0.0000000000000000   29.1590394142184799
   Zr   C 
     3     2
Selective dynamics
Direct
  0.0000000000000000  0.0000000000000000  0.9747282943227384   T   T   T
  0.0000000000000000  0.0000000000000000  0.0714285714285694   T   T   T
  0.0000000000000000  0.0000000000000000  0.1681288485344075   T   T   T
  0.3333333333333357  0.6666666666666643  0.0169003558554490   T   T   T
  0.3333333333333357  0.6666666666666643  0.1259567870016898   T   T   T
 
  0.00000000E+00  0.00000000E+00  0.00000000E+00
  0.00000000E+00  0.00000000E+00  0.00000000E+00
  0.00000000E+00  0.00000000E+00  0.00000000E+00
  0.00000000E+00  0.00000000E+00  0.00000000E+00
  0.00000000E+00  0.00000000E+00  0.00000000E+00
