Ti3C2 (n=2)                             
   1.00000000000000     
     3.0671257398345038    0.0000000000000000    0.0000000000000000
    -1.5335628699172519    2.6562088073814847    0.0000000000000000
     0.0000000000000000    0.0000000000000000   33.4847755688544169
   Ti   C 
     3     2
Selective dynamics
Direct
  0.0000000000000000  0.0000000000000000 -0.0049277478060386   T   T   T
  0.0000000000000000  0.0000000000000000  0.0714285714285694   T   T   T
  0.0000000000000000  0.0000000000000000  0.1477848906631845   T   T   T
  0.3333333333333357  0.6666666666666643  0.0282084354460886   T   T   T
  0.3333333333333357  0.6666666666666643  0.1146487074110502   T   T   T
 
  0.00000000E+00  0.00000000E+00  0.00000000E+00
  0.00000000E+00  0.00000000E+00  0.00000000E+00
  0.00000000E+00  0.00000000E+00  0.00000000E+00
  0.00000000E+00  0.00000000E+00  0.00000000E+00
  0.00000000E+00  0.00000000E+00  0.00000000E+00
