Sc3N2 (n=2)                             
   1.00000000000000     
     3.1611811820849987    0.0000000000000000    0.0000000000000000
    -1.5805905910424993    2.7376632097759641    0.0000000000000000
     0.0000000000000000    0.0000000000000000   31.4870192907729454
   Sc   N 
     3     2
Selective dynamics
Direct
  0.0000000000000000  0.0000000000000000  0.9854495879678987   T   T   T
  0.0000000000000000  0.0000000000000000  0.0714285714285694   T   T   T
  0.0000000000000000  0.0000000000000000  0.1574075548892472   T   T   T
  0.3333333333333357  0.6666666666666643  0.0238564430608568   T   T   T
  0.3333333333333357  0.6666666666666643  0.1190006997962820   T   T   T
 
  0.00000000E+00  0.00000000E+00  0.00000000E+00
  0.00000000E+00  0.00000000E+00  0.00000000E+00
  0.00000000E+00  0.00000000E+00  0.00000000E+00
  0.00000000E+00  0.00000000E+00  0.00000000E+00
  0.00000000E+00  0.00000000E+00  0.00000000E+00
