Ti3N2 (n=2)                             
   1.00000000000000     
     2.9016144908841741    0.0000000000000000    0.0000000000000000
    -1.4508072454420871    2.5128718611322056    0.0000000000000000
     0.0000000000000000    0.0000000000000000   36.5401346407963672
   Ti   N 
     3     2
Selective dynamics
Direct
  0.0000000000000000  0.0000000000000000  0.9988716890514473   T   T   T
  0.0000000000000000  0.0000000000000000  0.0714285714285694   T   T   T
  0.0000000000000000  0.0000000000000000  0.1439854538056986   T   T   T
  0.3333333333333357  0.6666666666666643  0.0334762846757847   T   T   T
  0.3333333333333357  0.6666666666666643  0.1093808581813541   T   T   T
 
  0.00000000E+00  0.00000000E+00  0.00000000E+00
  0.00000000E+00  0.00000000E+00  0.00000000E+00
  0.00000000E+00  0.00000000E+00  0.00000000E+00
  0.00000000E+00  0.00000000E+00  0.00000000E+00
  0.00000000E+00  0.00000000E+00  0.00000000E+00
