Ta3N2 (n=2)                             
   1.00000000000000     
     2.9033258436647098    0.0000000000000000    0.0000000000000000
    -1.4516629218323549    2.5143539361386442    0.0000000000000000
     0.0000000000000000    0.0000000000000000   36.8085631705304763
   Ta   N 
     3     2
Selective dynamics
Direct
  0.0000000000000000  0.0000000000000000  0.9921799727156401   T   T   T
  0.0000000000000000  0.0000000000000000  0.0714285714285694   T   T   T
  0.0000000000000000  0.0000000000000000  0.1506771701415058   T   T   T
  0.3333333333333357  0.6666666666666643  0.0322709117401535   T   T   T
  0.3333333333333357  0.6666666666666643  0.1105862311169853   T   T   T
 
  0.00000000E+00  0.00000000E+00  0.00000000E+00
  0.00000000E+00  0.00000000E+00  0.00000000E+00
  0.00000000E+00  0.00000000E+00  0.00000000E+00
  0.00000000E+00  0.00000000E+00  0.00000000E+00
  0.00000000E+00  0.00000000E+00  0.00000000E+00
