Hf3C2 (n=2)                             
   1.00000000000000     
     3.2397122295011496    0.0000000000000000    0.0000000000000000
    -1.6198561147505748    2.8056730919010304    0.0000000000000000
     0.0000000000000000    0.0000000000000000   30.0121897208331418
   Hf   C 
     3     2
Selective dynamics
Direct
  0.0000000000000000  0.0000000000000000 -0.0214423589987701   T   T   T
  0.0000000000000000  0.0000000000000000  0.0714285714285694   T   T   T
  0.0000000000000000  0.0000000000000000  0.1642995018559160   T   T   T
  0.3333333333333357  0.6666666666666643  0.0197250147641143   T   T   T
  0.3333333333333357  0.6666666666666643  0.1231321280930245   T   T   T
 
  0.00000000E+00  0.00000000E+00  0.00000000E+00
  0.00000000E+00  0.00000000E+00  0.00000000E+00
  0.00000000E+00  0.00000000E+00  0.00000000E+00
  0.00000000E+00  0.00000000E+00  0.00000000E+00
  0.00000000E+00  0.00000000E+00  0.00000000E+00
