Sc3C2 (n=2)                             
   1.00000000000000     
     3.2975795725748491    0.0000000000000000    0.0000000000000000
    -1.6487897862874246    2.8557876810620222    0.0000000000000000
     0.0000000000000000    0.0000000000000000   29.2923462979898268
   Sc   C 
     3     2
Selective dynamics
Direct
  0.0000000000000000  0.0000000000000000  0.9791725410675652   T   T   T
  0.0000000000000000  0.0000000000000000  0.0714285714285694   T   T   T
  0.0000000000000000  0.0000000000000000  0.1636846017895806   T   T   T
  0.3333333333333357  0.6666666666666643  0.0169020961371891   T   T   T
  0.3333333333333357  0.6666666666666643  0.1259550467199497   T   T   T
 
  0.00000000E+00  0.00000000E+00  0.00000000E+00
  0.00000000E+00  0.00000000E+00  0.00000000E+00
  0.00000000E+00  0.00000000E+00  0.00000000E+00
  0.00000000E+00  0.00000000E+00  0.00000000E+00
  0.00000000E+00  0.00000000E+00  0.00000000E+00
