Mo3C2 (n=2)                             
   1.00000000000000     
     2.8684390756451172    0.0000000000000000    0.0000000000000000
    -1.4342195378225586    2.4841411087543426    0.0000000000000000
     0.0000000000000000    0.0000000000000000   38.0298162470885259
   Mo   C 
     3     2
Selective dynamics
Direct
  0.0000000000000000  0.0000000000000000  0.9976827938485208   T   T   T
  0.0000000000000000  0.0000000000000000  0.0714285714285694   T   T   T
  0.0000000000000000  0.0000000000000000  0.1451743490086251   T   T   T
  0.3333333333333357  0.6666666666666643  0.0332834431960940   T   T   T
  0.3333333333333357  0.6666666666666643  0.1095736996610448   T   T   T
 
  0.00000000E+00  0.00000000E+00  0.00000000E+00
  0.00000000E+00  0.00000000E+00  0.00000000E+00
  0.00000000E+00  0.00000000E+00  0.00000000E+00
  0.00000000E+00  0.00000000E+00  0.00000000E+00
  0.00000000E+00  0.00000000E+00  0.00000000E+00
