Cr3N2  (n=2)
1.00000000000000
2.6244441636954638  0.0000000000000000  0.0000000000000000
-1.3122220818477319  2.2728353165683663  0.0000000000000000
0.0000000000000000  0.0000000000000000  35.1456967968823477
Cr  N
3  2
Selective  dynamics
Direct
0.0000000000000000  0.0000000000000000  0.0000000000000000  T  T  T
0.0000000000000000  0.0000000000000000  0.0732052180757827  T  T  T
0.0000000000000000  0.0000000000000000  0.1464104361515691  T  T  T
0.3333333333333357  0.6666666666666643  0.0347757704179049  T  T  T
0.3333333333333357  0.6666666666666643  0.1116346657336641  T  T  T

0.00000000E+00  0.00000000E+00  0.00000000E+00
0.00000000E+00  0.00000000E+00  0.00000000E+00
0.00000000E+00  0.00000000E+00  0.00000000E+00
0.00000000E+00  0.00000000E+00  0.00000000E+00
0.00000000E+00  0.00000000E+00  0.00000000E+00
