Mo3N2 (n=2)                             
   1.00000000000000     
     2.8343851071736492    0.0000000000000000    0.0000000000000000
    -1.4171925535868246    2.4546495069608945    0.0000000000000000
     0.0000000000000000    0.0000000000000000   38.3520242840897509
   Mo   N 
     3     2
Selective dynamics
Direct
  0.0000000000000000  0.0000000000000000  0.9975672709029536   T   T   T
  0.0000000000000000  0.0000000000000000  0.0714285714285694   T   T   T
  0.0000000000000000  0.0000000000000000  0.1452898719541922   T   T   T
  0.3333333333333357  0.6666666666666643  0.0339773564765235   T   T   T
  0.3333333333333357  0.6666666666666643  0.1088797863806153   T   T   T
 
  0.00000000E+00  0.00000000E+00  0.00000000E+00
  0.00000000E+00  0.00000000E+00  0.00000000E+00
  0.00000000E+00  0.00000000E+00  0.00000000E+00
  0.00000000E+00  0.00000000E+00  0.00000000E+00
  0.00000000E+00  0.00000000E+00  0.00000000E+00
