Ta3C2 (n=2)                             
   1.00000000000000     
     2.9931845243816229    0.0000000000000000    0.0000000000000000
    -1.4965922621908114    2.5921738364222522    0.0000000000000000
     0.0000000000000000    0.0000000000000000   35.0779028585717256
   Ta   C 
     3     2
Selective dynamics
Direct
  0.0000000000000000  0.0000000000000000  0.9896441912099253   T   T   T
  0.0000000000000000  0.0000000000000000  0.0714285714285694   T   T   T
  0.0000000000000000  0.0000000000000000  0.1532129516472206   T   T   T
  0.3333333333333357  0.6666666666666643  0.0292942420955389   T   T   T
  0.3333333333333357  0.6666666666666643  0.1135629007615999   T   T   T
 
  0.00000000E+00  0.00000000E+00  0.00000000E+00
  0.00000000E+00  0.00000000E+00  0.00000000E+00
  0.00000000E+00  0.00000000E+00  0.00000000E+00
  0.00000000E+00  0.00000000E+00  0.00000000E+00
  0.00000000E+00  0.00000000E+00  0.00000000E+00
