Hf3N2  (n=2)
1.00000000000000
3.0531617430972378  0.0000000000000000  0.0000000000000000
-1.5265808715486189  2.6441156315107017  0.0000000000000000
0.0000000000000000  0.0000000000000000  35.8899126266928690
Hf  N
3  2
Selective  dynamics
Direct
0.0000000000000000  0.0000000000000000  0.0000000000000000  T  T  T
0.0000000000000000  0.0000000000000000  0.0820552656112094  T  T  T
0.0000000000000000  0.0000000000000000  0.1641105312224217  T  T  T
0.3333333333333357  0.6666666666666643  0.0414870917937521  T  T  T
0.3333333333333357  0.6666666666666643  0.1226234394286696  T  T  T

0.00000000E+00  0.00000000E+00  0.00000000E+00
0.00000000E+00  0.00000000E+00  0.00000000E+00
0.00000000E+00  0.00000000E+00  0.00000000E+00
0.00000000E+00  0.00000000E+00  0.00000000E+00
0.00000000E+00  0.00000000E+00  0.00000000E+00
