Nb3C2 (n=2)                             
   1.00000000000000     
     3.0064257107289429    0.0000000000000000    0.0000000000000000
    -1.5032128553644715    2.6036410401858157    0.0000000000000000
     0.0000000000000000    0.0000000000000000   34.9635999839223217
   Nb   C 
     3     2
Selective dynamics
Direct
  0.0000000000000000  0.0000000000000000  0.9893584916342328   T   T   T
  0.0000000000000000  0.0000000000000000  0.0714285714285694   T   T   T
  0.0000000000000000  0.0000000000000000  0.1534986512229060   T   T   T
  0.3333333333333357  0.6666666666666643  0.0286973646628349   T   T   T
  0.3333333333333357  0.6666666666666643  0.1141597781943039   T   T   T
 
  0.00000000E+00  0.00000000E+00  0.00000000E+00
  0.00000000E+00  0.00000000E+00  0.00000000E+00
  0.00000000E+00  0.00000000E+00  0.00000000E+00
  0.00000000E+00  0.00000000E+00  0.00000000E+00
  0.00000000E+00  0.00000000E+00  0.00000000E+00
