Ta4N3  (n=3)
1.00000000000000
2.9140924693163250  0.0000000000000000  0.0000000000000000
-1.4570462346581625  2.5236781076712709  0.0000000000000000
0.0000000000000000  0.0000000000000000  38.6705166065733152
Ta  N  O  H
4  3  2  2
Selective  dynamics
Direct
0.0000000000000000  0.0000000000000000  0.0628871744760436  T  T  T
0.0000000000000000  0.0000000000000000  0.1389637520457493  T  T  T
-0.0000000000000000  0.0000000000000000  0.2145488928887525  T  T  T
0.0000000000000000  0.0000000000000000  0.2906254704584583  T  T  T
0.3333333333333357  0.6666666666666643  0.1019490836317721  T  T  T
0.3333333333333357  0.6666666666666643  0.1767563224672510  T  T  T
0.3333333333333357  0.6666666666666643  0.2515635613027221  T  T  T
0.6666666666666643  0.3333333333333357  0.0255515828072856  T  T  T
0.6666666666666643  0.3333333333333357  0.3279610621272318  T  T  T
0.6666666666666643  0.3333333333333357  0.0000000000000000  T  T  T
0.6666666666666643  0.3333333333333357  0.3535126449345020  T  T  T

0.00000000E+00  0.00000000E+00  0.00000000E+00
0.00000000E+00  0.00000000E+00  0.00000000E+00
0.00000000E+00  0.00000000E+00  0.00000000E+00
0.00000000E+00  0.00000000E+00  0.00000000E+00
0.00000000E+00  0.00000000E+00  0.00000000E+00
0.00000000E+00  0.00000000E+00  0.00000000E+00
0.00000000E+00  0.00000000E+00  0.00000000E+00
0.00000000E+00  0.00000000E+00  0.00000000E+00
0.00000000E+00  0.00000000E+00  0.00000000E+00
0.00000000E+00  0.00000000E+00  0.00000000E+00
0.00000000E+00  0.00000000E+00  0.00000000E+00
