Sc4N3  (n=3)
1.00000000000000
3.1427948295903394  0.0000000000000000  0.0000000000000000
-1.5713974147951699  2.7217401616992905  0.0000000000000000
0.0000000000000000  0.0000000000000000  37.7226719020357137
Sc  N  O  H
4  3  2  2
Selective  dynamics
Direct
-0.0000000000000000  0.0000000000000000  0.0593575359290474  T  T  T
-0.0000000000000000  0.0000000000000000  0.1324022779398070  T  T  T
-0.0000000000000000  0.0000000000000000  0.2048662998289150  T  T  T
-0.0000000000000000  0.0000000000000000  0.2779110418396825  T  T  T
0.3333333333333357  0.6666666666666643  0.0912644890305575  T  T  T
0.3333333333333357  0.6666666666666643  0.1686342888843649  T  T  T
0.3333333333333357  0.6666666666666643  0.2460040887381567  T  T  T
0.6666666666666643  0.3333333333333357  0.0257655708483386  T  T  T
0.6666666666666643  0.3333333333333357  0.3115030069203834  T  T  T
0.6666666666666643  0.3333333333333357  0.0000000000000000  T  T  T
0.6666666666666643  0.3333333333333357  0.3372685777687220  T  T  T

0.00000000E+00  0.00000000E+00  0.00000000E+00
0.00000000E+00  0.00000000E+00  0.00000000E+00
0.00000000E+00  0.00000000E+00  0.00000000E+00
0.00000000E+00  0.00000000E+00  0.00000000E+00
0.00000000E+00  0.00000000E+00  0.00000000E+00
0.00000000E+00  0.00000000E+00  0.00000000E+00
0.00000000E+00  0.00000000E+00  0.00000000E+00
0.00000000E+00  0.00000000E+00  0.00000000E+00
0.00000000E+00  0.00000000E+00  0.00000000E+00
0.00000000E+00  0.00000000E+00  0.00000000E+00
0.00000000E+00  0.00000000E+00  0.00000000E+00
