Zr4C3  (n=3)
1.00000000000000
3.3038934455331321  0.0000000000000003  0.0000000000000000
-1.6519467227665661  2.8612556574933912  0.0000000000000000
0.0000000000000000  0.0000000000000000  38.2474284037520107
Zr  C  O  H
4  3  2  2
Selective  dynamics
Direct
0.0000000000000000  0.0000000000000000  0.0611919869247735  T  T  T
0.0000000000000000  0.0000000000000000  0.1361414063647687  T  T  T
0.0000000000000000  0.0000000000000000  0.2102198774294760  T  T  T
0.0000000000000000  0.0000000000000000  0.2851692968694713  T  T  T
0.3333333333333357  0.6666666666666643  0.0931199319613756  T  T  T
0.3333333333333357  0.6666666666666643  0.1731806418971261  T  T  T
0.3333333333333357  0.6666666666666643  0.2532413518328690  T  T  T
0.6666666666666643  0.3333333333333357  0.0254823937961518  T  T  T
0.6666666666666643  0.3333333333333357  0.3208788899980927  T  T  T
0.6666666666666643  0.3333333333333357  0.0000000000000000  T  T  T
0.6666666666666643  0.3333333333333357  0.3463612837942449  T  T  T

0.00000000E+00  0.00000000E+00  0.00000000E+00
0.00000000E+00  0.00000000E+00  0.00000000E+00
0.00000000E+00  0.00000000E+00  0.00000000E+00
0.00000000E+00  0.00000000E+00  0.00000000E+00
0.00000000E+00  0.00000000E+00  0.00000000E+00
0.00000000E+00  0.00000000E+00  0.00000000E+00
0.00000000E+00  0.00000000E+00  0.00000000E+00
0.00000000E+00  0.00000000E+00  0.00000000E+00
0.00000000E+00  0.00000000E+00  0.00000000E+00
0.00000000E+00  0.00000000E+00  0.00000000E+00
0.00000000E+00  0.00000000E+00  0.00000000E+00
