Hf4N3  (n=3)
1.00000000000000
3.0654746728858404  -0.0000000000000002  0.0000000000000000
-1.5327373364429202  2.6547789418487784  0.0000000000000000
0.0000000000000000  0.0000000000000000  38.4912720552184595
Hf  N  O  H
4  3  2  2
Selective  dynamics
Direct
0.0000000000000000  0.0000000000000000  0.0618198741676261  T  T  T
0.0000000000000000  0.0000000000000000  0.1372940876068889  T  T  T
0.0000000000000000  0.0000000000000000  0.2132080219587361  T  T  T
0.0000000000000000  0.0000000000000000  0.2886822353979914  T  T  T
0.3333333333333357  0.6666666666666643  0.0991044290346801  T  T  T
0.3333333333333357  0.6666666666666643  0.1752510547828087  T  T  T
0.3333333333333357  0.6666666666666643  0.2513976805309295  T  T  T
0.6666666666666643  0.3333333333333357  0.0256257571232874  T  T  T
0.6666666666666643  0.3333333333333357  0.3248763524423300  T  T  T
0.6666666666666643  0.3333333333333357  0.0000000000000000  T  T  T
0.6666666666666643  0.3333333333333357  0.3505021095656250  T  T  T

0.00000000E+00  0.00000000E+00  0.00000000E+00
0.00000000E+00  0.00000000E+00  0.00000000E+00
0.00000000E+00  0.00000000E+00  0.00000000E+00
0.00000000E+00  0.00000000E+00  0.00000000E+00
0.00000000E+00  0.00000000E+00  0.00000000E+00
0.00000000E+00  0.00000000E+00  0.00000000E+00
0.00000000E+00  0.00000000E+00  0.00000000E+00
0.00000000E+00  0.00000000E+00  0.00000000E+00
0.00000000E+00  0.00000000E+00  0.00000000E+00
0.00000000E+00  0.00000000E+00  0.00000000E+00
0.00000000E+00  0.00000000E+00  0.00000000E+00
