Cr4N3  (n=3)
1.00000000000000
2.6918829491464487  0.0000000000000000  0.0000000000000000
-1.3459414745732243  2.3312390179765465  0.0000000000000000
0.0000000000000000  0.0000000000000000  37.2241135574258308
Cr  N  O  H
4  3  2  2
Selective  dynamics
Direct
-0.0000000000000000  0.0000000000000000  0.0605939760452005  T  T  T
-0.0000000000000000  0.0000000000000000  0.1292610968769733  T  T  T
-0.0000000000000000  0.0000000000000000  0.1991312378005906  T  T  T
-0.0000000000000000  0.0000000000000000  0.2677983586323562  T  T  T
0.3333333333333357  0.6666666666666643  0.0950130570347689  T  T  T
0.3333333333333357  0.6666666666666643  0.1641961673387783  T  T  T
0.3333333333333357  0.6666666666666643  0.2333792776427877  T  T  T
0.6666666666666643  0.3333333333333357  0.0264640347453499  T  T  T
0.6666666666666643  0.3333333333333357  0.3019282999322141  T  T  T
0.6666666666666643  0.3333333333333357  0.0000000000000000  T  T  T
0.6666666666666643  0.3333333333333357  0.3283923346775640  T  T  T

0.00000000E+00  0.00000000E+00  0.00000000E+00
0.00000000E+00  0.00000000E+00  0.00000000E+00
0.00000000E+00  0.00000000E+00  0.00000000E+00
0.00000000E+00  0.00000000E+00  0.00000000E+00
0.00000000E+00  0.00000000E+00  0.00000000E+00
0.00000000E+00  0.00000000E+00  0.00000000E+00
0.00000000E+00  0.00000000E+00  0.00000000E+00
0.00000000E+00  0.00000000E+00  0.00000000E+00
0.00000000E+00  0.00000000E+00  0.00000000E+00
0.00000000E+00  0.00000000E+00  0.00000000E+00
0.00000000E+00  0.00000000E+00  0.00000000E+00
