Ti4C3  (n=3)
1.00000000000000
3.0537897659964508  0.0000000000000002  0.0000000000000000
-1.5268948829982247  2.6446595153908112  0.0000000000000000
0.0000000000000000  0.0000000000000000  37.3190340836925856
Ti  C  O  H
4  3  2  2
Selective  dynamics
Direct
-0.0000000000000000  -0.0000000000000000  0.0599810435320484  T  T  T
-0.0000000000000000  0.0000000000000000  0.1301268892895133  T  T  T
-0.0000000000000000  -0.0000000000000000  0.1999736716217260  T  T  T
-0.0000000000000000  -0.0000000000000000  0.2701195173791907  T  T  T
0.3333333333333357  0.6666666666666643  0.0908222942451578  T  T  T
0.3333333333333357  0.6666666666666643  0.1650502804556195  T  T  T
0.3333333333333357  0.6666666666666643  0.2392782666660734  T  T  T
0.6666666666666643  0.3333333333333357  0.0260787874992594  T  T  T
0.6666666666666643  0.3333333333333357  0.3040217734119796  T  T  T
0.6666666666666643  0.3333333333333357  0.0000000000000000  T  T  T
0.6666666666666643  0.3333333333333357  0.3301005609112395  T  T  T

0.00000000E+00  0.00000000E+00  0.00000000E+00
0.00000000E+00  0.00000000E+00  0.00000000E+00
0.00000000E+00  0.00000000E+00  0.00000000E+00
0.00000000E+00  0.00000000E+00  0.00000000E+00
0.00000000E+00  0.00000000E+00  0.00000000E+00
0.00000000E+00  0.00000000E+00  0.00000000E+00
0.00000000E+00  0.00000000E+00  0.00000000E+00
0.00000000E+00  0.00000000E+00  0.00000000E+00
0.00000000E+00  0.00000000E+00  0.00000000E+00
0.00000000E+00  0.00000000E+00  0.00000000E+00
0.00000000E+00  0.00000000E+00  0.00000000E+00
