Mo4N3  (n=3)
1.00000000000000
2.8642514343598977  -0.0000000000000003  0.0000000000000000
-1.4321257171799486  2.4805145050915893  0.0000000000000000
0.0000000000000000  0.0000000000000000  38.3447010217766149
Mo  N  O  H
4  3  2  2
Selective  dynamics
Direct
-0.0000000000000000  -0.0000000000000000  0.0629974034655350  T  T  T
-0.0000000000000000  -0.0000000000000000  0.1365340848726257  T  T  T
-0.0000000000000000  -0.0000000000000000  0.2114853458747321  T  T  T
-0.0000000000000000  -0.0000000000000000  0.2850220272818226  T  T  T
0.3333333333333357  0.6666666666666643  0.1006579019574004  T  T  T
0.3333333333333357  0.6666666666666643  0.1740097153736788  T  T  T
0.3333333333333357  0.6666666666666643  0.2473615287899571  T  T  T
0.6666666666666643  0.3333333333333357  0.0256283749639772  T  T  T
0.6666666666666643  0.3333333333333357  0.3223910557833806  T  T  T
0.6666666666666643  0.3333333333333357  0.0000000000000000  T  T  T
0.6666666666666643  0.3333333333333357  0.3480194307473654  T  T  T

0.00000000E+00  0.00000000E+00  0.00000000E+00
0.00000000E+00  0.00000000E+00  0.00000000E+00
0.00000000E+00  0.00000000E+00  0.00000000E+00
0.00000000E+00  0.00000000E+00  0.00000000E+00
0.00000000E+00  0.00000000E+00  0.00000000E+00
0.00000000E+00  0.00000000E+00  0.00000000E+00
0.00000000E+00  0.00000000E+00  0.00000000E+00
0.00000000E+00  0.00000000E+00  0.00000000E+00
0.00000000E+00  0.00000000E+00  0.00000000E+00
0.00000000E+00  0.00000000E+00  0.00000000E+00
0.00000000E+00  0.00000000E+00  0.00000000E+00
