Nb4C3  (n=3)
1.00000000000000
3.0487055684984146  0.0000000000000001  0.0000000000000000
-1.5243527842492073  2.6402564714264605  0.0000000000000000
0.0000000000000000  0.0000000000000000  38.4172546122694882
Nb  C  O  H
4  3  2  2
Selective  dynamics
Direct
-0.0000000000000000  -0.0000000000000000  0.0625579708685367  T  T  T
-0.0000000000000000  -0.0000000000000000  0.1371353575364943  T  T  T
-0.0000000000000000  -0.0000000000000000  0.2121153827281258  T  T  T
-0.0000000000000000  -0.0000000000000000  0.2866927693960911  T  T  T
0.3333333333333357  0.6666666666666643  0.0982033366668688  T  T  T
0.3333333333333357  0.6666666666666643  0.1746253701323101  T  T  T
0.3333333333333357  0.6666666666666643  0.2510474035977435  T  T  T
0.6666666666666643  0.3333333333333357  0.0255126881200934  T  T  T
0.6666666666666643  0.3333333333333357  0.3237380521445265  T  T  T
0.6666666666666643  0.3333333333333357  0.0000000000000000  T  T  T
0.6666666666666643  0.3333333333333357  0.3492507402646196  T  T  T

0.00000000E+00  0.00000000E+00  0.00000000E+00
0.00000000E+00  0.00000000E+00  0.00000000E+00
0.00000000E+00  0.00000000E+00  0.00000000E+00
0.00000000E+00  0.00000000E+00  0.00000000E+00
0.00000000E+00  0.00000000E+00  0.00000000E+00
0.00000000E+00  0.00000000E+00  0.00000000E+00
0.00000000E+00  0.00000000E+00  0.00000000E+00
0.00000000E+00  0.00000000E+00  0.00000000E+00
0.00000000E+00  0.00000000E+00  0.00000000E+00
0.00000000E+00  0.00000000E+00  0.00000000E+00
0.00000000E+00  0.00000000E+00  0.00000000E+00
