Zr4N3  (n=3)
1.00000000000000
3.1240412070051482  0.0000000000000005  0.0000000000000000
-1.5620206035025734  2.7054990484086296  0.0000000000000000
0.0000000000000000  0.0000000000000000  38.6197547345913819
Zr  N  O  H
4  3  2  2
Selective  dynamics
Direct
-0.0000000000000000  0.0000000000000000  0.0620268902754960  T  T  T
-0.0000000000000000  0.0000000000000000  0.1380293239504740  T  T  T
-0.0000000000000000  0.0000000000000000  0.2146335768937042  T  T  T
-0.0000000000000000  0.0000000000000000  0.2906360105686822  T  T  T
0.3333333333333357  0.6666666666666643  0.0995602031778969  T  T  T
0.3333333333333357  0.6666666666666643  0.1763314504220852  T  T  T
0.3333333333333357  0.6666666666666643  0.2531026976662737  T  T  T
0.6666666666666643  0.3333333333333357  0.0253578799153764  T  T  T
0.6666666666666643  0.3333333333333357  0.3273050209287940  T  T  T
0.6666666666666643  0.3333333333333357  0.0000000000000000  T  T  T
0.6666666666666643  0.3333333333333357  0.3526629008441703  T  T  T

0.00000000E+00  0.00000000E+00  0.00000000E+00
0.00000000E+00  0.00000000E+00  0.00000000E+00
0.00000000E+00  0.00000000E+00  0.00000000E+00
0.00000000E+00  0.00000000E+00  0.00000000E+00
0.00000000E+00  0.00000000E+00  0.00000000E+00
0.00000000E+00  0.00000000E+00  0.00000000E+00
0.00000000E+00  0.00000000E+00  0.00000000E+00
0.00000000E+00  0.00000000E+00  0.00000000E+00
0.00000000E+00  0.00000000E+00  0.00000000E+00
0.00000000E+00  0.00000000E+00  0.00000000E+00
0.00000000E+00  0.00000000E+00  0.00000000E+00
