Ti4N3  (n=3)
1.00000000000000
2.9107759576370418  -0.0000000000000001  0.0000000000000000
-1.4553879788185211  2.5208059241311322  0.0000000000000000
0.0000000000000000  0.0000000000000000  37.5436681553184286
Ti  N  O  H
4  3  2  2
Selective  dynamics
Direct
0.0000000000000000  0.0000000000000000  0.0602545872734402  T  T  T
0.0000000000000000  0.0000000000000000  0.1312363412397232  T  T  T
0.0000000000000000  0.0000000000000000  0.2028724118907616  T  T  T
0.0000000000000000  0.0000000000000000  0.2738541658570446  T  T  T
0.3333333333333357  0.6666666666666643  0.0938853792749978  T  T  T
0.3333333333333357  0.6666666666666643  0.1670543765652464  T  T  T
0.3333333333333357  0.6666666666666643  0.2402233738554871  T  T  T
0.6666666666666643  0.3333333333333357  0.0261264889214043  T  T  T
0.6666666666666643  0.3333333333333357  0.3079822642090884  T  T  T
0.6666666666666643  0.3333333333333357  0.0000000000000000  T  T  T
0.6666666666666643  0.3333333333333357  0.3341087531304927  T  T  T

0.00000000E+00  0.00000000E+00  0.00000000E+00
0.00000000E+00  0.00000000E+00  0.00000000E+00
0.00000000E+00  0.00000000E+00  0.00000000E+00
0.00000000E+00  0.00000000E+00  0.00000000E+00
0.00000000E+00  0.00000000E+00  0.00000000E+00
0.00000000E+00  0.00000000E+00  0.00000000E+00
0.00000000E+00  0.00000000E+00  0.00000000E+00
0.00000000E+00  0.00000000E+00  0.00000000E+00
0.00000000E+00  0.00000000E+00  0.00000000E+00
0.00000000E+00  0.00000000E+00  0.00000000E+00
0.00000000E+00  0.00000000E+00  0.00000000E+00
