Ta4C3  (n=3)
1.00000000000000
3.0279512474349328  -0.0000000000000003  0.0000000000000000
-1.5139756237174662  2.6222827023283721  0.0000000000000000
0.0000000000000000  0.0000000000000000  38.4052240143371790
Ta  C  O  H
4  3  2  2
Selective  dynamics
Direct
0.0000000000000000  0.0000000000000000  0.0626934669866448  T  T  T
0.0000000000000000  0.0000000000000000  0.1371838198014542  T  T  T
0.0000000000000000  0.0000000000000000  0.2118630705208839  T  T  T
0.0000000000000000  0.0000000000000000  0.2863534233356933  T  T  T
0.3333333333333357  0.6666666666666643  0.0978609532450556  T  T  T
0.3333333333333357  0.6666666666666643  0.1745234451611690  T  T  T
0.3333333333333357  0.6666666666666643  0.2511859370772745  T  T  T
0.6666666666666643  0.3333333333333357  0.0256729749558249  T  T  T
0.6666666666666643  0.3333333333333357  0.3233739153665132  T  T  T
0.6666666666666643  0.3333333333333357  0.0000000000000000  T  T  T
0.6666666666666643  0.3333333333333357  0.3490468903223382  T  T  T

0.00000000E+00  0.00000000E+00  0.00000000E+00
0.00000000E+00  0.00000000E+00  0.00000000E+00
0.00000000E+00  0.00000000E+00  0.00000000E+00
0.00000000E+00  0.00000000E+00  0.00000000E+00
0.00000000E+00  0.00000000E+00  0.00000000E+00
0.00000000E+00  0.00000000E+00  0.00000000E+00
0.00000000E+00  0.00000000E+00  0.00000000E+00
0.00000000E+00  0.00000000E+00  0.00000000E+00
0.00000000E+00  0.00000000E+00  0.00000000E+00
0.00000000E+00  0.00000000E+00  0.00000000E+00
0.00000000E+00  0.00000000E+00  0.00000000E+00
