Mo4C3  (n=3)
1.00000000000000
2.9083094307442776  0.0000000000000001  0.0000000000000000
-1.4541547153721388  2.5186698493122770  0.0000000000000000
0.0000000000000000  0.0000000000000000  38.2950752968103814
Mo  C  O  H
4  3  2  2
Selective  dynamics
Direct
-0.0000000000000000  0.0000000000000000  0.0628680494606867  T  T  T
-0.0000000000000000  0.0000000000000000  0.1364009481739912  T  T  T
-0.0000000000000000  0.0000000000000000  0.2107735956483061  T  T  T
-0.0000000000000000  0.0000000000000000  0.2843064943616106  T  T  T
0.3333333333333357  0.6666666666666643  0.0996039304417258  T  T  T
0.3333333333333357  0.6666666666666643  0.1735872719111487  T  T  T
0.3333333333333357  0.6666666666666643  0.2475706133805717  T  T  T
0.6666666666666643  0.3333333333333357  0.0255973115321050  T  T  T
0.6666666666666643  0.3333333333333357  0.3215772322902000  T  T  T
0.6666666666666643  0.3333333333333357  0.0000000000000000  T  T  T
0.6666666666666643  0.3333333333333357  0.3471745438222897  T  T  T

0.00000000E+00  0.00000000E+00  0.00000000E+00
0.00000000E+00  0.00000000E+00  0.00000000E+00
0.00000000E+00  0.00000000E+00  0.00000000E+00
0.00000000E+00  0.00000000E+00  0.00000000E+00
0.00000000E+00  0.00000000E+00  0.00000000E+00
0.00000000E+00  0.00000000E+00  0.00000000E+00
0.00000000E+00  0.00000000E+00  0.00000000E+00
0.00000000E+00  0.00000000E+00  0.00000000E+00
0.00000000E+00  0.00000000E+00  0.00000000E+00
0.00000000E+00  0.00000000E+00  0.00000000E+00
0.00000000E+00  0.00000000E+00  0.00000000E+00
