Sc4C3  (n=3)
1.00000000000000
3.2667766667029303  0.0000000000000000  0.0000000000000000
-1.6333883333514647  2.8291115823286765  0.0000000000000000
0.0000000000000000  0.0000000000000000  37.9347494282590390
Sc  C  O  H
4  3  2  2
Selective  dynamics
Direct
-0.0000000000000000  -0.0000000000000000  0.0580188468483156  T  T  T
-0.0000000000000000  -0.0000000000000000  0.1321588267546355  T  T  T
-0.0000000000000000  -0.0000000000000000  0.2088148088488052  T  T  T
-0.0000000000000000  -0.0000000000000000  0.2829547887551252  T  T  T
0.3333333333333357  0.6666666666666643  0.0929893574917814  T  T  T
0.3333333333333357  0.6666666666666643  0.1704868178017244  T  T  T
0.3333333333333357  0.6666666666666643  0.2479842781116514  T  T  T
0.6666666666666643  0.3333333333333357  0.0256309846035308  T  T  T
0.6666666666666643  0.3333333333333357  0.3153426509999099  T  T  T
0.6666666666666643  0.3333333333333357  0.0000000000000000  T  T  T
0.6666666666666643  0.3333333333333357  0.3409736356034410  T  T  T

0.00000000E+00  0.00000000E+00  0.00000000E+00
0.00000000E+00  0.00000000E+00  0.00000000E+00
0.00000000E+00  0.00000000E+00  0.00000000E+00
0.00000000E+00  0.00000000E+00  0.00000000E+00
0.00000000E+00  0.00000000E+00  0.00000000E+00
0.00000000E+00  0.00000000E+00  0.00000000E+00
0.00000000E+00  0.00000000E+00  0.00000000E+00
0.00000000E+00  0.00000000E+00  0.00000000E+00
0.00000000E+00  0.00000000E+00  0.00000000E+00
0.00000000E+00  0.00000000E+00  0.00000000E+00
0.00000000E+00  0.00000000E+00  0.00000000E+00
