Nb4N3  (n=3)
1.00000000000000
2.9400480978635772  0.0000000000000001  0.0000000000000000
-1.4700240489317886  2.5461563414438624  0.0000000000000000
0.0000000000000000  0.0000000000000000  38.6314967060181260
Nb  N  O  H
4  3  2  2
Selective  dynamics
Direct
-0.0000000000000000  0.0000000000000000  0.0627393782552415  T  T  T
-0.0000000000000000  0.0000000000000000  0.1386158910582363  T  T  T
-0.0000000000000000  -0.0000000000000000  0.2142437666907802  T  T  T
-0.0000000000000000  -0.0000000000000000  0.2901202794937829  T  T  T
0.3333333333333357  0.6666666666666643  0.1016541359254835  T  T  T
0.3333333333333357  0.6666666666666643  0.1764298288745082  T  T  T
0.3333333333333357  0.6666666666666643  0.2512055218235253  T  T  T
0.6666666666666643  0.3333333333333357  0.0254071809084436  T  T  T
0.6666666666666643  0.3333333333333357  0.3274524768405883  T  T  T
0.6666666666666643  0.3333333333333357  0.0000000000000000  T  T  T
0.6666666666666643  0.3333333333333357  0.3528596577490245  T  T  T

0.00000000E+00  0.00000000E+00  0.00000000E+00
0.00000000E+00  0.00000000E+00  0.00000000E+00
0.00000000E+00  0.00000000E+00  0.00000000E+00
0.00000000E+00  0.00000000E+00  0.00000000E+00
0.00000000E+00  0.00000000E+00  0.00000000E+00
0.00000000E+00  0.00000000E+00  0.00000000E+00
0.00000000E+00  0.00000000E+00  0.00000000E+00
0.00000000E+00  0.00000000E+00  0.00000000E+00
0.00000000E+00  0.00000000E+00  0.00000000E+00
0.00000000E+00  0.00000000E+00  0.00000000E+00
0.00000000E+00  0.00000000E+00  0.00000000E+00
