Hf4C3  (n=3)
1.00000000000000
3.2595477143171605  0.0000000000000000  0.0000000000000000
-1.6297738571585805  2.8228511268165351  0.0000000000000000
0.0000000000000000  0.0000000000000000  38.0224738249613026
Hf  C  O  H
4  3  2  2
Selective  dynamics
Direct
0.0000000000000000  -0.0000000000000000  0.0606537989938922  T  T  T
0.0000000000000000  -0.0000000000000000  0.1346659423613565  T  T  T
0.0000000000000000  -0.0000000000000000  0.2078281805857991  T  T  T
0.0000000000000000  -0.0000000000000000  0.2818403239532556  T  T  T
0.3333333333333357  0.6666666666666643  0.0918860469701425  T  T  T
0.3333333333333357  0.6666666666666643  0.1712470614735778  T  T  T
0.3333333333333357  0.6666666666666643  0.2506080759770054  T  T  T
0.6666666666666643  0.3333333333333357  0.0257358058315390  T  T  T
0.6666666666666643  0.3333333333333357  0.3167583171156167  T  T  T
0.6666666666666643  0.3333333333333357  0.0000000000000000  T  T  T
0.6666666666666643  0.3333333333333357  0.3424941229471556  T  T  T

0.00000000E+00  0.00000000E+00  0.00000000E+00
0.00000000E+00  0.00000000E+00  0.00000000E+00
0.00000000E+00  0.00000000E+00  0.00000000E+00
0.00000000E+00  0.00000000E+00  0.00000000E+00
0.00000000E+00  0.00000000E+00  0.00000000E+00
0.00000000E+00  0.00000000E+00  0.00000000E+00
0.00000000E+00  0.00000000E+00  0.00000000E+00
0.00000000E+00  0.00000000E+00  0.00000000E+00
0.00000000E+00  0.00000000E+00  0.00000000E+00
0.00000000E+00  0.00000000E+00  0.00000000E+00
0.00000000E+00  0.00000000E+00  0.00000000E+00
