Cr4C3  (n=3)
1.00000000000000
2.7231954024876495  -0.0000000000000001  0.0000000000000000
-1.3615977012438250  2.3583563980074742  0.0000000000000000
0.0000000000000000  0.0000000000000000  37.2815647071684069
Cr  C  O  H
4  3  2  2
Selective  dynamics
Direct
0.0000000000000000  0.0000000000000000  0.0604404032946645  T  T  T
0.0000000000000000  0.0000000000000000  0.1295591039837193  T  T  T
0.0000000000000000  0.0000000000000000  0.1998681827633590  T  T  T
0.0000000000000000  0.0000000000000000  0.2689868834524213  T  T  T
0.3333333333333357  0.6666666666666643  0.0948016302888706  T  T  T
0.3333333333333357  0.6666666666666643  0.1647136433735430  T  T  T
0.3333333333333357  0.6666666666666643  0.2346256564582077  T  T  T
0.6666666666666643  0.3333333333333357  0.0262915387528246  T  T  T
0.6666666666666643  0.3333333333333357  0.3031357479942614  T  T  T
0.6666666666666643  0.3333333333333357  0.0000000000000000  T  T  T
0.6666666666666643  0.3333333333333357  0.3294272867470859  T  T  T

0.00000000E+00  0.00000000E+00  0.00000000E+00
0.00000000E+00  0.00000000E+00  0.00000000E+00
0.00000000E+00  0.00000000E+00  0.00000000E+00
0.00000000E+00  0.00000000E+00  0.00000000E+00
0.00000000E+00  0.00000000E+00  0.00000000E+00
0.00000000E+00  0.00000000E+00  0.00000000E+00
0.00000000E+00  0.00000000E+00  0.00000000E+00
0.00000000E+00  0.00000000E+00  0.00000000E+00
0.00000000E+00  0.00000000E+00  0.00000000E+00
0.00000000E+00  0.00000000E+00  0.00000000E+00
0.00000000E+00  0.00000000E+00  0.00000000E+00
