Ta2N  (n=1)
1.00000000000000
3.0126950958919321  0.0000000000000000  0.0000000000000000
-1.5063475479459660  2.6090704869396091  0.0000000000000000
0.0000000000000000  0.0000000000000000  32.3171435877587925
Ta  N  H
2  3  2
Selective  dynamics
Direct
0.0000000000000000  0.0000000000000000  0.0692308616727310  T  T  T
0.0000000000000000  0.0000000000000000  0.1571859182598461  T  T  T
0.3333333333333357  0.6666666666666643  0.1132083899662885  T  T  T
0.3333333333333357  0.6666666666666643  0.0316043611984402  T  T  T
0.3333333333333357  0.6666666666666643  0.1948124187341284  T  T  T
0.3333333333333357  0.6666666666666643  0.0000000000000000  T  T  T
0.3333333333333357  0.6666666666666643  0.2264167799325684  T  T  T

0.00000000E+00  0.00000000E+00  0.00000000E+00
0.00000000E+00  0.00000000E+00  0.00000000E+00
0.00000000E+00  0.00000000E+00  0.00000000E+00
0.00000000E+00  0.00000000E+00  0.00000000E+00
0.00000000E+00  0.00000000E+00  0.00000000E+00
0.00000000E+00  0.00000000E+00  0.00000000E+00
0.00000000E+00  0.00000000E+00  0.00000000E+00
