Cr2N  (n=1)
1.00000000000000
2.6954516246143090  0.0000000000000000  0.0000000000000000
-1.3477258123071545  2.3343295816299725  0.0000000000000000
0.0000000000000000  0.0000000000000000  31.9086795321660830
Cr  N  H
2  3  2
Selective  dynamics
Direct
-0.0000000000000000  -0.0000000000000000  0.0677270625854563  T  T  T
-0.0000000000000000  -0.0000000000000000  0.1487870531178174  T  T  T
0.3333333333333357  0.6666666666666643  0.1082570578516369  T  T  T
0.3333333333333357  0.6666666666666643  0.0320955145847626  T  T  T
0.3333333333333357  0.6666666666666643  0.1844186011185110  T  T  T
0.3333333333333357  0.6666666666666643  0.0000000000000000  T  T  T
0.3333333333333357  0.6666666666666643  0.2165141157032736  T  T  T

0.00000000E+00  0.00000000E+00  0.00000000E+00
0.00000000E+00  0.00000000E+00  0.00000000E+00
0.00000000E+00  0.00000000E+00  0.00000000E+00
0.00000000E+00  0.00000000E+00  0.00000000E+00
0.00000000E+00  0.00000000E+00  0.00000000E+00
0.00000000E+00  0.00000000E+00  0.00000000E+00
0.00000000E+00  0.00000000E+00  0.00000000E+00
