Hf2N  (n=1)
1.00000000000000
3.1752653380673967  0.0000000000000000  0.0000000000000000
-1.5876326690336984  2.7498604465966268  0.0000000000000000
0.0000000000000000  0.0000000000000000  32.2699812147362977
Hf  N  H
2  3  2
Selective  dynamics
Direct
-0.0000000000000000  -0.0000000000000000  0.0673891249257172  T  T  T
-0.0000000000000000  -0.0000000000000000  0.1578970680335982  T  T  T
0.3333333333333357  0.6666666666666643  0.1126430964796534  T  T  T
0.3333333333333357  0.6666666666666643  0.0318326429240490  T  T  T
0.3333333333333357  0.6666666666666643  0.1934535500352582  T  T  T
0.3333333333333357  0.6666666666666643  0.0000000000000000  T  T  T
0.3333333333333357  0.6666666666666643  0.2252861929593071  T  T  T

0.00000000E+00  0.00000000E+00  0.00000000E+00
0.00000000E+00  0.00000000E+00  0.00000000E+00
0.00000000E+00  0.00000000E+00  0.00000000E+00
0.00000000E+00  0.00000000E+00  0.00000000E+00
0.00000000E+00  0.00000000E+00  0.00000000E+00
0.00000000E+00  0.00000000E+00  0.00000000E+00
0.00000000E+00  0.00000000E+00  0.00000000E+00
