Cr2C  (n=1)
1.00000000000000
2.7033569012091543  0.0000000000000001  0.0000000000000000
-1.3516784506045771  2.3411757519741090  0.0000000000000000
0.0000000000000000  0.0000000000000000  31.9483495055023532
Cr  C  N  H
2  1  2  2
Selective  dynamics
Direct
-0.0000000000000000  0.0000000000000000  0.0679268967834171  T  T  T
-0.0000000000000000  -0.0000000000000000  0.1495600661755196  T  T  T
0.3333333333333357  0.6666666666666643  0.1087434814794642  T  T  T
0.3333333333333357  0.6666666666666643  0.0320692052515082  T  T  T
0.3333333333333357  0.6666666666666643  0.1854177577074285  T  T  T
0.3333333333333357  0.6666666666666643  0.0000000000000000  T  T  T
0.3333333333333357  0.6666666666666643  0.2174869629589367  T  T  T

0.00000000E+00  0.00000000E+00  0.00000000E+00
0.00000000E+00  0.00000000E+00  0.00000000E+00
0.00000000E+00  0.00000000E+00  0.00000000E+00
0.00000000E+00  0.00000000E+00  0.00000000E+00
0.00000000E+00  0.00000000E+00  0.00000000E+00
0.00000000E+00  0.00000000E+00  0.00000000E+00
0.00000000E+00  0.00000000E+00  0.00000000E+00
