Hf2C  (n=1)
1.00000000000000
3.2310722299106720  0.0000000000000000  0.0000000000000000
-1.6155361149553360  2.7981906326617696  0.0000000000000000
0.0000000000000000  0.0000000000000000  32.3184990559649989
Hf  C  N  H
2  1  2  2
Selective  dynamics
Direct
-0.0000000000000000  0.0000000000000000  0.0665504643177480  T  T  T
-0.0000000000000000  0.0000000000000000  0.1598987604216650  T  T  T
0.3333333333333357  0.6666666666666643  0.1132246123697066  T  T  T
0.3333333333333357  0.6666666666666643  0.0319529906661052  T  T  T
0.3333333333333357  0.6666666666666643  0.1944962340733078  T  T  T
0.3333333333333357  0.6666666666666643  0.0000000000000000  T  T  T
0.3333333333333357  0.6666666666666643  0.2264492247394214  T  T  T

0.00000000E+00  0.00000000E+00  0.00000000E+00
0.00000000E+00  0.00000000E+00  0.00000000E+00
0.00000000E+00  0.00000000E+00  0.00000000E+00
0.00000000E+00  0.00000000E+00  0.00000000E+00
0.00000000E+00  0.00000000E+00  0.00000000E+00
0.00000000E+00  0.00000000E+00  0.00000000E+00
0.00000000E+00  0.00000000E+00  0.00000000E+00
