Ti2C  (n=1)
1.00000000000000
3.0233772366616232  0.0000000000000000  0.0000000000000000
-1.5116886183308116  2.6183214922255882  0.0000000000000000
0.0000000000000000  0.0000000000000000  32.0372092080394921
Ti  C  N  H
2  1  2  2
Selective  dynamics
Direct
-0.0000000000000000  0.0000000000000000  0.0653624932725452  T  T  T
-0.0000000000000000  0.0000000000000000  0.1542948795760721  T  T  T
0.3333333333333357  0.6666666666666643  0.1098286864243046  T  T  T
0.3333333333333357  0.6666666666666643  0.0322358834156166  T  T  T
0.3333333333333357  0.6666666666666643  0.1874214894330008  T  T  T
0.3333333333333357  0.6666666666666643  0.0000000000000000  T  T  T
0.3333333333333357  0.6666666666666643  0.2196573728486175  T  T  T

0.00000000E+00  0.00000000E+00  0.00000000E+00
0.00000000E+00  0.00000000E+00  0.00000000E+00
0.00000000E+00  0.00000000E+00  0.00000000E+00
0.00000000E+00  0.00000000E+00  0.00000000E+00
0.00000000E+00  0.00000000E+00  0.00000000E+00
0.00000000E+00  0.00000000E+00  0.00000000E+00
0.00000000E+00  0.00000000E+00  0.00000000E+00
