Sc2N  (n=1)
1.00000000000000
3.1653449468932968  0.0000000000000000  0.0000000000000000
-1.5826724734466484  2.7412691358327033  0.0000000000000000
0.0000000000000000  0.0000000000000000  32.3867878725845486
Sc  N  H
2  3  2
Selective  dynamics
Direct
-0.0000000000000000  0.0000000000000000  0.0642595093384362  T  T  T
-0.0000000000000000  0.0000000000000000  0.1638207776491308  T  T  T
0.3333333333333357  0.6666666666666643  0.1140401434937795  T  T  T
0.3333333333333357  0.6666666666666643  0.0317518310955988  T  T  T
0.3333333333333357  0.6666666666666643  0.1963284558919604  T  T  T
0.3333333333333357  0.6666666666666643  0.0000000000000000  T  T  T
0.3333333333333357  0.6666666666666643  0.2280802869875673  T  T  T

0.00000000E+00  0.00000000E+00  0.00000000E+00
0.00000000E+00  0.00000000E+00  0.00000000E+00
0.00000000E+00  0.00000000E+00  0.00000000E+00
0.00000000E+00  0.00000000E+00  0.00000000E+00
0.00000000E+00  0.00000000E+00  0.00000000E+00
0.00000000E+00  0.00000000E+00  0.00000000E+00
0.00000000E+00  0.00000000E+00  0.00000000E+00
