Mo2C  (n=1)
1.00000000000000
2.9215094594107391  0.0000000000000000  0.0000000000000000
-1.4607547297053696  2.5301014092754421  0.0000000000000000
0.0000000000000000  0.0000000000000000  32.3084981390137571
Mo  C  N  H
2  1  2  2
Selective  dynamics
Direct
0.0000000000000000  0.0000000000000000  0.0697086081045570  T  T  T
0.0000000000000000  0.0000000000000000  0.1565011682696802  T  T  T
0.3333333333333357  0.6666666666666643  0.1131048881871145  T  T  T
0.3333333333333357  0.6666666666666643  0.0316216923950877  T  T  T
0.3333333333333357  0.6666666666666643  0.1945880839791495  T  T  T
0.3333333333333357  0.6666666666666643  0.0000000000000000  T  T  T
0.3333333333333357  0.6666666666666643  0.2262097763742371  T  T  T

0.00000000E+00  0.00000000E+00  0.00000000E+00
0.00000000E+00  0.00000000E+00  0.00000000E+00
0.00000000E+00  0.00000000E+00  0.00000000E+00
0.00000000E+00  0.00000000E+00  0.00000000E+00
0.00000000E+00  0.00000000E+00  0.00000000E+00
0.00000000E+00  0.00000000E+00  0.00000000E+00
0.00000000E+00  0.00000000E+00  0.00000000E+00
