Nb2N  (n=1)
1.00000000000000
3.0298530666885299  0.0000000000000000  0.0000000000000000
-1.5149265333442650  2.6239297255336020  0.0000000000000000
0.0000000000000000  0.0000000000000000  32.3387970624142014
Nb  N  H
2  3  2
Selective  dynamics
Direct
0.0000000000000000  -0.0000000000000000  0.0694687455587314  T  T  T
0.0000000000000000  -0.0000000000000000  0.1574660117314130  T  T  T
0.3333333333333357  0.6666666666666643  0.1134673786450765  T  T  T
0.3333333333333357  0.6666666666666643  0.0316132923797824  T  T  T
0.3333333333333357  0.6666666666666643  0.1953214649103622  T  T  T
0.3333333333333357  0.6666666666666643  0.0000000000000000  T  T  T
0.3333333333333357  0.6666666666666643  0.2269347572901445  T  T  T

0.00000000E+00  0.00000000E+00  0.00000000E+00
0.00000000E+00  0.00000000E+00  0.00000000E+00
0.00000000E+00  0.00000000E+00  0.00000000E+00
0.00000000E+00  0.00000000E+00  0.00000000E+00
0.00000000E+00  0.00000000E+00  0.00000000E+00
0.00000000E+00  0.00000000E+00  0.00000000E+00
0.00000000E+00  0.00000000E+00  0.00000000E+00
