Ta2C  (n=1)
1.00000000000000
3.0695968548044745  -0.0000000000000006  0.0000000000000000
-1.5347984274022373  2.6583488556840607  0.0000000000000000
0.0000000000000000  0.0000000000000000  32.2805495241798610
Ta  C  N  H
2  1  2  2
Selective  dynamics
Direct
-0.0000000000000000  -0.0000000000000000  0.0692400906130995  T  T  T
-0.0000000000000000  -0.0000000000000000  0.1562997354275425  T  T  T
0.3333333333333357  0.6666666666666643  0.1127699130203210  T  T  T
0.3333333333333357  0.6666666666666643  0.0317777345160869  T  T  T
0.3333333333333357  0.6666666666666643  0.1937620915245637  T  T  T
0.3333333333333357  0.6666666666666643  0.0000000000000000  T  T  T
0.3333333333333357  0.6666666666666643  0.2255398260406422  T  T  T

0.00000000E+00  0.00000000E+00  0.00000000E+00
0.00000000E+00  0.00000000E+00  0.00000000E+00
0.00000000E+00  0.00000000E+00  0.00000000E+00
0.00000000E+00  0.00000000E+00  0.00000000E+00
0.00000000E+00  0.00000000E+00  0.00000000E+00
0.00000000E+00  0.00000000E+00  0.00000000E+00
0.00000000E+00  0.00000000E+00  0.00000000E+00
