Mo2N  (n=1)
1.00000000000000
2.9139848956514278  0.0000000000000000  0.0000000000000000
-1.4569924478257139  2.5235849459041981  0.0000000000000000
0.0000000000000000  0.0000000000000000  32.2886846042435138
Mo  N  H
2  3  2
Selective  dynamics
Direct
-0.0000000000000000  -0.0000000000000000  0.0694209006375297  T  T  T
-0.0000000000000000  -0.0000000000000000  0.1563140493481791  T  T  T
0.3333333333333357  0.6666666666666643  0.1128674749928587  T  T  T
0.3333333333333357  0.6666666666666643  0.0316660173758593  T  T  T
0.3333333333333357  0.6666666666666643  0.1940689326098581  T  T  T
0.3333333333333357  0.6666666666666643  0.0000000000000000  T  T  T
0.3333333333333357  0.6666666666666643  0.2257349499857174  T  T  T

0.00000000E+00  0.00000000E+00  0.00000000E+00
0.00000000E+00  0.00000000E+00  0.00000000E+00
0.00000000E+00  0.00000000E+00  0.00000000E+00
0.00000000E+00  0.00000000E+00  0.00000000E+00
0.00000000E+00  0.00000000E+00  0.00000000E+00
0.00000000E+00  0.00000000E+00  0.00000000E+00
0.00000000E+00  0.00000000E+00  0.00000000E+00
