Zr2N  (n=1)
1.00000000000000
3.2278987235512644  0.0000000000000000  0.0000000000000000
-1.6139493617756322  2.7954422955231921  0.0000000000000000
0.0000000000000000  0.0000000000000000  32.3396853243383191
Zr  N  H
2  3  2
Selective  dynamics
Direct
0.0000000000000000  -0.0000000000000000  0.0677316213380040  T  T  T
0.0000000000000000  -0.0000000000000000  0.1592243694432146  T  T  T
0.3333333333333357  0.6666666666666643  0.1134779953906136  T  T  T
0.3333333333333357  0.6666666666666643  0.0317735578800808  T  T  T
0.3333333333333357  0.6666666666666643  0.1951824329011378  T  T  T
0.3333333333333357  0.6666666666666643  0.0000000000000000  T  T  T
0.3333333333333357  0.6666666666666643  0.2269559907812273  T  T  T

0.00000000E+00  0.00000000E+00  0.00000000E+00
0.00000000E+00  0.00000000E+00  0.00000000E+00
0.00000000E+00  0.00000000E+00  0.00000000E+00
0.00000000E+00  0.00000000E+00  0.00000000E+00
0.00000000E+00  0.00000000E+00  0.00000000E+00
0.00000000E+00  0.00000000E+00  0.00000000E+00
0.00000000E+00  0.00000000E+00  0.00000000E+00
