Sc2C  (n=1)
1.00000000000000
3.3003303666643409  0.0000000000000000  0.0000000000000000
-1.6501651833321704  2.8581699385151929  0.0000000000000000
0.0000000000000000  0.0000000000000000  32.2091771759323393
Sc  C  N  H
2  1  2  2
Selective  dynamics
Direct
0.0000000000000000  -0.0000000000000000  0.0607693821383128  T  T  T
0.0000000000000000  -0.0000000000000000  0.1630543168203734  T  T  T
0.3333333333333357  0.6666666666666643  0.1119118494793350  T  T  T
0.3333333333333357  0.6666666666666643  0.0320661675243717  T  T  T
0.3333333333333357  0.6666666666666643  0.1917575314343063  T  T  T
0.3333333333333357  0.6666666666666643  0.0000000000000000  T  T  T
0.3333333333333357  0.6666666666666643  0.2238236989586699  T  T  T

0.00000000E+00  0.00000000E+00  0.00000000E+00
0.00000000E+00  0.00000000E+00  0.00000000E+00
0.00000000E+00  0.00000000E+00  0.00000000E+00
0.00000000E+00  0.00000000E+00  0.00000000E+00
0.00000000E+00  0.00000000E+00  0.00000000E+00
0.00000000E+00  0.00000000E+00  0.00000000E+00
0.00000000E+00  0.00000000E+00  0.00000000E+00
