Nb2C  (n=1)
1.00000000000000
3.0917845284930272  0.0000000000000000  0.0000000000000000
-1.5458922642465136  2.6775639447589765  0.0000000000000000
0.0000000000000000  0.0000000000000000  32.2785659242376255
Nb  C  N  H
2  1  2  2
Selective  dynamics
Direct
-0.0000000000000000  -0.0000000000000000  0.0692149990255596  T  T  T
-0.0000000000000000  -0.0000000000000000  0.1562772344683775  T  T  T
0.3333333333333357  0.6666666666666643  0.1127461167469686  T  T  T
0.3333333333333357  0.6666666666666643  0.0318108845849610  T  T  T
0.3333333333333357  0.6666666666666643  0.1936813489089763  T  T  T
0.3333333333333357  0.6666666666666643  0.0000000000000000  T  T  T
0.3333333333333357  0.6666666666666643  0.2254922334939370  T  T  T

0.00000000E+00  0.00000000E+00  0.00000000E+00
0.00000000E+00  0.00000000E+00  0.00000000E+00
0.00000000E+00  0.00000000E+00  0.00000000E+00
0.00000000E+00  0.00000000E+00  0.00000000E+00
0.00000000E+00  0.00000000E+00  0.00000000E+00
0.00000000E+00  0.00000000E+00  0.00000000E+00
0.00000000E+00  0.00000000E+00  0.00000000E+00
