Ti2N  (n=1)
1.00000000000000
2.9631064607962037  0.0000000000000000  0.0000000000000000
-1.4815532303981018  2.5661254691998554  0.0000000000000000
0.0000000000000000  0.0000000000000000  31.9977092535440732
Ti  N  H
2  3  2
Selective  dynamics
Direct
-0.0000000000000000  -0.0000000000000000  0.0667669149557432  T  T  T
-0.0000000000000000  -0.0000000000000000  0.1519271546132839  T  T  T
0.3333333333333357  0.6666666666666643  0.1093470347845094  T  T  T
0.3333333333333357  0.6666666666666643  0.0321161765087970  T  T  T
0.3333333333333357  0.6666666666666643  0.1865778930602301  T  T  T
0.3333333333333357  0.6666666666666643  0.0000000000000000  T  T  T
0.3333333333333357  0.6666666666666643  0.2186940695690272  T  T  T

0.00000000E+00  0.00000000E+00  0.00000000E+00
0.00000000E+00  0.00000000E+00  0.00000000E+00
0.00000000E+00  0.00000000E+00  0.00000000E+00
0.00000000E+00  0.00000000E+00  0.00000000E+00
0.00000000E+00  0.00000000E+00  0.00000000E+00
0.00000000E+00  0.00000000E+00  0.00000000E+00
0.00000000E+00  0.00000000E+00  0.00000000E+00
