Zr2C  (n=1)
1.00000000000000
3.2829947527072667  0.0000000000000000  0.0000000000000000
-1.6414973763536334  2.8431568564461789  0.0000000000000000
0.0000000000000000  0.0000000000000000  32.3859370014739483
Zr  C  N  H
2  1  2  2
Selective  dynamics
Direct
0.0000000000000000  -0.0000000000000000  0.0665406291363235  T  T  T
0.0000000000000000  -0.0000000000000000  0.1615193773145568  T  T  T
0.3333333333333357  0.6666666666666643  0.1140300032254360  T  T  T
0.3333333333333357  0.6666666666666643  0.0318979697466621  T  T  T
0.3333333333333357  0.6666666666666643  0.1961620367042181  T  T  T
0.3333333333333357  0.6666666666666643  0.0000000000000000  T  T  T
0.3333333333333357  0.6666666666666643  0.2280600064508802  T  T  T

0.00000000E+00  0.00000000E+00  0.00000000E+00
0.00000000E+00  0.00000000E+00  0.00000000E+00
0.00000000E+00  0.00000000E+00  0.00000000E+00
0.00000000E+00  0.00000000E+00  0.00000000E+00
0.00000000E+00  0.00000000E+00  0.00000000E+00
0.00000000E+00  0.00000000E+00  0.00000000E+00
0.00000000E+00  0.00000000E+00  0.00000000E+00
