Hf4C3  (n=3)
1.00000000000000
3.3385594055407255  0.0000000000000000  0.0000000000000000
-1.6692797027703627  2.8912772578660699  0.0000000000000000
0.0000000000000000  0.0000000000000000  37.9554992496052748
Hf  C  Te
4  3  2
Selective  dynamics
Direct
0.0000000000000000  -0.0000000000000000  0.0592271884462909  T  T  T
0.0000000000000000  -0.0000000000000000  0.1337644262067144  T  T  T
0.0000000000000000  0.0000000000000000  0.2075694912951006  T  T  T
0.0000000000000000  -0.0000000000000000  0.2821067290555159  T  T  T
0.3333333333333357  0.6666666666666643  0.0911984991193316  T  T  T
0.3333333333333357  0.6666666666666643  0.1706669587509075  T  T  T
0.3333333333333357  0.6666666666666643  0.2501354183824753  T  T  T
0.6666666666666643  0.3333333333333357  0.0000000000000000  T  T  T
0.6666666666666643  0.3333333333333357  0.3413339175018231  T  T  T

0.00000000E+00  0.00000000E+00  0.00000000E+00
0.00000000E+00  0.00000000E+00  0.00000000E+00
0.00000000E+00  0.00000000E+00  0.00000000E+00
0.00000000E+00  0.00000000E+00  0.00000000E+00
0.00000000E+00  0.00000000E+00  0.00000000E+00
0.00000000E+00  0.00000000E+00  0.00000000E+00
0.00000000E+00  0.00000000E+00  0.00000000E+00
0.00000000E+00  0.00000000E+00  0.00000000E+00
0.00000000E+00  0.00000000E+00  0.00000000E+00
