Mo4C3  (n=3)
1.00000000000000
3.0535296941670107  0.0000000000000000  0.0000000000000000
-1.5267648470835051  2.6444342864340702  0.0000000000000000
0.0000000000000000  0.0000000000000000  37.5936766034185439
Mo  C  Te
4  3  2
Selective  dynamics
Direct
-0.0000000000000000  -0.0000000000000000  0.0567616587445467  T  T  T
-0.0000000000000000  0.0000000000000000  0.1302620462806330  T  T  T
-0.0000000000000000  0.0000000000000000  0.2047324991124969  T  T  T
-0.0000000000000000  -0.0000000000000000  0.2782328866485832  T  T  T
0.3333333333333357  0.6666666666666643  0.0934295926981929  T  T  T
0.3333333333333357  0.6666666666666643  0.1674972726965649  T  T  T
0.3333333333333357  0.6666666666666643  0.2415649526949370  T  T  T
0.6666666666666643  0.3333333333333357  0.0000000000000000  T  T  T
0.6666666666666643  0.3333333333333357  0.3349945453931299  T  T  T

0.00000000E+00  0.00000000E+00  0.00000000E+00
0.00000000E+00  0.00000000E+00  0.00000000E+00
0.00000000E+00  0.00000000E+00  0.00000000E+00
0.00000000E+00  0.00000000E+00  0.00000000E+00
0.00000000E+00  0.00000000E+00  0.00000000E+00
0.00000000E+00  0.00000000E+00  0.00000000E+00
0.00000000E+00  0.00000000E+00  0.00000000E+00
0.00000000E+00  0.00000000E+00  0.00000000E+00
0.00000000E+00  0.00000000E+00  0.00000000E+00
