Sc4N3  (n=3)
1.00000000000000
3.2404175043669365  0.0000000000000000  0.0000000000000000
-1.6202087521834683  2.8062838778753361  0.0000000000000000
0.0000000000000000  0.0000000000000000  37.8257384283136560
Sc  N  Te
4  3  2
Selective  dynamics
Direct
-0.0000000000000000  0.0000000000000000  0.0614785846772970  T  T  T
-0.0000000000000000  0.0000000000000000  0.1336413502779522  T  T  T
-0.0000000000000000  0.0000000000000000  0.2054330197471211  T  T  T
-0.0000000000000000  0.0000000000000000  0.2775957853477843  T  T  T
0.3333333333333357  0.6666666666666643  0.0920777057297526  T  T  T
0.3333333333333357  0.6666666666666643  0.1695371850125407  T  T  T
0.3333333333333357  0.6666666666666643  0.2469966642953127  T  T  T
0.6666666666666643  0.3333333333333357  0.0000000000000000  T  T  T
0.6666666666666643  0.3333333333333357  0.3390743700250733  T  T  T

0.00000000E+00  0.00000000E+00  0.00000000E+00
0.00000000E+00  0.00000000E+00  0.00000000E+00
0.00000000E+00  0.00000000E+00  0.00000000E+00
0.00000000E+00  0.00000000E+00  0.00000000E+00
0.00000000E+00  0.00000000E+00  0.00000000E+00
0.00000000E+00  0.00000000E+00  0.00000000E+00
0.00000000E+00  0.00000000E+00  0.00000000E+00
0.00000000E+00  0.00000000E+00  0.00000000E+00
0.00000000E+00  0.00000000E+00  0.00000000E+00
