Ta4N3  (n=3)
1.00000000000000
3.0499943012180029  0.0000000000000000  0.0000000000000000
-1.5249971506090014  2.6413725464310946  0.0000000000000000
0.0000000000000000  0.0000000000000000  38.1627830090261284
Ta  N  Te
4  3  2
Selective  dynamics
Direct
-0.0000000000000000  0.0000000000000000  0.0592812242378197  T  T  T
-0.0000000000000000  0.0000000000000000  0.1348667828880015  T  T  T
-0.0000000000000000  0.0000000000000000  0.2100447243758479  T  T  T
-0.0000000000000000  0.0000000000000000  0.2856302830260219  T  T  T
0.3333333333333357  0.6666666666666643  0.0982041923738382  T  T  T
0.3333333333333357  0.6666666666666643  0.1724557536319209  T  T  T
0.3333333333333357  0.6666666666666643  0.2467073148899957  T  T  T
0.6666666666666643  0.3333333333333357  0.0000000000000000  T  T  T
0.6666666666666643  0.3333333333333357  0.3449115072638417  T  T  T

0.00000000E+00  0.00000000E+00  0.00000000E+00
0.00000000E+00  0.00000000E+00  0.00000000E+00
0.00000000E+00  0.00000000E+00  0.00000000E+00
0.00000000E+00  0.00000000E+00  0.00000000E+00
0.00000000E+00  0.00000000E+00  0.00000000E+00
0.00000000E+00  0.00000000E+00  0.00000000E+00
0.00000000E+00  0.00000000E+00  0.00000000E+00
0.00000000E+00  0.00000000E+00  0.00000000E+00
0.00000000E+00  0.00000000E+00  0.00000000E+00
