Hf4N3  (n=3)
1.00000000000000
3.2066559230981775  -0.0000000000000002  0.0000000000000000
-1.6033279615490887  2.7770454912371814  0.0000000000000000
0.0000000000000000  0.0000000000000000  38.1147587713061782
Hf  N  Te
4  3  2
Selective  dynamics
Direct
0.0000000000000000  0.0000000000000000  0.0588146129809870  T  T  T
0.0000000000000000  0.0000000000000000  0.1341364772547423  T  T  T
0.0000000000000000  0.0000000000000000  0.2099496246669977  T  T  T
0.0000000000000000  0.0000000000000000  0.2852714889407455  T  T  T
0.3333333333333357  0.6666666666666643  0.0956204754745554  T  T  T
0.3333333333333357  0.6666666666666643  0.1720430509608662  T  T  T
0.3333333333333357  0.6666666666666643  0.2484656264471699  T  T  T
0.6666666666666643  0.3333333333333357  0.0000000000000000  T  T  T
0.6666666666666643  0.3333333333333357  0.3440861019217397  T  T  T

0.00000000E+00  0.00000000E+00  0.00000000E+00
0.00000000E+00  0.00000000E+00  0.00000000E+00
0.00000000E+00  0.00000000E+00  0.00000000E+00
0.00000000E+00  0.00000000E+00  0.00000000E+00
0.00000000E+00  0.00000000E+00  0.00000000E+00
0.00000000E+00  0.00000000E+00  0.00000000E+00
0.00000000E+00  0.00000000E+00  0.00000000E+00
0.00000000E+00  0.00000000E+00  0.00000000E+00
0.00000000E+00  0.00000000E+00  0.00000000E+00
