Zr4C3  (n=3)
1.00000000000000
3.3799402534072445  0.0000000000000000  0.0000000000000000
-1.6899701267036222  2.9271141239247926  0.0000000000000000
0.0000000000000000  0.0000000000000000  38.1101972439644214
Zr  C  Te
4  3  2
Selective  dynamics
Direct
0.0000000000000000  -0.0000000000000000  0.0597018717884603  T  T  T
0.0000000000000000  -0.0000000000000000  0.1349004185427455  T  T  T
0.0000000000000000  -0.0000000000000000  0.2091071750165006  T  T  T
0.0000000000000000  -0.0000000000000000  0.2843057217707859  T  T  T
0.3333333333333357  0.6666666666666643  0.0919463394629621  T  T  T
0.3333333333333357  0.6666666666666643  0.1720037967796271  T  T  T
0.3333333333333357  0.6666666666666643  0.2520612540962842  T  T  T
0.6666666666666643  0.3333333333333357  0.0000000000000000  T  T  T
0.6666666666666643  0.3333333333333357  0.3440075935592462  T  T  T

0.00000000E+00  0.00000000E+00  0.00000000E+00
0.00000000E+00  0.00000000E+00  0.00000000E+00
0.00000000E+00  0.00000000E+00  0.00000000E+00
0.00000000E+00  0.00000000E+00  0.00000000E+00
0.00000000E+00  0.00000000E+00  0.00000000E+00
0.00000000E+00  0.00000000E+00  0.00000000E+00
0.00000000E+00  0.00000000E+00  0.00000000E+00
0.00000000E+00  0.00000000E+00  0.00000000E+00
0.00000000E+00  0.00000000E+00  0.00000000E+00
