Sc4C3  (n=3)
1.00000000000000
3.3241274764380258  0.0000000000000000  0.0000000000000000
-1.6620637382190129  2.8787788405590615  0.0000000000000000
0.0000000000000000  0.0000000000000000  38.2613733894986510
Sc  C  Te
4  3  2
Selective  dynamics
Direct
-0.0000000000000000  0.0000000000000000  0.0643707056227417  T  T  T
-0.0000000000000000  0.0000000000000000  0.1355322422380643  T  T  T
-0.0000000000000000  0.0000000000000000  0.2110672709184190  T  T  T
-0.0000000000000000  0.0000000000000000  0.2822288075337414  T  T  T
0.3333333333333357  0.6666666666666643  0.0954499161227097  T  T  T
0.3333333333333357  0.6666666666666643  0.1732997565782456  T  T  T
0.3333333333333357  0.6666666666666643  0.2511495970337654  T  T  T
0.6666666666666643  0.3333333333333357  0.0000000000000000  T  T  T
0.6666666666666643  0.3333333333333357  0.3465995131564832  T  T  T

0.00000000E+00  0.00000000E+00  0.00000000E+00
0.00000000E+00  0.00000000E+00  0.00000000E+00
0.00000000E+00  0.00000000E+00  0.00000000E+00
0.00000000E+00  0.00000000E+00  0.00000000E+00
0.00000000E+00  0.00000000E+00  0.00000000E+00
0.00000000E+00  0.00000000E+00  0.00000000E+00
0.00000000E+00  0.00000000E+00  0.00000000E+00
0.00000000E+00  0.00000000E+00  0.00000000E+00
0.00000000E+00  0.00000000E+00  0.00000000E+00
