Zr4N3  (n=3)
1.00000000000000
3.2551600866350925  0.0000000000000002  0.0000000000000000
-1.6275800433175462  2.8190513288368093  0.0000000000000000
0.0000000000000000  0.0000000000000000  38.2187527925619861
Zr  N  Te
4  3  2
Selective  dynamics
Direct
-0.0000000000000000  -0.0000000000000000  0.0590434105732591  T  T  T
-0.0000000000000000  -0.0000000000000000  0.1346700665244010  T  T  T
-0.0000000000000000  -0.0000000000000000  0.2112007907562919  T  T  T
-0.0000000000000000  -0.0000000000000000  0.2868274467074337  T  T  T
0.3333333333333357  0.6666666666666643  0.0961884442371664  T  T  T
0.3333333333333357  0.6666666666666643  0.1729354286403426  T  T  T
0.3333333333333357  0.6666666666666643  0.2496824130435109  T  T  T
0.6666666666666643  0.3333333333333357  0.0000000000000000  T  T  T
0.6666666666666643  0.3333333333333357  0.3458708572806851  T  T  T

0.00000000E+00  0.00000000E+00  0.00000000E+00
0.00000000E+00  0.00000000E+00  0.00000000E+00
0.00000000E+00  0.00000000E+00  0.00000000E+00
0.00000000E+00  0.00000000E+00  0.00000000E+00
0.00000000E+00  0.00000000E+00  0.00000000E+00
0.00000000E+00  0.00000000E+00  0.00000000E+00
0.00000000E+00  0.00000000E+00  0.00000000E+00
0.00000000E+00  0.00000000E+00  0.00000000E+00
0.00000000E+00  0.00000000E+00  0.00000000E+00
