Nb4C3  (n=3)
1.00000000000000
3.1359126990796993  0.0000000000000000  0.0000000000000000
-1.5679563495398496  2.7157800617769392  0.0000000000000000
0.0000000000000000  0.0000000000000000  38.2490645370285876
Nb  C  Te
4  3  2
Selective  dynamics
Direct
-0.0000000000000000  -0.0000000000000000  0.0616383539492987  T  T  T
-0.0000000000000000  -0.0000000000000000  0.1359204268541343  T  T  T
-0.0000000000000000  -0.0000000000000000  0.2104688168410229  T  T  T
-0.0000000000000000  -0.0000000000000000  0.2847508897458583  T  T  T
0.3333333333333357  0.6666666666666643  0.0966583163397143  T  T  T
0.3333333333333357  0.6666666666666643  0.1731946218475786  T  T  T
0.3333333333333357  0.6666666666666643  0.2497309273554351  T  T  T
0.6666666666666643  0.3333333333333357  0.0000000000000000  T  T  T
0.6666666666666643  0.3333333333333357  0.3463892436951571  T  T  T

0.00000000E+00  0.00000000E+00  0.00000000E+00
0.00000000E+00  0.00000000E+00  0.00000000E+00
0.00000000E+00  0.00000000E+00  0.00000000E+00
0.00000000E+00  0.00000000E+00  0.00000000E+00
0.00000000E+00  0.00000000E+00  0.00000000E+00
0.00000000E+00  0.00000000E+00  0.00000000E+00
0.00000000E+00  0.00000000E+00  0.00000000E+00
0.00000000E+00  0.00000000E+00  0.00000000E+00
0.00000000E+00  0.00000000E+00  0.00000000E+00
