Nb4N3  (n=3)
1.00000000000000
3.0738403229019502  0.0000000000000000  0.0000000000000000
-1.5369201614509747  2.6620238069967503  0.0000000000000000
0.0000000000000000  0.0000000000000000  38.1411211414062805
Nb  N  Te
4  3  2
Selective  dynamics
Direct
0.0000000000000000  0.0000000000000000  0.0593363613135152  T  T  T
0.0000000000000000  0.0000000000000000  0.1345902217694969  T  T  T
0.0000000000000000  0.0000000000000000  0.2099492345481591  T  T  T
0.0000000000000000  0.0000000000000000  0.2852030950041488  T  T  T
0.3333333333333357  0.6666666666666643  0.0980851511669112  T  T  T
0.3333333333333357  0.6666666666666643  0.1722697281588280  T  T  T
0.3333333333333357  0.6666666666666643  0.2464543051507369  T  T  T
0.6666666666666643  0.3333333333333357  0.0000000000000000  T  T  T
0.6666666666666643  0.3333333333333357  0.3445394563176641  T  T  T

0.00000000E+00  0.00000000E+00  0.00000000E+00
0.00000000E+00  0.00000000E+00  0.00000000E+00
0.00000000E+00  0.00000000E+00  0.00000000E+00
0.00000000E+00  0.00000000E+00  0.00000000E+00
0.00000000E+00  0.00000000E+00  0.00000000E+00
0.00000000E+00  0.00000000E+00  0.00000000E+00
0.00000000E+00  0.00000000E+00  0.00000000E+00
0.00000000E+00  0.00000000E+00  0.00000000E+00
0.00000000E+00  0.00000000E+00  0.00000000E+00
