Cr4N3  (n=3)
1.00000000000000
2.8944459095201038  0.0000000000000000  0.0000000000000000
-1.4472229547600519  2.5066636875267179  0.0000000000000000
0.0000000000000000  0.0000000000000000  36.8006503899159796
Cr  N  Te
4  3  2
Selective  dynamics
Direct
0.0000000000000000  0.0000000000000000  0.0593155587323554  T  T  T
0.0000000000000000  -0.0000000000000000  0.1260635771412187  T  T  T
0.0000000000000000  -0.0000000000000000  0.1946006031078772  T  T  T
0.0000000000000000  0.0000000000000000  0.2613486215167328  T  T  T
0.3333333333333357  0.6666666666666643  0.0899969229193883  T  T  T
0.3333333333333357  0.6666666666666643  0.1603320901245441  T  T  T
0.3333333333333357  0.6666666666666643  0.2306672573296999  T  T  T
0.6666666666666643  0.3333333333333357  0.0000000000000000  T  T  T
0.6666666666666643  0.3333333333333357  0.3206641802490959  T  T  T

0.00000000E+00  0.00000000E+00  0.00000000E+00
0.00000000E+00  0.00000000E+00  0.00000000E+00
0.00000000E+00  0.00000000E+00  0.00000000E+00
0.00000000E+00  0.00000000E+00  0.00000000E+00
0.00000000E+00  0.00000000E+00  0.00000000E+00
0.00000000E+00  0.00000000E+00  0.00000000E+00
0.00000000E+00  0.00000000E+00  0.00000000E+00
0.00000000E+00  0.00000000E+00  0.00000000E+00
0.00000000E+00  0.00000000E+00  0.00000000E+00
