Ti4C3  (n=3)
1.00000000000000
3.1751755092780711  0.0000000000000000  0.0000000000000000
-1.5875877546390356  2.7497826526498437  0.0000000000000000
0.0000000000000000  0.0000000000000000  37.1969874373834273
Ti  C  Te
4  3  2
Selective  dynamics
Direct
0.0000000000000000  -0.0000000000000000  0.0598317109378058  T  T  T
0.0000000000000000  -0.0000000000000000  0.1295183121419486  T  T  T
0.0000000000000000  -0.0000000000000000  0.1983842487284782  T  T  T
0.0000000000000000  -0.0000000000000000  0.2680708499326210  T  T  T
0.3333333333333357  0.6666666666666643  0.0891542191832933  T  T  T
0.3333333333333357  0.6666666666666643  0.1639512804352133  T  T  T
0.3333333333333357  0.6666666666666643  0.2387483416871252  T  T  T
0.6666666666666643  0.3333333333333357  0.0000000000000000  T  T  T
0.6666666666666643  0.3333333333333357  0.3279025608704351  T  T  T

0.00000000E+00  0.00000000E+00  0.00000000E+00
0.00000000E+00  0.00000000E+00  0.00000000E+00
0.00000000E+00  0.00000000E+00  0.00000000E+00
0.00000000E+00  0.00000000E+00  0.00000000E+00
0.00000000E+00  0.00000000E+00  0.00000000E+00
0.00000000E+00  0.00000000E+00  0.00000000E+00
0.00000000E+00  0.00000000E+00  0.00000000E+00
0.00000000E+00  0.00000000E+00  0.00000000E+00
0.00000000E+00  0.00000000E+00  0.00000000E+00
