Mo4N3  (n=3)
1.00000000000000
3.0304769626059285  -0.0000000000000001  0.0000000000000000
-1.5152384813029642  2.6244700352637480  0.0000000000000000
0.0000000000000000  0.0000000000000000  37.5299433164911349
Mo  N  Te
4  3  2
Selective  dynamics
Direct
-0.0000000000000000  -0.0000000000000000  0.0564047937703390  T  T  T
-0.0000000000000000  -0.0000000000000000  0.1296666927079066  T  T  T
-0.0000000000000000  -0.0000000000000000  0.2041985415351999  T  T  T
-0.0000000000000000  -0.0000000000000000  0.2774604404727676  T  T  T
0.3333333333333357  0.6666666666666643  0.0944672448824812  T  T  T
0.3333333333333357  0.6666666666666643  0.1669326171215532  T  T  T
0.3333333333333357  0.6666666666666643  0.2393979893606253  T  T  T
0.6666666666666643  0.3333333333333357  0.0000000000000000  T  T  T
0.6666666666666643  0.3333333333333357  0.3338652342431148  T  T  T

0.00000000E+00  0.00000000E+00  0.00000000E+00
0.00000000E+00  0.00000000E+00  0.00000000E+00
0.00000000E+00  0.00000000E+00  0.00000000E+00
0.00000000E+00  0.00000000E+00  0.00000000E+00
0.00000000E+00  0.00000000E+00  0.00000000E+00
0.00000000E+00  0.00000000E+00  0.00000000E+00
0.00000000E+00  0.00000000E+00  0.00000000E+00
0.00000000E+00  0.00000000E+00  0.00000000E+00
0.00000000E+00  0.00000000E+00  0.00000000E+00
