Ta4C3  (n=3)
1.00000000000000
3.1125745614919671  0.0000000000000000  0.0000000000000000
-1.5562872807459835  2.6955686416202198  0.0000000000000000
0.0000000000000000  0.0000000000000000  38.2612873815863779
Ta  C  Te
4  3  2
Selective  dynamics
Direct
0.0000000000000000  -0.0000000000000000  0.0617070586265803  T  T  T
0.0000000000000000  -0.0000000000000000  0.1360167216919594  T  T  T
0.0000000000000000  -0.0000000000000000  0.2105813226793468  T  T  T
0.0000000000000000  0.0000000000000000  0.2848909857447258  T  T  T
0.3333333333333357  0.6666666666666643  0.0967885510767081  T  T  T
0.3333333333333357  0.6666666666666643  0.1732990221856530  T  T  T
0.3333333333333357  0.6666666666666643  0.2498094932945899  T  T  T
0.6666666666666643  0.3333333333333357  0.0000000000000000  T  T  T
0.6666666666666643  0.3333333333333357  0.3465980443713064  T  T  T

0.00000000E+00  0.00000000E+00  0.00000000E+00
0.00000000E+00  0.00000000E+00  0.00000000E+00
0.00000000E+00  0.00000000E+00  0.00000000E+00
0.00000000E+00  0.00000000E+00  0.00000000E+00
0.00000000E+00  0.00000000E+00  0.00000000E+00
0.00000000E+00  0.00000000E+00  0.00000000E+00
0.00000000E+00  0.00000000E+00  0.00000000E+00
0.00000000E+00  0.00000000E+00  0.00000000E+00
0.00000000E+00  0.00000000E+00  0.00000000E+00
