Cr4C3  (n=3)
1.00000000000000
2.9242752000724908  0.0000000000000000  0.0000000000000000
-1.4621376000362456  2.5324966109132867  0.0000000000000000
0.0000000000000000  0.0000000000000000  36.8221637088907272
Cr  C  Te
4  3  2
Selective  dynamics
Direct
-0.0000000000000000  -0.0000000000000000  0.0587859843289039  T  T  T
-0.0000000000000000  -0.0000000000000000  0.1262708517653857  T  T  T
-0.0000000000000000  -0.0000000000000000  0.1947902298797418  T  T  T
-0.0000000000000000  0.0000000000000000  0.2622750973162321  T  T  T
0.3333333333333357  0.6666666666666643  0.0906349160913076  T  T  T
0.3333333333333357  0.6666666666666643  0.1605305408225681  T  T  T
0.3333333333333357  0.6666666666666643  0.2304261655538198  T  T  T
0.6666666666666643  0.3333333333333357  0.0000000000000000  T  T  T
0.6666666666666643  0.3333333333333357  0.3210610816451360  T  T  T

0.00000000E+00  0.00000000E+00  0.00000000E+00
0.00000000E+00  0.00000000E+00  0.00000000E+00
0.00000000E+00  0.00000000E+00  0.00000000E+00
0.00000000E+00  0.00000000E+00  0.00000000E+00
0.00000000E+00  0.00000000E+00  0.00000000E+00
0.00000000E+00  0.00000000E+00  0.00000000E+00
0.00000000E+00  0.00000000E+00  0.00000000E+00
0.00000000E+00  0.00000000E+00  0.00000000E+00
0.00000000E+00  0.00000000E+00  0.00000000E+00
