Ti4N3  (n=3)
1.00000000000000
3.0542100514288157  -0.0000000000000001  0.0000000000000000
-1.5271050257144081  2.6450234931067178  0.0000000000000000
0.0000000000000000  0.0000000000000000  37.4119526645484868
Ti  N  Te
4  3  2
Selective  dynamics
Direct
-0.0000000000000000  -0.0000000000000000  0.0603007954294275  T  T  T
-0.0000000000000000  -0.0000000000000000  0.1305844679217254  T  T  T
-0.0000000000000000  -0.0000000000000000  0.2011798956184263  T  T  T
-0.0000000000000000  -0.0000000000000000  0.2714635681107239  T  T  T
0.3333333333333357  0.6666666666666643  0.0925893351661334  T  T  T
0.3333333333333357  0.6666666666666643  0.1658821817700797  T  T  T
0.3333333333333357  0.6666666666666643  0.2391750283740258  T  T  T
0.6666666666666643  0.3333333333333357  0.0000000000000000  T  T  T
0.6666666666666643  0.3333333333333357  0.3317643635401591  T  T  T

0.00000000E+00  0.00000000E+00  0.00000000E+00
0.00000000E+00  0.00000000E+00  0.00000000E+00
0.00000000E+00  0.00000000E+00  0.00000000E+00
0.00000000E+00  0.00000000E+00  0.00000000E+00
0.00000000E+00  0.00000000E+00  0.00000000E+00
0.00000000E+00  0.00000000E+00  0.00000000E+00
0.00000000E+00  0.00000000E+00  0.00000000E+00
0.00000000E+00  0.00000000E+00  0.00000000E+00
0.00000000E+00  0.00000000E+00  0.00000000E+00
