Sc2C  (n=1)
1.00000000000000
3.6658953107485690  0.0000000000000000  0.0000000000000000
-1.8329476553742845  3.1747584668516913  0.0000000000000000
-0.0000000000000001  0.0000000000000001  31.4543772862007174
Sc  C  I
2  1  2
Selective  dynamics
Direct
0.0000000000000000  0.0000000000000000  0.0650409748420529  T  T  T
0.6666666666666643  0.3333333333333357  0.1401570879735976  T  T  T
0.3333333333333357  0.6666666666666643  0.1025990314078210  T  T  T
0.6666666666666643  0.3333333333333357  0.0000000000000000  T  T  T
0.0000000000000000  0.0000000000000000  0.2051980628156419  T  T  T

0.00000000E+00  0.00000000E+00  0.00000000E+00
0.00000000E+00  0.00000000E+00  0.00000000E+00
0.00000000E+00  0.00000000E+00  0.00000000E+00
0.00000000E+00  0.00000000E+00  0.00000000E+00
0.00000000E+00  0.00000000E+00  0.00000000E+00
