Ta2N  (n=1)
1.00000000000000
3.5643967182220702  0.0000000000000000  -0.0000000000000000
-1.7821983591110351  3.0868581073110390  -0.0000000000000000
-0.0000000000000000  0.0000000000000001  31.1233253958647005
Ta  N  I
2  1  2
Selective  dynamics
Direct
0.0000000000000000  0.0000000000000000  0.0691658943716848  T  T  T
0.6666666666666643  0.3333333333333357  0.1275780370039224  T  T  T
0.3333333333333357  0.6666666666666643  0.0983719656878073  T  T  T
0.6666666666666643  0.3333333333333357  0.0000000000000000  T  T  T
-0.0000000000000000  -0.0000000000000000  0.1967439313756073  T  T  T

0.00000000E+00  0.00000000E+00  0.00000000E+00
0.00000000E+00  0.00000000E+00  0.00000000E+00
0.00000000E+00  0.00000000E+00  0.00000000E+00
0.00000000E+00  0.00000000E+00  0.00000000E+00
0.00000000E+00  0.00000000E+00  0.00000000E+00
