Cr2N  (n=1)
1.00000000000000
3.3964751209910320  0.0000000000000001  0.0000000000000000
-1.6982375604955160  2.9414337382482092  0.0000000000000000
0.0000000000000001  0.0000000000000001  30.6026841722462386
Cr  N  I
2  1  2
Selective  dynamics
Direct
-0.0000000000000000  -0.0000000000000000  0.0649665388197705  T  T  T
0.6666666666666643  0.3333333333333357  0.1181116559134663  T  T  T
0.3333333333333357  0.6666666666666643  0.0915390973666184  T  T  T
0.6666666666666643  0.3333333333333357  0.0000000000000000  T  T  T
-0.0000000000000000  -0.0000000000000000  0.1830781947332368  T  T  T

0.00000000E+00  0.00000000E+00  0.00000000E+00
0.00000000E+00  0.00000000E+00  0.00000000E+00
0.00000000E+00  0.00000000E+00  0.00000000E+00
0.00000000E+00  0.00000000E+00  0.00000000E+00
0.00000000E+00  0.00000000E+00  0.00000000E+00
