Hf2C  (n=1)
1.00000000000000
3.6069048502343088  0.0000000000000006  0.0000000000000000
-1.8034524251171542  3.1236712294420559  -0.0000000000000001
-0.0000000000000002  -0.0000000000000038  31.4743484768014774
Hf  C  I
2  1  2
Selective  dynamics
Direct
-0.0000000000000000  -0.0000000000000000  0.0674591461575271  T  T  T
0.6666666666666643  0.3333333333333357  0.1382432365803863  T  T  T
0.3333333333333357  0.6666666666666643  0.1028511913689526  T  T  T
0.6666666666666643  0.3333333333333357  0.0000000000000000  T  T  T
-0.0000000000000000  -0.0000000000000000  0.2057023827379134  T  T  T

0.00000000E+00  0.00000000E+00  0.00000000E+00
0.00000000E+00  0.00000000E+00  0.00000000E+00
0.00000000E+00  0.00000000E+00  0.00000000E+00
0.00000000E+00  0.00000000E+00  0.00000000E+00
0.00000000E+00  0.00000000E+00  0.00000000E+00
