Mo2C  (n=1)
1.00000000000000
3.5509515401805118  0.0000000000000000  0.0000000000000000
-1.7754757700902559  3.0752142414888515  0.0000000000000000
0.0000000000000001  0.0000000000000001  30.9880478407620572
Mo  C  I
2  1  2
Selective  dynamics
Direct
0.0000000000000000  0.0000000000000000  0.0688862617337794  T  T  T
0.6666666666666643  0.3333333333333357  0.1243510751753661  T  T  T
0.3333333333333357  0.6666666666666643  0.0966186684545769  T  T  T
0.6666666666666643  0.3333333333333357  0.0000000000000000  T  T  T
0.0000000000000000  0.0000000000000000  0.1932373369091455  T  T  T

0.00000000E+00  0.00000000E+00  0.00000000E+00
0.00000000E+00  0.00000000E+00  0.00000000E+00
0.00000000E+00  0.00000000E+00  0.00000000E+00
0.00000000E+00  0.00000000E+00  0.00000000E+00
0.00000000E+00  0.00000000E+00  0.00000000E+00
