Ti2N  (n=1)
1.00000000000000
3.4590321083890592  -0.0000000000000001  0.0000000000000000
-1.7295160541945296  2.9956096784116188  0.0000000000000000
0.0000000000000000  0.0000000000000001  30.9693055554508661
Ti  N  I
2  1  2
Selective  dynamics
Direct
0.0000000000000000  0.0000000000000000  0.0654566091448850  T  T  T
0.6666666666666643  0.3333333333333357  0.1272924838163049  T  T  T
0.3333333333333357  0.6666666666666643  0.0963745464805911  T  T  T
0.6666666666666643  0.3333333333333357  0.0000000000000000  T  T  T
-0.0000000000000000  -0.0000000000000000  0.1927490929611825  T  T  T

0.00000000E+00  0.00000000E+00  0.00000000E+00
0.00000000E+00  0.00000000E+00  0.00000000E+00
0.00000000E+00  0.00000000E+00  0.00000000E+00
0.00000000E+00  0.00000000E+00  0.00000000E+00
0.00000000E+00  0.00000000E+00  0.00000000E+00
