Hf2N  (n=1)
1.00000000000000
3.5923630654584806  -0.0000000000000004  0.0000000000000000
-1.7961815327292405  3.1110776744208604  -0.0000000000000001
0.0000000000000007  -0.0000000000000003  31.3290218362822586
Hf  N  I
2  1  2
Selective  dynamics
Direct
0.0000000000000000  -0.0000000000000000  0.0674410697584501  T  T  T
0.6666666666666643  0.3333333333333357  0.1345767866992512  T  T  T
0.3333333333333357  0.6666666666666643  0.1010089282288467  T  T  T
0.6666666666666643  0.3333333333333357  0.0000000000000000  T  T  T
0.0000000000000000  0.0000000000000000  0.2020178564577013  T  T  T

0.00000000E+00  0.00000000E+00  0.00000000E+00
0.00000000E+00  0.00000000E+00  0.00000000E+00
0.00000000E+00  0.00000000E+00  0.00000000E+00
0.00000000E+00  0.00000000E+00  0.00000000E+00
0.00000000E+00  0.00000000E+00  0.00000000E+00
