Cr2C  (n=1)
1.00000000000000
3.3776188611479192  0.0000000000000000  0.0000000000000000
-1.6888094305739596  2.9251037380912743  0.0000000000000000
0.0000000000000000  -0.0000000000000002  30.6814689493420687
Cr  C  I
2  1  2
Selective  dynamics
Direct
-0.0000000000000000  0.0000000000000000  0.0645925206585258  T  T  T
0.6666666666666643  0.3333333333333357  0.1205833898796136  T  T  T
0.3333333333333357  0.6666666666666643  0.0925879552690668  T  T  T
0.6666666666666643  0.3333333333333357  0.0000000000000000  T  T  T
-0.0000000000000000  -0.0000000000000000  0.1851759105381393  T  T  T

0.00000000E+00  0.00000000E+00  0.00000000E+00
0.00000000E+00  0.00000000E+00  0.00000000E+00
0.00000000E+00  0.00000000E+00  0.00000000E+00
0.00000000E+00  0.00000000E+00  0.00000000E+00
0.00000000E+00  0.00000000E+00  0.00000000E+00
