Ta2C  (n=1)
1.00000000000000
3.5667629204135567  0.0000000000000000  0.0000000000000003
-1.7833814602067783  3.0889072984773764  -0.0000000000000009
0.0000000000000023  -0.0000000000000046  31.1804542312037682
Ta  C  I
2  1  2
Selective  dynamics
Direct
0.0000000000000000  0.0000000000000000  0.0684994516356338  T  T  T
0.6666666666666643  0.3333333333333357  0.1297162056917355  T  T  T
0.3333333333333357  0.6666666666666643  0.0991078286636847  T  T  T
0.6666666666666643  0.3333333333333357  0.0000000000000000  T  T  T
-0.0000000000000000  -0.0000000000000000  0.1982156573273616  T  T  T

0.00000000E+00  0.00000000E+00  0.00000000E+00
0.00000000E+00  0.00000000E+00  0.00000000E+00
0.00000000E+00  0.00000000E+00  0.00000000E+00
0.00000000E+00  0.00000000E+00  0.00000000E+00
0.00000000E+00  0.00000000E+00  0.00000000E+00
