Nb2N  (n=1)
1.00000000000000
3.5779038718371092  0.0000000000000001  0.0000000000000000
-1.7889519359185544  3.0985556454858192  0.0000000000000000
0.0000000000000001  0.0000000000000000  31.1508333168623608
Nb  N  I
2  1  2
Selective  dynamics
Direct
0.0000000000000000  -0.0000000000000000  0.0691972803892415  T  T  T
0.6666666666666643  0.3333333333333357  0.1282559708383214  T  T  T
0.3333333333333357  0.6666666666666643  0.0987266256137815  T  T  T
0.6666666666666643  0.3333333333333357  0.0000000000000000  T  T  T
-0.0000000000000000  0.0000000000000000  0.1974532512275629  T  T  T

0.00000000E+00  0.00000000E+00  0.00000000E+00
0.00000000E+00  0.00000000E+00  0.00000000E+00
0.00000000E+00  0.00000000E+00  0.00000000E+00
0.00000000E+00  0.00000000E+00  0.00000000E+00
0.00000000E+00  0.00000000E+00  0.00000000E+00
