Zr2N  (n=1)
1.00000000000000
3.6224720121733069  0.0000000000000005  -0.0000000000000003
-1.8112360060866535  3.1371527872809741  0.0000000000000006
-0.0000000000000025  0.0000000000000034  31.4644452813137399
Zr  N  I
2  1  2
Selective  dynamics
Direct
-0.0000000000000000  -0.0000000000000000  0.0682920524813666  T  T  T
0.6666666666666643  0.3333333333333357  0.1371603311064376  T  T  T
0.3333333333333357  0.6666666666666643  0.1027261917938988  T  T  T
0.6666666666666643  0.3333333333333357  0.0000000000000000  T  T  T
-0.0000000000000000  -0.0000000000000000  0.2054523835877976  T  T  T

0.00000000E+00  0.00000000E+00  0.00000000E+00
0.00000000E+00  0.00000000E+00  0.00000000E+00
0.00000000E+00  0.00000000E+00  0.00000000E+00
0.00000000E+00  0.00000000E+00  0.00000000E+00
0.00000000E+00  0.00000000E+00  0.00000000E+00
