Nb2C  (n=1)
1.00000000000000
3.6059281094863072  0.0000000000000001  0.0000000000000000
-1.8029640547431536  3.1228253471702110  0.0000000000000000
0.0000000000000000  -0.0000000000000002  31.1484264812530185
Nb  C  I
2  1  2
Selective  dynamics
Direct
-0.0000000000000000  0.0000000000000000  0.0680369841123420  T  T  T
0.6666666666666643  0.3333333333333357  0.1293542544130939  T  T  T
0.3333333333333357  0.6666666666666643  0.0986956192627220  T  T  T
0.6666666666666643  0.3333333333333357  0.0000000000000000  T  T  T
-0.0000000000000000  0.0000000000000000  0.1973912385254359  T  T  T

0.00000000E+00  0.00000000E+00  0.00000000E+00
0.00000000E+00  0.00000000E+00  0.00000000E+00
0.00000000E+00  0.00000000E+00  0.00000000E+00
0.00000000E+00  0.00000000E+00  0.00000000E+00
0.00000000E+00  0.00000000E+00  0.00000000E+00
