Ti2C  (n=1)
1.00000000000000
3.4717770029198705  0.0000000000000001  0.0000000000000000
-1.7358885014599352  3.0066470808851298  0.0000000000000000
0.0000000000000000  0.0000000000000001  31.0422345072351042
Ti  C  I
2  1  2
Selective  dynamics
Direct
-0.0000000000000000  0.0000000000000000  0.0643899030899423  T  T  T
0.6666666666666643  0.3333333333333357  0.1302557016208449  T  T  T
0.3333333333333357  0.6666666666666643  0.0973228023553978  T  T  T
0.6666666666666643  0.3333333333333357  0.0000000000000000  T  T  T
-0.0000000000000000  -0.0000000000000000  0.1946456047107957  T  T  T

0.00000000E+00  0.00000000E+00  0.00000000E+00
0.00000000E+00  0.00000000E+00  0.00000000E+00
0.00000000E+00  0.00000000E+00  0.00000000E+00
0.00000000E+00  0.00000000E+00  0.00000000E+00
0.00000000E+00  0.00000000E+00  0.00000000E+00
