Sc2N
1.00000000000000
3.5911385756783001  -0.0000000000000002  0.0000000000000004
-1.7955692878391503  3.1100172352440016  0.0000000000000000
0.0000000000000027  0.0000000000000020  31.4042032027161113
Sc  N  I
2  1  2
Selective  dynamics
Direct
-0.0000000000000000  -0.0000000000000000  0.0655814520097348  T  T  T
0.6666666666666643  0.3333333333333357  0.1383467661773843  T  T  T
0.3333333333333357  0.6666666666666643  0.1019641090935594  T  T  T
0.6666666666666643  0.3333333333333357  0.0000000000000000  T  T  T
-0.0000000000000000  -0.0000000000000000  0.2039282181871190  T  T  T

0.00000000E+00  0.00000000E+00  0.00000000E+00
0.00000000E+00  0.00000000E+00  0.00000000E+00
0.00000000E+00  0.00000000E+00  0.00000000E+00
0.00000000E+00  0.00000000E+00  0.00000000E+00
0.00000000E+00  0.00000000E+00  0.00000000E+00
