Zr2C  (n=1)
1.00000000000000
3.6397832452187573  -0.0000000000000010  0.0000000000000003
-1.8198916226093789  3.1521447548373547  -0.0000000000000001
0.0000000000000022  -0.0000000000000016  31.5622690238390682
Zr  C  I
2  1  2
Selective  dynamics
Direct
0.0000000000000000  0.0000000000000000  0.0675624483873966  T  T  T
0.6666666666666643  0.3333333333333357  0.1403525471689293  T  T  T
0.3333333333333357  0.6666666666666643  0.1039574977781663  T  T  T
0.6666666666666643  0.3333333333333357  0.0000000000000000  T  T  T
-0.0000000000000000  -0.0000000000000000  0.2079149955563261  T  T  T

0.00000000E+00  0.00000000E+00  0.00000000E+00
0.00000000E+00  0.00000000E+00  0.00000000E+00
0.00000000E+00  0.00000000E+00  0.00000000E+00
0.00000000E+00  0.00000000E+00  0.00000000E+00
0.00000000E+00  0.00000000E+00  0.00000000E+00
