Mo2N  (n=1)
1.00000000000000
3.5484879632942636  0.0000000000000002  0.0000000000000003
-1.7742439816471314  3.0730807214684641  -0.0000000000000007
0.0000000000000020  -0.0000000000000069  30.9676108353697614
Mo  N  I
2  1  2
Selective  dynamics
Direct
-0.0000000000000000  -0.0000000000000000  0.0696114159719689  T  T  T
0.6666666666666643  0.3333333333333357  0.1230934997251063  T  T  T
0.3333333333333357  0.6666666666666643  0.0963524578485349  T  T  T
0.6666666666666643  0.3333333333333357  0.0000000000000000  T  T  T
0.0000000000000000  0.0000000000000000  0.1927049156970752  T  T  T

0.00000000E+00  0.00000000E+00  0.00000000E+00
0.00000000E+00  0.00000000E+00  0.00000000E+00
0.00000000E+00  0.00000000E+00  0.00000000E+00
0.00000000E+00  0.00000000E+00  0.00000000E+00
0.00000000E+00  0.00000000E+00  0.00000000E+00
