Sc2C  (n=1)
1.00000000000000
3.1824363122532380  0.0000000000000000  0.0000000000000000
-1.5912181561266190  2.7560706924316114  0.0000000000000000
0.0000000000000000  0.0000000000000000  30.0936740342936915
Sc  C  H
2  1  2
Selective  dynamics
Direct
0.0000000000000000  -0.0000000000000000  0.0386861015312017  T  T  T
0.0000000000000000  -0.0000000000000000  0.1305745220965206  T  T  T
0.3333333333333357  0.6666666666666643  0.0846303118138569  T  T  T
0.3333333333333357  0.6666666666666643  0.0000000000000000  T  T  T
0.3333333333333357  0.6666666666666643  0.1692606236277139  T  T  T

0.00000000E+00  0.00000000E+00  0.00000000E+00
0.00000000E+00  0.00000000E+00  0.00000000E+00
0.00000000E+00  0.00000000E+00  0.00000000E+00
0.00000000E+00  0.00000000E+00  0.00000000E+00
0.00000000E+00  0.00000000E+00  0.00000000E+00
