Mo2N  (n=1)
1.00000000000000
2.8183401269618997  0.0000000000000001  0.0000000000000000
-1.4091700634809499  2.4407541464885654  0.0000000000000000
0.0000000000000000  0.0000000000000000  30.1751186646585658
Mo  N  H
2  1  2
Selective  dynamics
Direct
-0.0000000000000000  -0.0000000000000000  0.0382849518909302  T  T  T
-0.0000000000000000  -0.0000000000000000  0.1332178919643198  T  T  T
0.3333333333333357  0.6666666666666643  0.0857514219276290  T  T  T
0.3333333333333357  0.6666666666666643  0.0000000000000000  T  T  T
0.3333333333333357  0.6666666666666643  0.1715028438552496  T  T  T

0.00000000E+00  0.00000000E+00  0.00000000E+00
0.00000000E+00  0.00000000E+00  0.00000000E+00
0.00000000E+00  0.00000000E+00  0.00000000E+00
0.00000000E+00  0.00000000E+00  0.00000000E+00
0.00000000E+00  0.00000000E+00  0.00000000E+00
