Cr2N  (n=1)
1.00000000000000
2.6248233128075764  0.0000000000000000  0.0000000000000000
-1.3124116564037882  2.2731636693866277  0.0000000000000000
0.0000000000000000  0.0000000000000000  29.7837312099425375
Cr  N  H
2  1  2
Selective  dynamics
Direct
0.0000000000000000  0.0000000000000000  0.0364021964763990  T  T  T
-0.0000000000000000  -0.0000000000000000  0.1242133817472457  T  T  T
0.3333333333333357  0.6666666666666643  0.0803077891118224  T  T  T
0.3333333333333357  0.6666666666666643  0.0000000000000000  T  T  T
0.3333333333333357  0.6666666666666643  0.1606155782236448  T  T  T

0.00000000E+00  0.00000000E+00  0.00000000E+00
0.00000000E+00  0.00000000E+00  0.00000000E+00
0.00000000E+00  0.00000000E+00  0.00000000E+00
0.00000000E+00  0.00000000E+00  0.00000000E+00
0.00000000E+00  0.00000000E+00  0.00000000E+00
