Cr2C  (n=1)
1.00000000000000
2.6325143677533309  0.0000000000000001  0.0000000000000000
-1.3162571838766655  2.2798243183358640  0.0000000000000000
0.0000000000000000  0.0000000000000000  29.7364479619500841
Cr  C  H
2  1  2
Selective  dynamics
Direct
0.0000000000000000  -0.0000000000000000  0.0354774740358725  T  T  T
-0.0000000000000000  0.0000000000000000  0.1238034181544358  T  T  T
0.3333333333333357  0.6666666666666643  0.0796404460951541  T  T  T
0.3333333333333357  0.6666666666666643  0.0000000000000000  T  T  T
0.3333333333333357  0.6666666666666643  0.1592808921903082  T  T  T

0.00000000E+00  0.00000000E+00  0.00000000E+00
0.00000000E+00  0.00000000E+00  0.00000000E+00
0.00000000E+00  0.00000000E+00  0.00000000E+00
0.00000000E+00  0.00000000E+00  0.00000000E+00
0.00000000E+00  0.00000000E+00  0.00000000E+00
