Zr2C  (n=1)
1.00000000000000
3.1879425323732282  0.0000000000000000  0.0000000000000000
-1.5939712661866141  2.7608392189621580  0.0000000000000000
0.0000000000000000  0.0000000000000000  30.2495944942032011
Zr  C  H
2  1  2
Selective  dynamics
Direct
0.0000000000000000  -0.0000000000000000  0.0385705272764611  T  T  T
0.0000000000000000  -0.0000000000000000  0.1349721129466728  T  T  T
0.3333333333333357  0.6666666666666643  0.0867713201115669  T  T  T
0.3333333333333357  0.6666666666666643  0.0000000000000000  T  T  T
0.3333333333333357  0.6666666666666643  0.1735426402231339  T  T  T

0.00000000E+00  0.00000000E+00  0.00000000E+00
0.00000000E+00  0.00000000E+00  0.00000000E+00
0.00000000E+00  0.00000000E+00  0.00000000E+00
0.00000000E+00  0.00000000E+00  0.00000000E+00
0.00000000E+00  0.00000000E+00  0.00000000E+00
