Ti2C  (n=1)
1.00000000000000
2.9268306841241203  0.0000000000000000  0.0000000000000000
-1.4634153420620601  2.5347097250658051  0.0000000000000000
0.0000000000000000  0.0000000000000000  29.9085522227636034
Ti  C  H
2  1  2
Selective  dynamics
Direct
0.0000000000000000  -0.0000000000000000  0.0373812203970306  T  T  T
-0.0000000000000000  -0.0000000000000000  0.1267374633227274  T  T  T
0.3333333333333357  0.6666666666666643  0.0820593418598746  T  T  T
0.3333333333333357  0.6666666666666643  0.0000000000000000  T  T  T
0.3333333333333357  0.6666666666666643  0.1641186837197579  T  T  T

0.00000000E+00  0.00000000E+00  0.00000000E+00
0.00000000E+00  0.00000000E+00  0.00000000E+00
0.00000000E+00  0.00000000E+00  0.00000000E+00
0.00000000E+00  0.00000000E+00  0.00000000E+00
0.00000000E+00  0.00000000E+00  0.00000000E+00
