Hf2N  (n=1)
1.00000000000000
3.0599485021990365  0.0000000000000000  0.0000000000000000
-1.5299742510995182  2.6499931372726091  0.0000000000000000
0.0000000000000000  0.0000000000000000  30.2445012284481543
Hf  N  H
2  1  2
Selective  dynamics
Direct
-0.0000000000000000  -0.0000000000000000  0.0383811624281949  T  T  T
0.0000000000000000  -0.0000000000000000  0.1350222998684539  T  T  T
0.3333333333333357  0.6666666666666643  0.0867017311483203  T  T  T
0.3333333333333357  0.6666666666666643  0.0000000000000000  T  T  T
0.3333333333333357  0.6666666666666643  0.1734034622966487  T  T  T

0.00000000E+00  0.00000000E+00  0.00000000E+00
0.00000000E+00  0.00000000E+00  0.00000000E+00
0.00000000E+00  0.00000000E+00  0.00000000E+00
0.00000000E+00  0.00000000E+00  0.00000000E+00
0.00000000E+00  0.00000000E+00  0.00000000E+00
