Ti2N  (n=1)
1.00000000000000
2.8531056208077974  0.0000000000000000  0.0000000000000000
-1.4265528104038987  2.4708619473332800  0.0000000000000000
0.0000000000000000  0.0000000000000000  29.9216900605006444
Ti  N  H
2  1  2
Selective  dynamics
Direct
-0.0000000000000000  0.0000000000000000  0.0376209822640071  T  T  T
-0.0000000000000000  0.0000000000000000  0.1268647152533924  T  T  T
0.3333333333333357  0.6666666666666643  0.0822428487586997  T  T  T
0.3333333333333357  0.6666666666666643  0.0000000000000000  T  T  T
0.3333333333333357  0.6666666666666643  0.1644856975173914  T  T  T

0.00000000E+00  0.00000000E+00  0.00000000E+00
0.00000000E+00  0.00000000E+00  0.00000000E+00
0.00000000E+00  0.00000000E+00  0.00000000E+00
0.00000000E+00  0.00000000E+00  0.00000000E+00
0.00000000E+00  0.00000000E+00  0.00000000E+00
