Ta2N  (n=1)
1.00000000000000
2.9575331290228162  0.0000000000000000  0.0000000000000000
-1.4787665645114081  2.5612988223281627  0.0000000000000000
0.0000000000000000  0.0000000000000000  30.0742713881273609
Ta  N  H
2  1  2
Selective  dynamics
Direct
-0.0000000000000000  0.0000000000000000  0.0377184639852112  T  T  T
-0.0000000000000000  -0.0000000000000000  0.1310062017811076  T  T  T
0.3333333333333357  0.6666666666666643  0.0843623328831595  T  T  T
0.3333333333333357  0.6666666666666643  0.0000000000000000  T  T  T
0.3333333333333357  0.6666666666666643  0.1687246657663191  T  T  T

0.00000000E+00  0.00000000E+00  0.00000000E+00
0.00000000E+00  0.00000000E+00  0.00000000E+00
0.00000000E+00  0.00000000E+00  0.00000000E+00
0.00000000E+00  0.00000000E+00  0.00000000E+00
0.00000000E+00  0.00000000E+00  0.00000000E+00
