Zr2N  (n=1)
1.00000000000000
3.1189370981746363  0.0000000000000000  0.0000000000000000
-1.5594685490873181  2.7010787599445205  0.0000000000000000
0.0000000000000000  0.0000000000000000  30.2932382793938331
Zr  N  H
2  1  2
Selective  dynamics
Direct
-0.0000000000000000  0.0000000000000000  0.0387628165941521  T  T  T
-0.0000000000000000  0.0000000000000000  0.1359705093901624  T  T  T
0.3333333333333357  0.6666666666666643  0.0873666629921613  T  T  T
0.3333333333333357  0.6666666666666643  0.0000000000000000  T  T  T
0.3333333333333357  0.6666666666666643  0.1747333259843144  T  T  T

0.00000000E+00  0.00000000E+00  0.00000000E+00
0.00000000E+00  0.00000000E+00  0.00000000E+00
0.00000000E+00  0.00000000E+00  0.00000000E+00
0.00000000E+00  0.00000000E+00  0.00000000E+00
0.00000000E+00  0.00000000E+00  0.00000000E+00
