Nb2C  (n=1)
1.00000000000000
3.0059464066130235  0.0000000000000001  0.0000000000000000
-1.5029732033065115  2.6032259506207316  -0.0000000000000000
0.0000000000000000  -0.0000000000000000  30.0827822852387854
Nb  C  H
2  1  2
Selective  dynamics
Direct
0.0000000000000000  0.0000000000000000  0.0371663328447348  T  T  T
0.0000000000000000  0.0000000000000000  0.1317935139222590  T  T  T
0.3333333333333357  0.6666666666666643  0.0844799233834970  T  T  T
0.3333333333333357  0.6666666666666643  0.0000000000000000  T  T  T
0.3333333333333357  0.6666666666666643  0.1689598467669940  T  T  T

0.00000000E+00  0.00000000E+00  0.00000000E+00
0.00000000E+00  0.00000000E+00  0.00000000E+00
0.00000000E+00  0.00000000E+00  0.00000000E+00
0.00000000E+00  0.00000000E+00  0.00000000E+00
0.00000000E+00  0.00000000E+00  0.00000000E+00
