Hf2C  (n=1)
1.00000000000000
3.1360652564355278  0.0000000000000000  0.0000000000000000
-1.5680326282177639  2.7159121801120336  0.0000000000000000
0.0000000000000000  0.0000000000000000  30.2155796078345809
Hf  C  H
2  1  2
Selective  dynamics
Direct
-0.0000000000000000  0.0000000000000000  0.0387237974301915  T  T  T
-0.0000000000000000  0.0000000000000000  0.1338884666907404  T  T  T
0.3333333333333357  0.6666666666666643  0.0863061320604701  T  T  T
0.3333333333333357  0.6666666666666643  0.0000000000000000  T  T  T
0.3333333333333357  0.6666666666666643  0.1726122641209317  T  T  T

0.00000000E+00  0.00000000E+00  0.00000000E+00
0.00000000E+00  0.00000000E+00  0.00000000E+00
0.00000000E+00  0.00000000E+00  0.00000000E+00
0.00000000E+00  0.00000000E+00  0.00000000E+00
0.00000000E+00  0.00000000E+00  0.00000000E+00
