Sc2N  (n=1)
1.00000000000000
3.0853795563176845  0.0000000000000000  0.0000000000000000
-1.5426897781588422  2.6720170761600355  0.0000000000000000
0.0000000000000000  0.0000000000000000  30.0863794803511340
Sc  N  H
2  1  2
Selective  dynamics
Direct
0.0000000000000000  0.0000000000000000  0.0386211298396327  T  T  T
0.0000000000000000  0.0000000000000000  0.1304380779548099  T  T  T
0.3333333333333357  0.6666666666666643  0.0845296038972171  T  T  T
0.3333333333333357  0.6666666666666643  0.0000000000000000  T  T  T
0.3333333333333357  0.6666666666666643  0.1690592077944426  T  T  T

0.00000000E+00  0.00000000E+00  0.00000000E+00
0.00000000E+00  0.00000000E+00  0.00000000E+00
0.00000000E+00  0.00000000E+00  0.00000000E+00
0.00000000E+00  0.00000000E+00  0.00000000E+00
0.00000000E+00  0.00000000E+00  0.00000000E+00
