Ta2C  (n=1)
1.00000000000000
2.9873156302780650  -0.0000000000000007  -0.0000000000000000
-1.4936578151390327  2.5870912250069962  0.0000000000000000
0.0000000000000000  -0.0000000000000000  30.0877011966529757
Ta  C  H
2  1  2
Selective  dynamics
Direct
0.0000000000000000  0.0000000000000000  0.0373731034242701  T  T  T
0.0000000000000000  0.0000000000000000  0.1317226065935807  T  T  T
0.3333333333333357  0.6666666666666643  0.0845478550089254  T  T  T
0.3333333333333357  0.6666666666666643  0.0000000000000000  T  T  T
0.3333333333333357  0.6666666666666643  0.1690957100178508  T  T  T

0.00000000E+00  0.00000000E+00  0.00000000E+00
0.00000000E+00  0.00000000E+00  0.00000000E+00
0.00000000E+00  0.00000000E+00  0.00000000E+00
0.00000000E+00  0.00000000E+00  0.00000000E+00
0.00000000E+00  0.00000000E+00  0.00000000E+00
