Mo2C  (n=1)
1.00000000000000
2.9034675608310518  -0.0000000000000000  0.0000000000000000
-1.4517337804155259  2.5144766667860901  0.0000000000000000
-0.0000000000000000  -0.0000000000000000  29.9417487154703892
Mo  C  H
2  1  2
Selective  dynamics
Direct
-0.0000000000000000  -0.0000000000000000  0.0370215012454793  T  T  T
-0.0000000000000000  -0.0000000000000000  0.1280239262086985  T  T  T
0.3333333333333357  0.6666666666666643  0.0825227137270889  T  T  T
0.3333333333333357  0.6666666666666643  0.0000000000000000  T  T  T
0.3333333333333357  0.6666666666666643  0.1650454274541778  T  T  T

0.00000000E+00  0.00000000E+00  0.00000000E+00
0.00000000E+00  0.00000000E+00  0.00000000E+00
0.00000000E+00  0.00000000E+00  0.00000000E+00
0.00000000E+00  0.00000000E+00  0.00000000E+00
0.00000000E+00  0.00000000E+00  0.00000000E+00
