Nb2N  (n=1)
1.00000000000000
2.9773347731243618  0.0000000000000000  0.0000000000000000
-1.4886673865621809  2.5784475491698995  0.0000000000000000
0.0000000000000000  0.0000000000000000  30.1114027112930316
Nb  N  H
2  1  2
Selective  dynamics
Direct
-0.0000000000000000  -0.0000000000000000  0.0382993836724144  T  T  T
-0.0000000000000000  0.0000000000000000  0.1314503540034079  T  T  T
0.3333333333333357  0.6666666666666643  0.0848748688379151  T  T  T
0.3333333333333357  0.6666666666666643  0.0000000000000000  T  T  T
0.3333333333333357  0.6666666666666643  0.1697497376758222  T  T  T

0.00000000E+00  0.00000000E+00  0.00000000E+00
0.00000000E+00  0.00000000E+00  0.00000000E+00
0.00000000E+00  0.00000000E+00  0.00000000E+00
0.00000000E+00  0.00000000E+00  0.00000000E+00
0.00000000E+00  0.00000000E+00  0.00000000E+00
