Cr3C2  (n=2)
1.00000000000000
3.1103561437562721  -0.0000000000000001  0.0000000000000000
-1.5551780718781358  2.6936474353586664  -0.0000000000000002
0.0000000000000000  -0.0000000000000031  32.4884339168699370
Cr  C  Cl
3  2  2
Selective  dynamics
Direct
-0.0000000000000000  -0.0000000000000000  0.0522698709959081  T  T  T
0.6666666666666643  0.3333333333333357  0.1152476899322164  T  T  T
0.3333333333333357  0.6666666666666643  0.1782255088685320  T  T  T
0.3333333333333357  0.6666666666666643  0.0796896434164797  T  T  T
-0.0000000000000000  -0.0000000000000000  0.1508057364479605  T  T  T
0.6666666666666643  0.3333333333333357  0.0000000000000000  T  T  T
0.6666666666666643  0.3333333333333357  0.2304953798644475  T  T  T

0.00000000E+00  0.00000000E+00  0.00000000E+00
0.00000000E+00  0.00000000E+00  0.00000000E+00
0.00000000E+00  0.00000000E+00  0.00000000E+00
0.00000000E+00  0.00000000E+00  0.00000000E+00
0.00000000E+00  0.00000000E+00  0.00000000E+00
0.00000000E+00  0.00000000E+00  0.00000000E+00
0.00000000E+00  0.00000000E+00  0.00000000E+00
