Sc3N2  (n=2)
1.00000000000000
3.3034141281941181  0.0000000000000003  0.0000000000000000
-1.6517070640970593  2.8608405547340423  0.0000000000000000
-0.0000000000000003  0.0000000000000002  33.3738442203126127
Sc  N  Cl
3  2  2
Selective  dynamics
Direct
0.0000000000000000  0.0000000000000000  0.0516973106073613  T  T  T
0.6666666666666643  0.3333333333333357  0.1254551942688023  T  T  T
0.3333333333333357  0.6666666666666643  0.1992130779302505  T  T  T
0.3333333333333357  0.6666666666666643  0.0852505992854770  T  T  T
0.0000000000000000  -0.0000000000000000  0.1656597892521348  T  T  T
0.6666666666666643  0.3333333333333357  0.0000000000000000  T  T  T
0.6666666666666643  0.3333333333333357  0.2509103885376192  T  T  T

0.00000000E+00  0.00000000E+00  0.00000000E+00
0.00000000E+00  0.00000000E+00  0.00000000E+00
0.00000000E+00  0.00000000E+00  0.00000000E+00
0.00000000E+00  0.00000000E+00  0.00000000E+00
0.00000000E+00  0.00000000E+00  0.00000000E+00
0.00000000E+00  0.00000000E+00  0.00000000E+00
0.00000000E+00  0.00000000E+00  0.00000000E+00
