Sc3C2  (n=2)
1.00000000000000
3.3787695165418712  0.0000000000000000  0.0000000000000000
-1.6893847582709356  2.9261002356848755  -0.0000000000000000
-0.0000000000000005  0.0000000000000005  33.6407609732738635
Sc  C  Cl
3  2  2
Selective  dynamics
Direct
-0.0000000000000000  -0.0000000000000000  0.0504254135105889  T  T  T
0.6666666666666643  0.3333333333333357  0.1284269547311752  T  T  T
0.3333333333333357  0.6666666666666643  0.2064284959517616  T  T  T
0.3333333333333357  0.6666666666666643  0.0869322151457571  T  T  T
0.0000000000000000  0.0000000000000000  0.1699216943165858  T  T  T
0.6666666666666643  0.3333333333333357  0.0000000000000000  T  T  T
0.6666666666666643  0.3333333333333357  0.2568539094623506  T  T  T

0.00000000E+00  0.00000000E+00  0.00000000E+00
0.00000000E+00  0.00000000E+00  0.00000000E+00
0.00000000E+00  0.00000000E+00  0.00000000E+00
0.00000000E+00  0.00000000E+00  0.00000000E+00
0.00000000E+00  0.00000000E+00  0.00000000E+00
0.00000000E+00  0.00000000E+00  0.00000000E+00
0.00000000E+00  0.00000000E+00  0.00000000E+00
