Zr3C2  (n=2)
1.00000000000000
3.4241700955994543  -0.0000000000000000  -0.0000000000000000
-1.7120850477997271  2.9654182904821580  -0.0000000000000001
-0.0000000000000001  -0.0000000000000033  33.6860935943712434
Zr  C  Cl
3  2  2
Selective  dynamics
Direct
-0.0000000000000000  -0.0000000000000000  0.0539372564432412  T  T  T
0.6666666666666643  0.3333333333333357  0.1289269943105341  T  T  T
0.3333333333333357  0.6666666666666643  0.2039167321778270  T  T  T
0.3333333333333357  0.6666666666666643  0.0873418040359545  T  T  T
0.0000000000000000  0.0000000000000000  0.1705121845851063  T  T  T
0.6666666666666643  0.3333333333333357  0.0000000000000000  T  T  T
0.6666666666666643  0.3333333333333357  0.2578539886210682  T  T  T

0.00000000E+00  0.00000000E+00  0.00000000E+00
0.00000000E+00  0.00000000E+00  0.00000000E+00
0.00000000E+00  0.00000000E+00  0.00000000E+00
0.00000000E+00  0.00000000E+00  0.00000000E+00
0.00000000E+00  0.00000000E+00  0.00000000E+00
0.00000000E+00  0.00000000E+00  0.00000000E+00
0.00000000E+00  0.00000000E+00  0.00000000E+00
