Mo3N2  (n=2)
1.00000000000000
2.9549562684056094  -0.0000000000000001  0.0000000000000001
-1.4774781342028047  2.5590671958144786  0.0000000000000002
0.0000000000000023  0.0000000000000013  34.2615674565993373
Mo  N  Cl
3  2  2
Selective  dynamics
Direct
0.0000000000000000  -0.0000000000000000  0.0542156312044446  T  T  T
0.6666666666666643  0.3333333333333357  0.1351564720247928  T  T  T
0.3333333333333357  0.6666666666666643  0.2161038008627361  T  T  T
0.3333333333333357  0.6666666666666643  0.0938083278166607  T  T  T
-0.0000000000000000  0.0000000000000000  0.1765069714197532  T  T  T
0.6666666666666643  0.3333333333333357  0.0000000000000000  T  T  T
0.6666666666666643  0.3333333333333357  0.2703194320671808  T  T  T

0.00000000E+00  0.00000000E+00  0.00000000E+00
0.00000000E+00  0.00000000E+00  0.00000000E+00
0.00000000E+00  0.00000000E+00  0.00000000E+00
0.00000000E+00  0.00000000E+00  0.00000000E+00
0.00000000E+00  0.00000000E+00  0.00000000E+00
0.00000000E+00  0.00000000E+00  0.00000000E+00
0.00000000E+00  0.00000000E+00  0.00000000E+00
