Ti3N2  (n=2)
1.00000000000000
3.1558256379626517  0.0000000000000001  0.0000000000000000
-1.5779128189813258  2.7330251725285621  -0.0000000000000001
-0.0000000000000003  -0.0000000000000015  32.8925353831731186
Ti  N  Cl
3  2  2
Selective  dynamics
Direct
0.0000000000000000  0.0000000000000000  0.0526650536833587  T  T  T
0.6666666666666643  0.3333333333333357  0.1199745670443283  T  T  T
0.3333333333333357  0.6666666666666643  0.1872840804053048  T  T  T
0.3333333333333357  0.6666666666666643  0.0821943052810470  T  T  T
0.0000000000000000  -0.0000000000000000  0.1577548288076165  T  T  T
0.6666666666666643  0.3333333333333357  0.0000000000000000  T  T  T
0.6666666666666643  0.3333333333333357  0.2399491340886636  T  T  T

0.00000000E+00  0.00000000E+00  0.00000000E+00
0.00000000E+00  0.00000000E+00  0.00000000E+00
0.00000000E+00  0.00000000E+00  0.00000000E+00
0.00000000E+00  0.00000000E+00  0.00000000E+00
0.00000000E+00  0.00000000E+00  0.00000000E+00
0.00000000E+00  0.00000000E+00  0.00000000E+00
0.00000000E+00  0.00000000E+00  0.00000000E+00
