Mo3C2  (n=2)
1.00000000000000
3.1338583134015434  -0.0000000000000003  0.0000000000000000
-1.5669291567007717  2.7140009115547201  0.0000000000000001
-0.0000000000000001  0.0000000000000007  33.5686972097642879
Mo  C  Cl
3  2  2
Selective  dynamics
Direct
0.0000000000000000  -0.0000000000000000  0.0565786728186960  T  T  T
0.6666666666666643  0.3333333333333357  0.1276292784944804  T  T  T
0.3333333333333357  0.6666666666666643  0.1986798841702722  T  T  T
0.3333333333333357  0.6666666666666643  0.0892667397811648  T  T  T
-0.0000000000000000  0.0000000000000000  0.1659918172078035  T  T  T
0.6666666666666643  0.3333333333333357  0.0000000000000000  T  T  T
0.6666666666666643  0.3333333333333357  0.2552585569889757  T  T  T

0.00000000E+00  0.00000000E+00  0.00000000E+00
0.00000000E+00  0.00000000E+00  0.00000000E+00
0.00000000E+00  0.00000000E+00  0.00000000E+00
0.00000000E+00  0.00000000E+00  0.00000000E+00
0.00000000E+00  0.00000000E+00  0.00000000E+00
0.00000000E+00  0.00000000E+00  0.00000000E+00
0.00000000E+00  0.00000000E+00  0.00000000E+00
