Cr3N2  (n=2)
1.00000000000000
3.0865451754334883  -0.0000000000000001  0.0000000000000000
-1.5432725877167441  2.6730265318952617  0.0000000000000000
-0.0000000000000002  0.0000000000000000  32.5776335983839473
Cr  N  Cl
3  2  2
Selective  dynamics
Direct
0.0000000000000000  0.0000000000000000  0.0516990149620580  T  T  T
0.6666666666666643  0.3333333333333357  0.1163011668035890  T  T  T
0.3333333333333357  0.6666666666666643  0.1809033186451273  T  T  T
0.3333333333333357  0.6666666666666643  0.0800314548668313  T  T  T
-0.0000000000000000  -0.0000000000000000  0.1525708787403467  T  T  T
0.6666666666666643  0.3333333333333357  0.0000000000000000  T  T  T
0.6666666666666643  0.3333333333333357  0.2326023336071852  T  T  T

0.00000000E+00  0.00000000E+00  0.00000000E+00
0.00000000E+00  0.00000000E+00  0.00000000E+00
0.00000000E+00  0.00000000E+00  0.00000000E+00
0.00000000E+00  0.00000000E+00  0.00000000E+00
0.00000000E+00  0.00000000E+00  0.00000000E+00
0.00000000E+00  0.00000000E+00  0.00000000E+00
0.00000000E+00  0.00000000E+00  0.00000000E+00
