Zr3N2  (n=2)
1.00000000000000
3.3869795355475603  -0.0000000000000002  0.0000000000000000
-1.6934897677737801  2.9332103206503426  0.0000000000000000
-0.0000000000000005  -0.0000000000000005  33.4978548276802570
Zr  N  Cl
3  2  2
Selective  dynamics
Direct
-0.0000000000000000  0.0000000000000000  0.0544704360699889  T  T  T
0.6666666666666643  0.3333333333333357  0.1268417764569473  T  T  T
0.3333333333333357  0.6666666666666643  0.1992131168439200  T  T  T
0.3333333333333357  0.6666666666666643  0.0866289434394185  T  T  T
-0.0000000000000000  -0.0000000000000000  0.1670546094744833  T  T  T
0.6666666666666643  0.3333333333333357  0.0000000000000000  T  T  T
0.6666666666666643  0.3333333333333357  0.2536835529139088  T  T  T

0.00000000E+00  0.00000000E+00  0.00000000E+00
0.00000000E+00  0.00000000E+00  0.00000000E+00
0.00000000E+00  0.00000000E+00  0.00000000E+00
0.00000000E+00  0.00000000E+00  0.00000000E+00
0.00000000E+00  0.00000000E+00  0.00000000E+00
0.00000000E+00  0.00000000E+00  0.00000000E+00
0.00000000E+00  0.00000000E+00  0.00000000E+00
