Hf3N2  (n=2)
1.00000000000000
3.2948734481925555  0.0000000000000003  0.0000000000000001
-1.6474367240962775  2.8534441089145166  0.0000000000000000
0.0000000000000004  0.0000000000000004  33.5274297220036885
Hf  N  Cl
3  2  2
Selective  dynamics
Direct
0.0000000000000000  0.0000000000000000  0.0540686309233797  T  T  T
0.6666666666666643  0.3333333333333357  0.1271709432054560  T  T  T
0.3333333333333357  0.6666666666666643  0.2002732554875394  T  T  T
0.3333333333333357  0.6666666666666643  0.0879349622620136  T  T  T
-0.0000000000000000  -0.0000000000000000  0.1664069241488912  T  T  T
0.6666666666666643  0.3333333333333357  0.0000000000000000  T  T  T
0.6666666666666643  0.3333333333333357  0.2543418864109118  T  T  T

0.00000000E+00  0.00000000E+00  0.00000000E+00
0.00000000E+00  0.00000000E+00  0.00000000E+00
0.00000000E+00  0.00000000E+00  0.00000000E+00
0.00000000E+00  0.00000000E+00  0.00000000E+00
0.00000000E+00  0.00000000E+00  0.00000000E+00
0.00000000E+00  0.00000000E+00  0.00000000E+00
0.00000000E+00  0.00000000E+00  0.00000000E+00
