Ti3C2  (n=2)
1.00000000000000
3.1884187377210798  -0.0000000000000001  0.0000000000000000
-1.5942093688605399  2.7612516250265791  -0.0000000000000000
0.0000000000000002  0.0000000000000002  33.0056979100851962
Ti  C  Cl
3  2  2
Selective  dynamics
Direct
0.0000000000000000  0.0000000000000000  0.0517025069021017  T  T  T
0.6666666666666643  0.3333333333333357  0.1212775129296537  T  T  T
0.3333333333333357  0.6666666666666643  0.1908525189572131  T  T  T
0.3333333333333357  0.6666666666666643  0.0829493768775417  T  T  T
0.0000000000000000  -0.0000000000000000  0.1596056489817583  T  T  T
0.6666666666666643  0.3333333333333357  0.0000000000000000  T  T  T
0.6666666666666643  0.3333333333333357  0.2425550258593072  T  T  T

0.00000000E+00  0.00000000E+00  0.00000000E+00
0.00000000E+00  0.00000000E+00  0.00000000E+00
0.00000000E+00  0.00000000E+00  0.00000000E+00
0.00000000E+00  0.00000000E+00  0.00000000E+00
0.00000000E+00  0.00000000E+00  0.00000000E+00
0.00000000E+00  0.00000000E+00  0.00000000E+00
0.00000000E+00  0.00000000E+00  0.00000000E+00
