Hf3C2  (n=2)
1.00000000000000
3.3753279999492225  -0.0000000000000000  -0.0000000000000000
-1.6876639999746113  2.9231197947421976  -0.0000000000000001
-0.0000000000000001  -0.0000000000000026  33.5530628978715413
Hf  C  Cl
3  2  2
Selective  dynamics
Direct
-0.0000000000000000  -0.0000000000000000  0.0538406812555269  T  T  T
0.6666666666666643  0.3333333333333357  0.1274557694465220  T  T  T
0.3333333333333357  0.6666666666666643  0.2010708576375172  T  T  T
0.3333333333333357  0.6666666666666643  0.0863977509045417  T  T  T
0.0000000000000000  0.0000000000000000  0.1685137879884951  T  T  T
0.6666666666666643  0.3333333333333357  0.0000000000000000  T  T  T
0.6666666666666643  0.3333333333333357  0.2549115388930441  T  T  T

0.00000000E+00  0.00000000E+00  0.00000000E+00
0.00000000E+00  0.00000000E+00  0.00000000E+00
0.00000000E+00  0.00000000E+00  0.00000000E+00
0.00000000E+00  0.00000000E+00  0.00000000E+00
0.00000000E+00  0.00000000E+00  0.00000000E+00
0.00000000E+00  0.00000000E+00  0.00000000E+00
0.00000000E+00  0.00000000E+00  0.00000000E+00
