Ta3C2  (n=2)
1.00000000000000
3.2016091369140085  -0.0000000000000001  0.0000000000000000
-1.6008045684570045  2.7726748460527388  -0.0000000000000000
0.0000000000000001  -0.0000000000000000  33.6600602930286001
Ta  C  Cl
3  2  2
Selective  dynamics
Direct
-0.0000000000000000  -0.0000000000000000  0.0552561378970436  T  T  T
0.6666666666666643  0.3333333333333357  0.1286399997153594  T  T  T
0.3333333333333357  0.6666666666666643  0.2020238615336826  T  T  T
0.3333333333333357  0.6666666666666643  0.0899755974550519  T  T  T
0.0000000000000000  0.0000000000000000  0.1673044019756669  T  T  T
0.6666666666666643  0.3333333333333357  0.0000000000000000  T  T  T
0.6666666666666643  0.3333333333333357  0.2572799994307260  T  T  T

0.00000000E+00  0.00000000E+00  0.00000000E+00
0.00000000E+00  0.00000000E+00  0.00000000E+00
0.00000000E+00  0.00000000E+00  0.00000000E+00
0.00000000E+00  0.00000000E+00  0.00000000E+00
0.00000000E+00  0.00000000E+00  0.00000000E+00
0.00000000E+00  0.00000000E+00  0.00000000E+00
0.00000000E+00  0.00000000E+00  0.00000000E+00
