Nb3N2  (n=2)
1.00000000000000
3.2021058905333657  0.0000000000000001  0.0000000000000000
-1.6010529452666828  2.7731050472728724  0.0000000000000001
-0.0000000000000003  0.0000000000000008  33.5429207018936069
Nb  N  Cl
3  2  2
Selective  dynamics
Direct
0.0000000000000000  0.0000000000000000  0.0545932872807342  T  T  T
0.6666666666666643  0.3333333333333357  0.1273431252128759  T  T  T
0.3333333333333357  0.6666666666666643  0.2000929631450174  T  T  T
0.3333333333333357  0.6666666666666643  0.0909971789363580  T  T  T
-0.0000000000000000  -0.0000000000000000  0.1636890714893865  T  T  T
0.6666666666666643  0.3333333333333357  0.0000000000000000  T  T  T
0.6666666666666643  0.3333333333333357  0.2546862504257517  T  T  T

0.00000000E+00  0.00000000E+00  0.00000000E+00
0.00000000E+00  0.00000000E+00  0.00000000E+00
0.00000000E+00  0.00000000E+00  0.00000000E+00
0.00000000E+00  0.00000000E+00  0.00000000E+00
0.00000000E+00  0.00000000E+00  0.00000000E+00
0.00000000E+00  0.00000000E+00  0.00000000E+00
0.00000000E+00  0.00000000E+00  0.00000000E+00
