Nb3C2  (n=2)
1.00000000000000
3.2226397542533598  -0.0000000000000001  0.0000000000000000
-1.6113198771266799  2.7908878949742109  -0.0000000000000003
0.0000000000000006  -0.0000000000000019  33.6931993666400444
Nb  C  Cl
3  2  2
Selective  dynamics
Direct
-0.0000000000000000  -0.0000000000000000  0.0550130876004596  T  T  T
0.6666666666666643  0.3333333333333357  0.1290052522475391  T  T  T
0.3333333333333357  0.6666666666666643  0.2029974168946186  T  T  T
0.3333333333333357  0.6666666666666643  0.0901506051741253  T  T  T
0.0000000000000000  0.0000000000000000  0.1678598993209453  T  T  T
0.6666666666666643  0.3333333333333357  0.0000000000000000  T  T  T
0.6666666666666643  0.3333333333333357  0.2580105044950782  T  T  T

0.00000000E+00  0.00000000E+00  0.00000000E+00
0.00000000E+00  0.00000000E+00  0.00000000E+00
0.00000000E+00  0.00000000E+00  0.00000000E+00
0.00000000E+00  0.00000000E+00  0.00000000E+00
0.00000000E+00  0.00000000E+00  0.00000000E+00
0.00000000E+00  0.00000000E+00  0.00000000E+00
0.00000000E+00  0.00000000E+00  0.00000000E+00
