Ta3N2  (n=2)
1.00000000000000
3.1637326964646375  -0.0000000000000001  0.0000000000000000
-1.5818663482323188  2.7398728862862223  0.0000000000000001
0.0000000000000000  0.0000000000000005  33.5852585100867742
Ta  N  Cl
3  2  2
Selective  dynamics
Direct
-0.0000000000000000  -0.0000000000000000  0.0549118491627092  T  T  T
0.6666666666666643  0.3333333333333357  0.1278128990358721  T  T  T
0.3333333333333357  0.6666666666666643  0.2007139489090350  T  T  T
0.3333333333333357  0.6666666666666643  0.0920765057357900  T  T  T
0.0000000000000000  -0.0000000000000000  0.1635492923359470  T  T  T
0.6666666666666643  0.3333333333333357  0.0000000000000000  T  T  T
0.6666666666666643  0.3333333333333357  0.2556257980717442  T  T  T

0.00000000E+00  0.00000000E+00  0.00000000E+00
0.00000000E+00  0.00000000E+00  0.00000000E+00
0.00000000E+00  0.00000000E+00  0.00000000E+00
0.00000000E+00  0.00000000E+00  0.00000000E+00
0.00000000E+00  0.00000000E+00  0.00000000E+00
0.00000000E+00  0.00000000E+00  0.00000000E+00
0.00000000E+00  0.00000000E+00  0.00000000E+00
