Mo3C2  (n=2)
1.00000000000000
2.8899328355619485  0.0000000000000000  0.0000000000000000
-1.4449664177809742  2.5027552508835766  0.0000000000000000
0.0000000000000000  0.0000000000000001  32.8063755277231053
Mo  C  H
3  2  2
Selective  dynamics
Direct
-0.0000000000000000  -0.0000000000000000  0.0332637109189387  T  T  T
-0.0000000000000000  -0.0000000000000000  0.1197998671360209  T  T  T
-0.0000000000000000  -0.0000000000000000  0.2055895021783924  T  T  T
0.3333333333333357  0.6666666666666643  0.0753800698462328  T  T  T
0.3333333333333357  0.6666666666666643  0.1629262486762262  T  T  T
0.3333333333333357  0.6666666666666643  0.0000000000000000  T  T  T
0.6666666666666643  0.3333333333333357  0.2379530015781936  T  T  T

0.00000000E+00  0.00000000E+00  0.00000000E+00
0.00000000E+00  0.00000000E+00  0.00000000E+00
0.00000000E+00  0.00000000E+00  0.00000000E+00
0.00000000E+00  0.00000000E+00  0.00000000E+00
0.00000000E+00  0.00000000E+00  0.00000000E+00
0.00000000E+00  0.00000000E+00  0.00000000E+00
0.00000000E+00  0.00000000E+00  0.00000000E+00
