Ta3N2  (n=2)
1.00000000000000
2.9221148831135659  0.0000000000000000  0.0000000000000000
-1.4610574415567830  2.5306257216387582  0.0000000000000001
-0.0000000000000001  0.0000000000000001  33.0502197971387943
Ta  N  H
3  2  2
Selective  dynamics
Direct
-0.0000000000000000  -0.0000000000000000  0.0338803322652552  T  T  T
-0.0000000000000000  -0.0000000000000000  0.1222832902775875  T  T  T
-0.0000000000000000  -0.0000000000000000  0.2104115360532288  T  T  T
0.3333333333333357  0.6666666666666643  0.0787220540018202  T  T  T
0.3333333333333357  0.6666666666666643  0.1654516439524898  T  T  T
0.3333333333333357  0.6666666666666643  0.0000000000000000  T  T  T
0.6666666666666643  0.3333333333333357  0.2435753785164150  T  T  T

0.00000000E+00  0.00000000E+00  0.00000000E+00
0.00000000E+00  0.00000000E+00  0.00000000E+00
0.00000000E+00  0.00000000E+00  0.00000000E+00
0.00000000E+00  0.00000000E+00  0.00000000E+00
0.00000000E+00  0.00000000E+00  0.00000000E+00
0.00000000E+00  0.00000000E+00  0.00000000E+00
0.00000000E+00  0.00000000E+00  0.00000000E+00
