Mo3N2  (n=2)
1.00000000000000
2.8326723829935565  -0.0000000000000001  0.0000000000000000
-1.4163361914967783  2.4531662443238536  0.0000000000000000
0.0000000000000000  0.0000000000000000  33.0163129880220012
Mo  N  H
3  2  2
Selective  dynamics
Direct
-0.0000000000000000  -0.0000000000000000  0.0348181973160295  T  T  T
-0.0000000000000000  -0.0000000000000000  0.1220907295723526  T  T  T
-0.0000000000000000  -0.0000000000000000  0.2080755086629135  T  T  T
0.3333333333333357  0.6666666666666643  0.0796085611881808  T  T  T
0.3333333333333357  0.6666666666666643  0.1652207975346831  T  T  T
0.3333333333333357  0.6666666666666643  0.0000000000000000  T  T  T
0.6666666666666643  0.3333333333333357  0.2427985520651637  T  T  T

0.00000000E+00  0.00000000E+00  0.00000000E+00
0.00000000E+00  0.00000000E+00  0.00000000E+00
0.00000000E+00  0.00000000E+00  0.00000000E+00
0.00000000E+00  0.00000000E+00  0.00000000E+00
0.00000000E+00  0.00000000E+00  0.00000000E+00
0.00000000E+00  0.00000000E+00  0.00000000E+00
0.00000000E+00  0.00000000E+00  0.00000000E+00
