Cr3N2  (n=2)
1.00000000000000
2.6496518990769102  0.0000000000000000  0.0000000000000000
-1.3248259495384551  2.2946658557789243  0.0000000000000000
0.0000000000000001  -0.0000000000000002  32.2641960392265972
Cr  N  H
3  2  2
Selective  dynamics
Direct
0.0000000000000000  0.0000000000000000  0.0334082901821443  T  T  T
0.0000000000000000  0.0000000000000000  0.1139217018277255  T  T  T
0.0000000000000000  0.0000000000000000  0.1937380714245380  T  T  T
0.3333333333333357  0.6666666666666643  0.0728461647819712  T  T  T
0.3333333333333357  0.6666666666666643  0.1548540489331528  T  T  T
0.3333333333333357  0.6666666666666643  0.0000000000000000  T  T  T
0.6666666666666643  0.3333333333333357  0.2251472818474954  T  T  T

0.00000000E+00  0.00000000E+00  0.00000000E+00
0.00000000E+00  0.00000000E+00  0.00000000E+00
0.00000000E+00  0.00000000E+00  0.00000000E+00
0.00000000E+00  0.00000000E+00  0.00000000E+00
0.00000000E+00  0.00000000E+00  0.00000000E+00
0.00000000E+00  0.00000000E+00  0.00000000E+00
0.00000000E+00  0.00000000E+00  0.00000000E+00
