Ti3C2  (n=2)
1.00000000000000
3.0111561433784062  0.0000000000000000  0.0000000000000000
-1.5055780716892033  2.6077377149876133  0.0000000000000000
0.0000000000000001  0.0000000000000003  32.4013170074330574
Ti  C  H
3  2  2
Selective  dynamics
Direct
-0.0000000000000000  -0.0000000000000000  0.0353081453737370  T  T  T
-0.0000000000000000  -0.0000000000000000  0.1168173092352218  T  T  T
-0.0000000000000000  -0.0000000000000000  0.1969645420776618  T  T  T
0.3333333333333357  0.6666666666666643  0.0736670359505618  T  T  T
0.3333333333333357  0.6666666666666643  0.1609684028872513  T  T  T
0.3333333333333357  0.6666666666666643  0.0000000000000000  T  T  T
0.6666666666666643  0.3333333333333357  0.2284264249423920  T  T  T

0.00000000E+00  0.00000000E+00  0.00000000E+00
0.00000000E+00  0.00000000E+00  0.00000000E+00
0.00000000E+00  0.00000000E+00  0.00000000E+00
0.00000000E+00  0.00000000E+00  0.00000000E+00
0.00000000E+00  0.00000000E+00  0.00000000E+00
0.00000000E+00  0.00000000E+00  0.00000000E+00
0.00000000E+00  0.00000000E+00  0.00000000E+00
