Nb3N2  (n=2)
1.00000000000000
2.9433405909244228  0.0000000000000000  0.0000000000000000
-1.4716702954622114  2.5490077238217457  0.0000000000000000
-0.0000000000000001  0.0000000000000001  33.0650737532196857
Nb  N  H
3  2  2
Selective  dynamics
Direct
0.0000000000000000  0.0000000000000000  0.0344761567228219  T  T  T
0.0000000000000000  0.0000000000000000  0.1228965600272741  T  T  T
0.0000000000000000  0.0000000000000000  0.2108483642458210  T  T  T
0.3333333333333357  0.6666666666666643  0.0790898439210281  T  T  T
0.3333333333333357  0.6666666666666643  0.1659960895145932  T  T  T
0.3333333333333357  0.6666666666666643  0.0000000000000000  T  T  T
0.6666666666666643  0.3333333333333357  0.2439151901917157  T  T  T

0.00000000E+00  0.00000000E+00  0.00000000E+00
0.00000000E+00  0.00000000E+00  0.00000000E+00
0.00000000E+00  0.00000000E+00  0.00000000E+00
0.00000000E+00  0.00000000E+00  0.00000000E+00
0.00000000E+00  0.00000000E+00  0.00000000E+00
0.00000000E+00  0.00000000E+00  0.00000000E+00
0.00000000E+00  0.00000000E+00  0.00000000E+00
