Nb3C2  (n=2)
1.00000000000000
3.0253210980836465  0.0000000000000000  0.0000000000000000
-1.5126605490418232  2.6200049256843485  0.0000000000000000
-0.0000000000000001  -0.0000000000000001  32.8829874455435132
Nb  C  H
3  2  2
Selective  dynamics
Direct
0.0000000000000000  -0.0000000000000000  0.0341090907384682  T  T  T
0.0000000000000000  -0.0000000000000000  0.1212169419521158  T  T  T
0.0000000000000000  -0.0000000000000000  0.2087148937585484  T  T  T
0.3333333333333357  0.6666666666666643  0.0760262865954358  T  T  T
0.3333333333333357  0.6666666666666643  0.1658987349393577  T  T  T
0.3333333333333357  0.6666666666666643  0.0000000000000000  T  T  T
0.6666666666666643  0.3333333333333357  0.2397284449473540  T  T  T

0.00000000E+00  0.00000000E+00  0.00000000E+00
0.00000000E+00  0.00000000E+00  0.00000000E+00
0.00000000E+00  0.00000000E+00  0.00000000E+00
0.00000000E+00  0.00000000E+00  0.00000000E+00
0.00000000E+00  0.00000000E+00  0.00000000E+00
0.00000000E+00  0.00000000E+00  0.00000000E+00
0.00000000E+00  0.00000000E+00  0.00000000E+00
