Hf3C2  (n=2)
1.00000000000000
3.2109127730247491  0.0000000000000000  0.0000000000000000
-1.6054563865123745  2.7807320309764840  0.0000000000000000
-0.0000000000000001  0.0000000000000001  32.9209618187552522
Hf  C  H
3  2  2
Selective  dynamics
Direct
0.0000000000000000  0.0000000000000000  0.0364411646627156  T  T  T
0.0000000000000000  0.0000000000000000  0.1227597581547449  T  T  T
0.0000000000000000  0.0000000000000000  0.2077793847178988  T  T  T
0.3333333333333357  0.6666666666666643  0.0768944569363422  T  T  T
0.3333333333333357  0.6666666666666643  0.1698173779174547  T  T  T
0.3333333333333357  0.6666666666666643  0.0000000000000000  T  T  T
0.6666666666666643  0.3333333333333357  0.2406054191965509  T  T  T

0.00000000E+00  0.00000000E+00  0.00000000E+00
0.00000000E+00  0.00000000E+00  0.00000000E+00
0.00000000E+00  0.00000000E+00  0.00000000E+00
0.00000000E+00  0.00000000E+00  0.00000000E+00
0.00000000E+00  0.00000000E+00  0.00000000E+00
0.00000000E+00  0.00000000E+00  0.00000000E+00
0.00000000E+00  0.00000000E+00  0.00000000E+00
