Hf3N2  (n=2)
1.00000000000000
3.0744513847602204  0.0000000000000000  0.0000000000000000
-1.5372256923801102  2.6625530020532948  0.0000000000000000
-0.0000000000000001  0.0000000000000000  32.9982246807416075
Hf  N  H
3  2  2
Selective  dynamics
Direct
-0.0000000000000000  -0.0000000000000000  0.0346509160165998  T  T  T
-0.0000000000000000  -0.0000000000000000  0.1229841417212772  T  T  T
-0.0000000000000000  -0.0000000000000000  0.2110555442098162  T  T  T
0.3333333333333357  0.6666666666666643  0.0785384630467847  T  T  T
0.3333333333333357  0.6666666666666643  0.1675242193563780  T  T  T
0.3333333333333357  0.6666666666666643  0.0000000000000000  T  T  T
0.6666666666666643  0.3333333333333357  0.2423834845093810  T  T  T

0.00000000E+00  0.00000000E+00  0.00000000E+00
0.00000000E+00  0.00000000E+00  0.00000000E+00
0.00000000E+00  0.00000000E+00  0.00000000E+00
0.00000000E+00  0.00000000E+00  0.00000000E+00
0.00000000E+00  0.00000000E+00  0.00000000E+00
0.00000000E+00  0.00000000E+00  0.00000000E+00
0.00000000E+00  0.00000000E+00  0.00000000E+00
