Sc3C2  (n=2)
1.00000000000000
3.2038438979584791  0.0000000000000000  0.0000000000000000
-1.6019219489792396  2.7746102055579041  0.0000000000000000
0.0000000000000001  -0.0000000000000003  33.0093454905780987
Sc  C  H
3  2  2
Selective  dynamics
Direct
0.0000000000000000  0.0000000000000000  0.0353703508628949  T  T  T
0.0000000000000000  0.0000000000000000  0.1237746198714651  T  T  T
0.0000000000000000  0.0000000000000000  0.2113342939121321  T  T  T
0.3333333333333357  0.6666666666666643  0.0772334729038776  T  T  T
0.3333333333333357  0.6666666666666643  0.1711744439830229  T  T  T
0.3333333333333357  0.6666666666666643  0.0000000000000000  T  T  T
0.6666666666666643  0.3333333333333357  0.2426387246261582  T  T  T

0.00000000E+00  0.00000000E+00  0.00000000E+00
0.00000000E+00  0.00000000E+00  0.00000000E+00
0.00000000E+00  0.00000000E+00  0.00000000E+00
0.00000000E+00  0.00000000E+00  0.00000000E+00
0.00000000E+00  0.00000000E+00  0.00000000E+00
0.00000000E+00  0.00000000E+00  0.00000000E+00
0.00000000E+00  0.00000000E+00  0.00000000E+00
