Cr3C2  (n=2)
1.00000000000000
2.6645744952362382  0.0000000000000000  0.0000000000000000
-1.3322872476181191  2.3075892031349312  0.0000000000000000
-0.0000000000000001  -0.0000000000000001  32.2467627887249790
Cr  C  H
3  2  2
Selective  dynamics
Direct
0.0000000000000000  0.0000000000000000  0.0323299377332971  T  T  T
0.0000000000000000  0.0000000000000000  0.1136802592855262  T  T  T
0.0000000000000000  0.0000000000000000  0.1946682295880965  T  T  T
0.3333333333333357  0.6666666666666643  0.0719259175618183  T  T  T
0.3333333333333357  0.6666666666666643  0.1548751070343954  T  T  T
0.3333333333333357  0.6666666666666643  0.0000000000000000  T  T  T
0.6666666666666643  0.3333333333333357  0.2247283808363796  T  T  T

0.00000000E+00  0.00000000E+00  0.00000000E+00
0.00000000E+00  0.00000000E+00  0.00000000E+00
0.00000000E+00  0.00000000E+00  0.00000000E+00
0.00000000E+00  0.00000000E+00  0.00000000E+00
0.00000000E+00  0.00000000E+00  0.00000000E+00
0.00000000E+00  0.00000000E+00  0.00000000E+00
0.00000000E+00  0.00000000E+00  0.00000000E+00
