Sc3N2  (n=2)
1.00000000000000
3.1224348875219730  0.0000000000000000  0.0000000000000000
-1.5612174437609865  2.7041079343543011  0.0000000000000000
0.0000000000000000  0.0000000000000000  32.7452037252997101
Sc  N  H
3  2  2
Selective  dynamics
Direct
0.0000000000000000  0.0000000000000000  0.0361331307445108  T  T  T
0.0000000000000000  0.0000000000000000  0.1201400865465687  T  T  T
0.0000000000000000  0.0000000000000000  0.2035333418302269  T  T  T
0.3333333333333357  0.6666666666666643  0.0767866636346258  T  T  T
0.3333333333333357  0.6666666666666643  0.1664043160549911  T  T  T
0.3333333333333357  0.6666666666666643  0.0000000000000000  T  T  T
0.6666666666666643  0.3333333333333357  0.2365294102389592  T  T  T

0.00000000E+00  0.00000000E+00  0.00000000E+00
0.00000000E+00  0.00000000E+00  0.00000000E+00
0.00000000E+00  0.00000000E+00  0.00000000E+00
0.00000000E+00  0.00000000E+00  0.00000000E+00
0.00000000E+00  0.00000000E+00  0.00000000E+00
0.00000000E+00  0.00000000E+00  0.00000000E+00
0.00000000E+00  0.00000000E+00  0.00000000E+00
