Zr3N2  (n=2)
1.00000000000000
3.1312753284197905  0.0000000000000001  0.0000000000000000
-1.5656376642098957  2.7117639808205403  0.0000000000000000
-0.0000000000000003  0.0000000000000003  33.0950373478335820
Zr  N  H
3  2  2
Selective  dynamics
Direct
-0.0000000000000000  -0.0000000000000000  0.0351094453443062  T  T  T
-0.0000000000000000  -0.0000000000000000  0.1238920500032037  T  T  T
-0.0000000000000000  -0.0000000000000000  0.2127159534360164  T  T  T
0.3333333333333357  0.6666666666666643  0.0790711506555831  T  T  T
0.3333333333333357  0.6666666666666643  0.1685423740407299  T  T  T
0.3333333333333357  0.6666666666666643  0.0000000000000000  T  T  T
0.6666666666666643  0.3333333333333357  0.2445997344784229  T  T  T

0.00000000E+00  0.00000000E+00  0.00000000E+00
0.00000000E+00  0.00000000E+00  0.00000000E+00
0.00000000E+00  0.00000000E+00  0.00000000E+00
0.00000000E+00  0.00000000E+00  0.00000000E+00
0.00000000E+00  0.00000000E+00  0.00000000E+00
0.00000000E+00  0.00000000E+00  0.00000000E+00
0.00000000E+00  0.00000000E+00  0.00000000E+00
