Zr3C2  (n=2)
1.00000000000000
3.2640247235719615  0.0000000000000000  0.0000000000000000
-1.6320123617859807  2.8267283294366061  0.0000000000000000
0.0000000000000002  0.0000000000000003  33.0113702887770160
Zr  C  H
3  2  2
Selective  dynamics
Direct
-0.0000000000000000  -0.0000000000000000  0.0363012889940483  T  T  T
-0.0000000000000000  -0.0000000000000000  0.1235386594932587  T  T  T
-0.0000000000000000  -0.0000000000000000  0.2096289960145863  T  T  T
0.3333333333333357  0.6666666666666643  0.0768820812990394  T  T  T
0.3333333333333357  0.6666666666666643  0.1711524117029350  T  T  T
0.3333333333333357  0.6666666666666643  0.0000000000000000  T  T  T
0.6666666666666643  0.3333333333333357  0.2426851784307987  T  T  T

0.00000000E+00  0.00000000E+00  0.00000000E+00
0.00000000E+00  0.00000000E+00  0.00000000E+00
0.00000000E+00  0.00000000E+00  0.00000000E+00
0.00000000E+00  0.00000000E+00  0.00000000E+00
0.00000000E+00  0.00000000E+00  0.00000000E+00
0.00000000E+00  0.00000000E+00  0.00000000E+00
0.00000000E+00  0.00000000E+00  0.00000000E+00
