Ta3C2  (n=2)
1.00000000000000
3.0065800664554008  0.0000000000000000  0.0000000000000000
-1.5032900332277004  2.6037747161736684  0.0000000000000000
-0.0000000000000003  -0.0000000000000001  32.8621287890904270
Ta  C  H
3  2  2
Selective  dynamics
Direct
0.0000000000000000  -0.0000000000000000  0.0343107953016020  T  T  T
0.0000000000000000  -0.0000000000000000  0.1211423102022402  T  T  T
-0.0000000000000000  -0.0000000000000000  0.2083584779902787  T  T  T
0.3333333333333357  0.6666666666666643  0.0763074677097723  T  T  T
0.3333333333333357  0.6666666666666643  0.1658491243204334  T  T  T
0.3333333333333357  0.6666666666666643  0.0000000000000000  T  T  T
0.6666666666666643  0.3333333333333357  0.2392458759914695  T  T  T

0.00000000E+00  0.00000000E+00  0.00000000E+00
0.00000000E+00  0.00000000E+00  0.00000000E+00
0.00000000E+00  0.00000000E+00  0.00000000E+00
0.00000000E+00  0.00000000E+00  0.00000000E+00
0.00000000E+00  0.00000000E+00  0.00000000E+00
0.00000000E+00  0.00000000E+00  0.00000000E+00
0.00000000E+00  0.00000000E+00  0.00000000E+00
