Ti3N2  (n=2)
1.00000000000000
2.8801077036639575  0.0000000000000000  0.0000000000000000
-1.4400538518319788  2.4942464370416109  0.0000000000000000
0.0000000000000000  0.0000000000000000  32.4911608607901599
Ti  N  H
3  2  2
Selective  dynamics
Direct
-0.0000000000000000  -0.0000000000000000  0.0345613101346701  T  T  T
-0.0000000000000000  -0.0000000000000000  0.1172078498882328  T  T  T
-0.0000000000000000  0.0000000000000000  0.1996297320921309  T  T  T
0.3333333333333357  0.6666666666666643  0.0749251548152176  T  T  T
0.3333333333333357  0.6666666666666643  0.1596311816769624  T  T  T
0.3333333333333357  0.6666666666666643  0.0000000000000000  T  T  T
0.6666666666666643  0.3333333333333357  0.2305599634585657  T  T  T

0.00000000E+00  0.00000000E+00  0.00000000E+00
0.00000000E+00  0.00000000E+00  0.00000000E+00
0.00000000E+00  0.00000000E+00  0.00000000E+00
0.00000000E+00  0.00000000E+00  0.00000000E+00
0.00000000E+00  0.00000000E+00  0.00000000E+00
0.00000000E+00  0.00000000E+00  0.00000000E+00
0.00000000E+00  0.00000000E+00  0.00000000E+00
