Nb4C3  (n=3)
1.00000000000000
3.3117041836244097  0.0000000000000004  -0.0000000000000001
-1.6558520918122051  2.8680199534070026  0.0000000000000000
-0.0000000000000010  0.0000000000000022  36.8066318867422098
Nb  C  I
4  3  2
Selective  dynamics
Direct
-0.0000000000000000  -0.0000000000000000  0.0597122223279909  T  T  T
0.6666666666666643  0.3333333333333357  0.1261662532827836  T  T  T
0.3333333333333357  0.6666666666666643  0.1962477286702448  T  T  T
0.0000000000000000  -0.0000000000000000  0.2601100214994411  T  T  T
0.3333333333333357  0.6666666666666643  0.0905544285327277  T  T  T
0.0000000000000000  0.0000000000000000  0.1605311737963374  T  T  T
0.6666666666666643  0.3333333333333357  0.2308415596384062  T  T  T
0.3333333333333357  0.6666666666666643  0.0000000000000000  T  T  T
0.3333333333333357  0.6666666666666643  0.3207745800559102  T  T  T

0.00000000E+00  0.00000000E+00  0.00000000E+00
0.00000000E+00  0.00000000E+00  0.00000000E+00
0.00000000E+00  0.00000000E+00  0.00000000E+00
0.00000000E+00  0.00000000E+00  0.00000000E+00
0.00000000E+00  0.00000000E+00  0.00000000E+00
0.00000000E+00  0.00000000E+00  0.00000000E+00
0.00000000E+00  0.00000000E+00  0.00000000E+00
0.00000000E+00  0.00000000E+00  0.00000000E+00
0.00000000E+00  0.00000000E+00  0.00000000E+00
