Sc4N3  (n=3)
1.00000000000000
3.3998492012976471  0.0000000000000000  -0.0000000000000001
-1.6999246006488236  2.9443557781925747  -0.0000000000000003
0.0000000000000000  -0.0000000000000010  36.6145599452982609
Sc  N  I
4  3  2
Selective  dynamics
Direct
-0.0000000000000000  -0.0000000000000000  0.0589854051252478  T  T  T
0.6666666666666643  0.3333333333333357  0.1259169072753526  T  T  T
0.3333333333333357  0.6666666666666643  0.1923832520131168  T  T  T
-0.0000000000000000  -0.0000000000000000  0.2591113477023057  T  T  T
0.3333333333333357  0.6666666666666643  0.0893102486334609  T  T  T
-0.0000000000000000  -0.0000000000000000  0.1600027237414093  T  T  T
0.6666666666666643  0.3333333333333357  0.2309613526090523  T  T  T
0.3333333333333357  0.6666666666666643  0.0000000000000000  T  T  T
0.3333333333333357  0.6666666666666643  0.3172115126509858  T  T  T

0.00000000E+00  0.00000000E+00  0.00000000E+00
0.00000000E+00  0.00000000E+00  0.00000000E+00
0.00000000E+00  0.00000000E+00  0.00000000E+00
0.00000000E+00  0.00000000E+00  0.00000000E+00
0.00000000E+00  0.00000000E+00  0.00000000E+00
0.00000000E+00  0.00000000E+00  0.00000000E+00
0.00000000E+00  0.00000000E+00  0.00000000E+00
0.00000000E+00  0.00000000E+00  0.00000000E+00
0.00000000E+00  0.00000000E+00  0.00000000E+00
