Sc4C3  (n=3)
1.00000000000000
3.4569270035902981  0.0000000000000001  -0.0000000000000001
-1.7284635017951491  2.9937866045522807  -0.0000000000000003
-0.0000000000000005  0.0000000000000013  37.2309569549044781
Sc  C  I
4  3  2
Selective  dynamics
Direct
-0.0000000000000000  0.0000000000000000  0.0636937736781887  T  T  T
0.6666666666666643  0.3333333333333357  0.1301892520784503  T  T  T
0.3333333333333357  0.6666666666666643  0.2016071755538960  T  T  T
-0.0000000000000000  -0.0000000000000000  0.2678912748197416  T  T  T
0.3333333333333357  0.6666666666666643  0.0931545155169439  T  T  T
-0.0000000000000000  -0.0000000000000000  0.1657980347189418  T  T  T
0.6666666666666643  0.3333333333333357  0.2390761196025097  T  T  T
0.3333333333333357  0.6666666666666643  0.0000000000000000  T  T  T
0.3333333333333357  0.6666666666666643  0.3285157824366177  T  T  T

0.00000000E+00  0.00000000E+00  0.00000000E+00
0.00000000E+00  0.00000000E+00  0.00000000E+00
0.00000000E+00  0.00000000E+00  0.00000000E+00
0.00000000E+00  0.00000000E+00  0.00000000E+00
0.00000000E+00  0.00000000E+00  0.00000000E+00
0.00000000E+00  0.00000000E+00  0.00000000E+00
0.00000000E+00  0.00000000E+00  0.00000000E+00
0.00000000E+00  0.00000000E+00  0.00000000E+00
0.00000000E+00  0.00000000E+00  0.00000000E+00
