Ti4C3  (n=3)
1.00000000000000
3.2843855866597562  -0.0000000000000001  0.0000000000000000
-1.6421927933298781  2.8443613539907586  0.0000000000000000
0.0000000000000004  -0.0000000000000013  36.1029611989833086
Ti  C  I
4  3  2
Selective  dynamics
Direct
0.0000000000000000  0.0000000000000000  0.0585743459294426  T  T  T
0.6666666666666643  0.3333333333333357  0.1226304156820197  T  T  T
0.3333333333333357  0.6666666666666643  0.1860392831867920  T  T  T
-0.0000000000000000  -0.0000000000000000  0.2491705557620897  T  T  T
0.3333333333333357  0.6666666666666643  0.0866202759597829  T  T  T
0.0000000000000000  0.0000000000000000  0.1544918323233652  T  T  T
0.6666666666666643  0.3333333333333357  0.2228943450948313  T  T  T
0.3333333333333357  0.6666666666666643  0.0000000000000000  T  T  T
0.3333333333333357  0.6666666666666643  0.3075360255849590  T  T  T

0.00000000E+00  0.00000000E+00  0.00000000E+00
0.00000000E+00  0.00000000E+00  0.00000000E+00
0.00000000E+00  0.00000000E+00  0.00000000E+00
0.00000000E+00  0.00000000E+00  0.00000000E+00
0.00000000E+00  0.00000000E+00  0.00000000E+00
0.00000000E+00  0.00000000E+00  0.00000000E+00
0.00000000E+00  0.00000000E+00  0.00000000E+00
0.00000000E+00  0.00000000E+00  0.00000000E+00
0.00000000E+00  0.00000000E+00  0.00000000E+00
