Mo4N3  (n=3)
1.00000000000000
3.3453668887508075  0.0000000000000000  0.0000000000000000
-1.6726834443754037  2.8971727106549579  0.0000000000000001
0.0000000000000012  -0.0000000000000025  35.9229299749985955
Mo  N  I
4  3  2
Selective  dynamics
Direct
0.0000000000000000  0.0000000000000000  0.0633186463817417  T  T  T
0.6666666666666643  0.3333333333333357  0.1167962835688203  T  T  T
0.3333333333333357  0.6666666666666643  0.1862769559598161  T  T  T
0.0000000000000000  0.0000000000000000  0.2419685660202397  T  T  T
0.3333333333333357  0.6666666666666643  0.0896666790470198  T  T  T
-0.0000000000000000  -0.0000000000000000  0.1563472335375722  T  T  T
0.6666666666666643  0.3333333333333357  0.2248022298544255  T  T  T
0.3333333333333357  0.6666666666666643  0.0000000000000000  T  T  T
0.3333333333333357  0.6666666666666643  0.3040656756729105  T  T  T

0.00000000E+00  0.00000000E+00  0.00000000E+00
0.00000000E+00  0.00000000E+00  0.00000000E+00
0.00000000E+00  0.00000000E+00  0.00000000E+00
0.00000000E+00  0.00000000E+00  0.00000000E+00
0.00000000E+00  0.00000000E+00  0.00000000E+00
0.00000000E+00  0.00000000E+00  0.00000000E+00
0.00000000E+00  0.00000000E+00  0.00000000E+00
0.00000000E+00  0.00000000E+00  0.00000000E+00
0.00000000E+00  0.00000000E+00  0.00000000E+00
