Mo4C3  (n=3)
1.00000000000000
3.2605091115388420  0.0000000000000001  0.0000000000000000
-1.6302545557694210  2.8236837200724456  -0.0000000000000001
-0.0000000000000004  -0.0000000000000002  36.5283945097194191
Mo  C  I
4  3  2
Selective  dynamics
Direct
0.0000000000000000  0.0000000000000000  0.0628284161457317  T  T  T
0.6666666666666643  0.3333333333333357  0.1238324350557722  T  T  T
0.3333333333333357  0.6666666666666643  0.1929062633251355  T  T  T
0.0000000000000000  0.0000000000000000  0.2511220440770586  T  T  T
0.3333333333333357  0.6666666666666643  0.0885977033873265  T  T  T
0.0000000000000000  0.0000000000000000  0.1579788059535082  T  T  T
0.6666666666666643  0.3333333333333357  0.2275013762761255  T  T  T
0.3333333333333357  0.6666666666666643  0.0000000000000000  T  T  T
0.3333333333333357  0.6666666666666643  0.3156009089491180  T  T  T

0.00000000E+00  0.00000000E+00  0.00000000E+00
0.00000000E+00  0.00000000E+00  0.00000000E+00
0.00000000E+00  0.00000000E+00  0.00000000E+00
0.00000000E+00  0.00000000E+00  0.00000000E+00
0.00000000E+00  0.00000000E+00  0.00000000E+00
0.00000000E+00  0.00000000E+00  0.00000000E+00
0.00000000E+00  0.00000000E+00  0.00000000E+00
0.00000000E+00  0.00000000E+00  0.00000000E+00
0.00000000E+00  0.00000000E+00  0.00000000E+00
