Cr4C3  (n=3)
1.00000000000000
3.1941570364109131  0.0000000000000000  0.0000000000000000
-1.5970785182054563  2.7662211372005783  0.0000000000000001
0.0000000000000001  0.0000000000000007  35.4572554912327007
Cr  C  I
4  3  2
Selective  dynamics
Direct
0.0000000000000000  0.0000000000000000  0.0627127999069353  T  T  T
0.6666666666666643  0.3333333333333357  0.1205055210364286  T  T  T
0.3333333333333357  0.6666666666666643  0.1767351365458336  T  T  T
0.0000000000000000  0.0000000000000000  0.2341001286219427  T  T  T
0.3333333333333357  0.6666666666666643  0.0862382768305792  T  T  T
0.0000000000000000  0.0000000000000000  0.1491673733258808  T  T  T
0.6666666666666643  0.3333333333333357  0.2125696404415255  T  T  T
0.3333333333333357  0.6666666666666643  0.0000000000000000  T  T  T
0.3333333333333357  0.6666666666666643  0.2949256885891351  T  T  T

0.00000000E+00  0.00000000E+00  0.00000000E+00
0.00000000E+00  0.00000000E+00  0.00000000E+00
0.00000000E+00  0.00000000E+00  0.00000000E+00
0.00000000E+00  0.00000000E+00  0.00000000E+00
0.00000000E+00  0.00000000E+00  0.00000000E+00
0.00000000E+00  0.00000000E+00  0.00000000E+00
0.00000000E+00  0.00000000E+00  0.00000000E+00
0.00000000E+00  0.00000000E+00  0.00000000E+00
0.00000000E+00  0.00000000E+00  0.00000000E+00
