Hf4N3  (n=3)
1.00000000000000
3.3831808843907298  0.0000000000000000  0.0000000000000000
-1.6915904421953649  2.9299205916900766  0.0000000000000000
0.0000000000000000  -0.0000000000000005  36.6606053576934556
Hf  N  I
4  3  2
Selective  dynamics
Direct
-0.0000000000000000  -0.0000000000000000  0.0585185160399540  T  T  T
0.6666666666666643  0.3333333333333357  0.1255397844063733  T  T  T
0.3333333333333357  0.6666666666666643  0.1947765152272946  T  T  T
0.0000000000000000  0.0000000000000000  0.2583506723116979  T  T  T
0.3333333333333357  0.6666666666666643  0.0917996530503221  T  T  T
0.0000000000000000  0.0000000000000000  0.1586332678673590  T  T  T
0.6666666666666643  0.3333333333333357  0.2285070458386950  T  T  T
0.3333333333333357  0.6666666666666643  0.0000000000000000  T  T  T
0.3333333333333357  0.6666666666666643  0.3180690892559527  T  T  T

0.00000000E+00  0.00000000E+00  0.00000000E+00
0.00000000E+00  0.00000000E+00  0.00000000E+00
0.00000000E+00  0.00000000E+00  0.00000000E+00
0.00000000E+00  0.00000000E+00  0.00000000E+00
0.00000000E+00  0.00000000E+00  0.00000000E+00
0.00000000E+00  0.00000000E+00  0.00000000E+00
0.00000000E+00  0.00000000E+00  0.00000000E+00
0.00000000E+00  0.00000000E+00  0.00000000E+00
0.00000000E+00  0.00000000E+00  0.00000000E+00
