Ti4N3  (n=3)
1.00000000000000
3.2238824043211403  0.0000000000000000  0.0000000000000000
-1.6119412021605701  2.7919640610373535  0.0000000000000001
0.0000000000000006  0.0000000000000005  36.0223815241176837
Ti  N  I
4  3  2
Selective  dynamics
Direct
0.0000000000000000  0.0000000000000000  0.0587627835264501  T  T  T
0.6666666666666643  0.3333333333333357  0.1211618846884464  T  T  T
0.3333333333333357  0.6666666666666643  0.1869171413244830  T  T  T
0.0000000000000000  0.0000000000000000  0.2462667089212194  T  T  T
0.3333333333333357  0.6666666666666643  0.0880275443926677  T  T  T
0.0000000000000000  0.0000000000000000  0.1531568412509366  T  T  T
0.6666666666666643  0.3333333333333357  0.2196981709255179  T  T  T
0.3333333333333357  0.6666666666666643  0.0000000000000000  T  T  T
0.3333333333333357  0.6666666666666643  0.3059870296675967  T  T  T

0.00000000E+00  0.00000000E+00  0.00000000E+00
0.00000000E+00  0.00000000E+00  0.00000000E+00
0.00000000E+00  0.00000000E+00  0.00000000E+00
0.00000000E+00  0.00000000E+00  0.00000000E+00
0.00000000E+00  0.00000000E+00  0.00000000E+00
0.00000000E+00  0.00000000E+00  0.00000000E+00
0.00000000E+00  0.00000000E+00  0.00000000E+00
0.00000000E+00  0.00000000E+00  0.00000000E+00
0.00000000E+00  0.00000000E+00  0.00000000E+00
