Ta4N3  (n=3)
1.00000000000000
3.3393903456292704  -0.0000000000000001  0.0000000000000000
-1.6696951728146352  2.8919968728237095  0.0000000000000000
0.0000000000000003  0.0000000000000006  36.2668459987911689
Ta  N  I
4  3  2
Selective  dynamics
Direct
0.0000000000000000  0.0000000000000000  0.0610640258850612  T  T  T
0.6666666666666643  0.3333333333333357  0.1222999566960349  T  T  T
0.3333333333333357  0.6666666666666643  0.1911695221355607  T  T  T
0.0000000000000000  0.0000000000000000  0.2494662642679545  T  T  T
0.3333333333333357  0.6666666666666643  0.0891126155065218  T  T  T
0.0000000000000000  0.0000000000000000  0.1561172020130968  T  T  T
0.6666666666666643  0.3333333333333357  0.2228501357774428  T  T  T
0.3333333333333357  0.6666666666666643  0.0000000000000000  T  T  T
0.3333333333333357  0.6666666666666643  0.3106651733422507  T  T  T

0.00000000E+00  0.00000000E+00  0.00000000E+00
0.00000000E+00  0.00000000E+00  0.00000000E+00
0.00000000E+00  0.00000000E+00  0.00000000E+00
0.00000000E+00  0.00000000E+00  0.00000000E+00
0.00000000E+00  0.00000000E+00  0.00000000E+00
0.00000000E+00  0.00000000E+00  0.00000000E+00
0.00000000E+00  0.00000000E+00  0.00000000E+00
0.00000000E+00  0.00000000E+00  0.00000000E+00
0.00000000E+00  0.00000000E+00  0.00000000E+00
