Zr4N3  (n=3)
1.00000000000000
3.4315373526786490  0.0000000000000000  0.0000000000000000
-1.7157686763393241  2.9717985221918086  0.0000000000000000
-0.0000000000000007  -0.0000000000000009  36.8684395541915038
Zr  N  I
4  3  2
Selective  dynamics
Direct
0.0000000000000000  0.0000000000000000  0.0592625820401520  T  T  T
0.6666666666666643  0.3333333333333357  0.1271564402342516  T  T  T
0.3333333333333357  0.6666666666666643  0.1972790417120183  T  T  T
0.0000000000000000  0.0000000000000000  0.2617898651772975  T  T  T
0.3333333333333357  0.6666666666666643  0.0924853473308480  T  T  T
0.0000000000000000  0.0000000000000000  0.1608701841336026  T  T  T
0.6666666666666643  0.3333333333333357  0.2314292076965447  T  T  T
0.3333333333333357  0.6666666666666643  0.0000000000000000  T  T  T
0.3333333333333357  0.6666666666666643  0.3219132596253916  T  T  T

0.00000000E+00  0.00000000E+00  0.00000000E+00
0.00000000E+00  0.00000000E+00  0.00000000E+00
0.00000000E+00  0.00000000E+00  0.00000000E+00
0.00000000E+00  0.00000000E+00  0.00000000E+00
0.00000000E+00  0.00000000E+00  0.00000000E+00
0.00000000E+00  0.00000000E+00  0.00000000E+00
0.00000000E+00  0.00000000E+00  0.00000000E+00
0.00000000E+00  0.00000000E+00  0.00000000E+00
0.00000000E+00  0.00000000E+00  0.00000000E+00
