Cr4N3  (n=3)
1.00000000000000
3.1440462903530553  0.0000000000000002  -0.0000000000000002
-1.5720231451765276  2.7228239581223526  0.0000000000000002
-0.0000000000000019  0.0000000000000015  35.6760649421362714
Cr  N  I
4  3  2
Selective  dynamics
Direct
0.0000000000000000  0.0000000000000000  0.0628756051041734  T  T  T
0.6666666666666643  0.3333333333333357  0.1209139146979018  T  T  T
0.3333333333333357  0.6666666666666643  0.1813228907745214  T  T  T
0.0000000000000000  0.0000000000000000  0.2385093216060359  T  T  T
0.3333333333333357  0.6666666666666643  0.0873980400913001  T  T  T
0.0000000000000000  0.0000000000000000  0.1516544643154680  T  T  T
0.6666666666666643  0.3333333333333357  0.2163400458010668  T  T  T
0.3333333333333357  0.6666666666666643  0.0000000000000000  T  T  T
0.3333333333333357  0.6666666666666643  0.2992500703048948  T  T  T

0.00000000E+00  0.00000000E+00  0.00000000E+00
0.00000000E+00  0.00000000E+00  0.00000000E+00
0.00000000E+00  0.00000000E+00  0.00000000E+00
0.00000000E+00  0.00000000E+00  0.00000000E+00
0.00000000E+00  0.00000000E+00  0.00000000E+00
0.00000000E+00  0.00000000E+00  0.00000000E+00
0.00000000E+00  0.00000000E+00  0.00000000E+00
0.00000000E+00  0.00000000E+00  0.00000000E+00
0.00000000E+00  0.00000000E+00  0.00000000E+00
