Ta4C3  (n=3)
1.00000000000000
3.2948026427684476  0.0000000000000000  0.0000000000000000
-1.6474013213842240  2.8533827895894004  -0.0000000000000001
0.0000000000000000  -0.0000000000000004  36.7479879013232207
Ta  C  I
4  3  2
Selective  dynamics
Direct
-0.0000000000000000  -0.0000000000000000  0.0598533212028872  T  T  T
0.6666666666666643  0.3333333333333357  0.1262224048905044  T  T  T
0.3333333333333357  0.6666666666666643  0.1959493639754782  T  T  T
-0.0000000000000000  -0.0000000000000000  0.2594283629297238  T  T  T
0.3333333333333357  0.6666666666666643  0.0909870013993672  T  T  T
-0.0000000000000000  -0.0000000000000000  0.1603758994054425  T  T  T
0.6666666666666643  0.3333333333333357  0.2302217734193717  T  T  T
0.3333333333333357  0.6666666666666643  0.0000000000000000  T  T  T
0.3333333333333357  0.6666666666666643  0.3196906435494989  T  T  T

0.00000000E+00  0.00000000E+00  0.00000000E+00
0.00000000E+00  0.00000000E+00  0.00000000E+00
0.00000000E+00  0.00000000E+00  0.00000000E+00
0.00000000E+00  0.00000000E+00  0.00000000E+00
0.00000000E+00  0.00000000E+00  0.00000000E+00
0.00000000E+00  0.00000000E+00  0.00000000E+00
0.00000000E+00  0.00000000E+00  0.00000000E+00
0.00000000E+00  0.00000000E+00  0.00000000E+00
0.00000000E+00  0.00000000E+00  0.00000000E+00
