Nb4N3  (n=3)
1.00000000000000
3.3429156083865017  0.0000000000000001  0.0000000000000000
-1.6714578041932511  2.8950498399022404  0.0000000000000000
-0.0000000000000001  0.0000000000000003  36.4122571727511115
Nb  N  I
4  3  2
Selective  dynamics
Direct
-0.0000000000000000  -0.0000000000000000  0.0618385403137382  T  T  T
0.6666666666666643  0.3333333333333357  0.1231799373268832  T  T  T
0.3333333333333357  0.6666666666666643  0.1936826355865885  T  T  T
0.0000000000000000  0.0000000000000000  0.2528347356046606  T  T  T
0.3333333333333357  0.6666666666666643  0.0890568309613273  T  T  T
0.0000000000000000  0.0000000000000000  0.1579670174850024  T  T  T
0.6666666666666643  0.3333333333333357  0.2249877631988028  T  T  T
0.3333333333333357  0.6666666666666643  0.0000000000000000  T  T  T
0.3333333333333357  0.6666666666666643  0.3134180097269938  T  T  T

0.00000000E+00  0.00000000E+00  0.00000000E+00
0.00000000E+00  0.00000000E+00  0.00000000E+00
0.00000000E+00  0.00000000E+00  0.00000000E+00
0.00000000E+00  0.00000000E+00  0.00000000E+00
0.00000000E+00  0.00000000E+00  0.00000000E+00
0.00000000E+00  0.00000000E+00  0.00000000E+00
0.00000000E+00  0.00000000E+00  0.00000000E+00
0.00000000E+00  0.00000000E+00  0.00000000E+00
0.00000000E+00  0.00000000E+00  0.00000000E+00
