Hf4C3  (n=3)
1.00000000000000
3.4417587859365084  0.0000000000000001  0.0000000000000000
-1.7208793929682542  2.9806505431801584  0.0000000000000001
0.0000000000000000  0.0000000000000048  36.9208464756545141
Hf  C  I
4  3  2
Selective  dynamics
Direct
-0.0000000000000000  0.0000000000000000  0.0598400702670162  T  T  T
0.6666666666666643  0.3333333333333357  0.1283005171871108  T  T  T
0.3333333333333357  0.6666666666666643  0.1959461587743482  T  T  T
0.0000000000000000  -0.0000000000000000  0.2636844166432633  T  T  T
0.3333333333333357  0.6666666666666643  0.0901217955622764  T  T  T
0.0000000000000000  0.0000000000000000  0.1624102354099131  T  T  T
0.6666666666666643  0.3333333333333357  0.2351943930246073  T  T  T
0.3333333333333357  0.6666666666666643  0.0000000000000000  T  T  T
0.3333333333333357  0.6666666666666643  0.3228757629789199  T  T  T

0.00000000E+00  0.00000000E+00  0.00000000E+00
0.00000000E+00  0.00000000E+00  0.00000000E+00
0.00000000E+00  0.00000000E+00  0.00000000E+00
0.00000000E+00  0.00000000E+00  0.00000000E+00
0.00000000E+00  0.00000000E+00  0.00000000E+00
0.00000000E+00  0.00000000E+00  0.00000000E+00
0.00000000E+00  0.00000000E+00  0.00000000E+00
0.00000000E+00  0.00000000E+00  0.00000000E+00
0.00000000E+00  0.00000000E+00  0.00000000E+00
