Zr4C3  (n=3)
1.00000000000000
3.4846978611336956  -0.0000000000000001  0.0000000000000000
-1.7423489305668478  3.0178368731249532  0.0000000000000002
-0.0000000000000004  0.0000000000000021  37.0947906408971946
Zr  C  I
4  3  2
Selective  dynamics
Direct
-0.0000000000000000  -0.0000000000000000  0.0599334050158551  T  T  T
0.6666666666666643  0.3333333333333357  0.1295008197969361  T  T  T
0.3333333333333357  0.6666666666666643  0.1981498131021677  T  T  T
0.0000000000000000  0.0000000000000000  0.2668283142548777  T  T  T
0.3333333333333357  0.6666666666666643  0.0906996175337222  T  T  T
-0.0000000000000000  0.0000000000000000  0.1639779857241918  T  T  T
0.6666666666666643  0.3333333333333357  0.2376183494680786  T  T  T
0.3333333333333357  0.6666666666666643  0.0000000000000000  T  T  T
0.3333333333333357  0.6666666666666643  0.3260509206800221  T  T  T

0.00000000E+00  0.00000000E+00  0.00000000E+00
0.00000000E+00  0.00000000E+00  0.00000000E+00
0.00000000E+00  0.00000000E+00  0.00000000E+00
0.00000000E+00  0.00000000E+00  0.00000000E+00
0.00000000E+00  0.00000000E+00  0.00000000E+00
0.00000000E+00  0.00000000E+00  0.00000000E+00
0.00000000E+00  0.00000000E+00  0.00000000E+00
0.00000000E+00  0.00000000E+00  0.00000000E+00
0.00000000E+00  0.00000000E+00  0.00000000E+00
