Zr2C  (n=1)
1.00000000000000
3.6031922172501361  -0.0000000000000001  0.0000000000000000
-1.8015961086250680  3.1204559953747664  0.0000000000000000
0.0000000000000000  0.0000000000000000  31.9788664757408689
Zr  C  I
2  1  2
Selective  dynamics
Direct
-0.0000000000000000  -0.0000000000000000  0.0663691136823240  T  T  T
0.0000000000000000  0.0000000000000000  0.1518645901618954  T  T  T
0.3333333333333357  0.6666666666666643  0.1091168519221097  T  T  T
0.6666666666666643  0.3333333333333357  0.0000000000000000  T  T  T
0.6666666666666643  0.3333333333333357  0.2182337038442257  T  T  T

0.00000000E+00  0.00000000E+00  0.00000000E+00
0.00000000E+00  0.00000000E+00  0.00000000E+00
0.00000000E+00  0.00000000E+00  0.00000000E+00
0.00000000E+00  0.00000000E+00  0.00000000E+00
0.00000000E+00  0.00000000E+00  0.00000000E+00
