Mo2N  (n=1)
1.00000000000000
3.3303389127130179  0.0000000000000000  0.0000000000000000
-1.6651694563565089  2.8841581016760456  0.0000000000000000
0.0000000000000000  0.0000000000000000  31.6599547806212733
Mo  N  I
2  1  2
Selective  dynamics
Direct
0.0000000000000000  -0.0000000000000000  0.0663554327040016  T  T  T
0.0000000000000000  -0.0000000000000000  0.1440035152720631  T  T  T
0.3333333333333357  0.6666666666666643  0.1051794739880282  T  T  T
0.6666666666666643  0.3333333333333357  0.0000000000000000  T  T  T
0.6666666666666643  0.3333333333333357  0.2103589479760648  T  T  T

0.00000000E+00  0.00000000E+00  0.00000000E+00
0.00000000E+00  0.00000000E+00  0.00000000E+00
0.00000000E+00  0.00000000E+00  0.00000000E+00
0.00000000E+00  0.00000000E+00  0.00000000E+00
0.00000000E+00  0.00000000E+00  0.00000000E+00
