Hf2N  (n=1)
1.00000000000000
3.4221166365149087  -0.0000000000000002  0.0000000000000000
-1.7110583182574541  2.9636399423217328  0.0000000000000000
0.0000000000000000  0.0000000000000000  32.0665948963195859
Hf  N  I
2  1  2
Selective  dynamics
Direct
0.0000000000000000  -0.0000000000000000  0.0657359417809403  T  T  T
-0.0000000000000000  -0.0000000000000000  0.1546365336617406  T  T  T
0.3333333333333357  0.6666666666666643  0.1101862377213356  T  T  T
0.6666666666666643  0.3333333333333357  0.0000000000000000  T  T  T
0.6666666666666643  0.3333333333333357  0.2203724754426808  T  T  T

0.00000000E+00  0.00000000E+00  0.00000000E+00
0.00000000E+00  0.00000000E+00  0.00000000E+00
0.00000000E+00  0.00000000E+00  0.00000000E+00
0.00000000E+00  0.00000000E+00  0.00000000E+00
0.00000000E+00  0.00000000E+00  0.00000000E+00
