Nb2N  (n=1)
1.00000000000000
3.3504955493329005  0.0000000000000000  0.0000000000000000
-1.6752477746664503  2.9016142610540969  0.0000000000000000
0.0000000000000000  0.0000000000000000  31.9241292895565749
Nb  N  I
2  1  2
Selective  dynamics
Direct
-0.0000000000000000  -0.0000000000000000  0.0669980254075717  T  T  T
0.0000000000000000  -0.0000000000000000  0.1498952601305772  T  T  T
0.3333333333333357  0.6666666666666643  0.1084466427690708  T  T  T
0.6666666666666643  0.3333333333333357  0.0000000000000000  T  T  T
0.6666666666666643  0.3333333333333357  0.2168932855381489  T  T  T

0.00000000E+00  0.00000000E+00  0.00000000E+00
0.00000000E+00  0.00000000E+00  0.00000000E+00
0.00000000E+00  0.00000000E+00  0.00000000E+00
0.00000000E+00  0.00000000E+00  0.00000000E+00
0.00000000E+00  0.00000000E+00  0.00000000E+00
