Zr2N  (n=1)
1.00000000000000
3.4681270110459748  -0.0000000000000000  0.0000000000000000
-1.7340635055229874  3.0034860953705866  -0.0000000000000000
0.0000000000000000  -0.0000000000000000  32.1420136052781729
Zr  N  I
2  1  2
Selective  dynamics
Direct
-0.0000000000000000  0.0000000000000000  0.0664470342784010  T  T  T
-0.0000000000000000  0.0000000000000000  0.1557547758815376  T  T  T
0.3333333333333357  0.6666666666666643  0.1111009050799729  T  T  T
0.6666666666666643  0.3333333333333357  0.0000000000000000  T  T  T
0.6666666666666643  0.3333333333333357  0.2222018101599383  T  T  T

0.00000000E+00  0.00000000E+00  0.00000000E+00
0.00000000E+00  0.00000000E+00  0.00000000E+00
0.00000000E+00  0.00000000E+00  0.00000000E+00
0.00000000E+00  0.00000000E+00  0.00000000E+00
0.00000000E+00  0.00000000E+00  0.00000000E+00
