Ta2N  (n=1)
1.00000000000000
3.3151868374627291  0.0000000000000000  0.0000000000000000
-1.6575934187313643  2.8710360196616946  0.0000000000000000
0.0000000000000000  0.0000000000000000  31.9493150489118243
Ta  N  I
2  1  2
Selective  dynamics
Direct
-0.0000000000000000  -0.0000000000000000  0.0668623890822773  T  T  T
0.0000000000000000  -0.0000000000000000  0.1506482222805249  T  T  T
0.3333333333333357  0.6666666666666643  0.1087553056814011  T  T  T
0.6666666666666643  0.3333333333333357  0.0000000000000000  T  T  T
0.6666666666666643  0.3333333333333357  0.2175106113628096  T  T  T

0.00000000E+00  0.00000000E+00  0.00000000E+00
0.00000000E+00  0.00000000E+00  0.00000000E+00
0.00000000E+00  0.00000000E+00  0.00000000E+00
0.00000000E+00  0.00000000E+00  0.00000000E+00
0.00000000E+00  0.00000000E+00  0.00000000E+00
