Cr2C  (n=1)
1.00000000000000
3.3942819017760457  -0.0000000000000002  0.0000000000000000
-1.6971409508880229  2.9395343545750898  0.0000000000000000
0.0000000000000000  0.0000000000000000  30.9811796766054677
Cr  C  I
2  1  2
Selective  dynamics
Direct
0.0000000000000000  0.0000000000000000  0.0630083297256265  T  T  T
-0.0000000000000000  0.0000000000000000  0.1300501573636120  T  T  T
0.3333333333333357  0.6666666666666643  0.0965292435446218  T  T  T
0.6666666666666643  0.3333333333333357  0.0000000000000000  T  T  T
0.6666666666666643  0.3333333333333357  0.1930584870892434  T  T  T

0.00000000E+00  0.00000000E+00  0.00000000E+00
0.00000000E+00  0.00000000E+00  0.00000000E+00
0.00000000E+00  0.00000000E+00  0.00000000E+00
0.00000000E+00  0.00000000E+00  0.00000000E+00
0.00000000E+00  0.00000000E+00  0.00000000E+00
