Ti2C  (n=1)
1.00000000000000
3.4729209113108870  0.0000000000000001  0.0000000000000000
-1.7364604556554433  3.0076377345929379  0.0000000000000000
0.0000000000000000  0.0000000000000000  31.3801944191451234
Ti  C  I
2  1  2
Selective  dynamics
Direct
0.0000000000000000  0.0000000000000000  0.0630153131264578  T  T  T
0.0000000000000000  0.0000000000000000  0.1403038356947666  T  T  T
0.3333333333333357  0.6666666666666643  0.1016595744106122  T  T  T
0.6666666666666643  0.3333333333333357  0.0000000000000000  T  T  T
0.6666666666666643  0.3333333333333357  0.2033191488212244  T  T  T

0.00000000E+00  0.00000000E+00  0.00000000E+00
0.00000000E+00  0.00000000E+00  0.00000000E+00
0.00000000E+00  0.00000000E+00  0.00000000E+00
0.00000000E+00  0.00000000E+00  0.00000000E+00
0.00000000E+00  0.00000000E+00  0.00000000E+00
