Ta2C  (n=1)
1.00000000000000
3.3275355236221391  -0.0000000000000016  0.0000000000000000
-1.6637677618110702  2.8817302956922868  0.0000000000000000
0.0000000000000000  0.0000000000000000  31.9994444962854558
Ta  C  I
2  1  2
Selective  dynamics
Direct
0.0000000000000000  0.0000000000000000  0.0665601143122677  T  T  T
-0.0000000000000000  0.0000000000000000  0.1521763233498911  T  T  T
0.3333333333333357  0.6666666666666643  0.1093682188310795  T  T  T
0.6666666666666643  0.3333333333333357  0.0000000000000000  T  T  T
0.6666666666666643  0.3333333333333357  0.2187364376621589  T  T  T

0.00000000E+00  0.00000000E+00  0.00000000E+00
0.00000000E+00  0.00000000E+00  0.00000000E+00
0.00000000E+00  0.00000000E+00  0.00000000E+00
0.00000000E+00  0.00000000E+00  0.00000000E+00
0.00000000E+00  0.00000000E+00  0.00000000E+00
