Cr2N  (n=1)
1.00000000000000
3.4249569506269451  -0.0000000000000001  0.0000000000000000
-1.7124784753134723  2.9660997262119961  0.0000000000000000
0.0000000000000000  0.0000000000000000  30.8377813021802041
Cr  N  I
2  1  2
Selective  dynamics
Direct
-0.0000000000000000  0.0000000000000000  0.0612056680416510  T  T  T
-0.0000000000000000  0.0000000000000000  0.1281004705866718  T  T  T
0.3333333333333357  0.6666666666666643  0.0946530693141613  T  T  T
0.6666666666666643  0.3333333333333357  0.0000000000000000  T  T  T
0.6666666666666643  0.3333333333333357  0.1893061386283156  T  T  T

0.00000000E+00  0.00000000E+00  0.00000000E+00
0.00000000E+00  0.00000000E+00  0.00000000E+00
0.00000000E+00  0.00000000E+00  0.00000000E+00
0.00000000E+00  0.00000000E+00  0.00000000E+00
0.00000000E+00  0.00000000E+00  0.00000000E+00
