Sc2C  (n=1)
1.00000000000000
3.6207132454135422  0.0000000000000000  0.0000000000000000
-1.8103566227067711  3.1356296504595562  0.0000000000000000
0.0000000000000000  0.0000000000000000  31.8184666415269461
Sc  C  I
2  1  2
Selective  dynamics
Direct
-0.0000000000000000  -0.0000000000000000  0.0650745674670335  T  T  T
-0.0000000000000000  -0.0000000000000000  0.1492181801485298  T  T  T
0.3333333333333357  0.6666666666666643  0.1071463738077816  T  T  T
0.6666666666666643  0.3333333333333357  0.0000000000000000  T  T  T
0.6666666666666643  0.3333333333333357  0.2142927476155631  T  T  T

0.00000000E+00  0.00000000E+00  0.00000000E+00
0.00000000E+00  0.00000000E+00  0.00000000E+00
0.00000000E+00  0.00000000E+00  0.00000000E+00
0.00000000E+00  0.00000000E+00  0.00000000E+00
0.00000000E+00  0.00000000E+00  0.00000000E+00
