Sc2N  (n=1)
1.00000000000000
3.5967701009719439  -0.0000000000000002  0.0000000000000000
-1.7983850504859722  3.1148942791196830  0.0000000000000000
0.0000000000000000  0.0000000000000000  31.6494714413914835
Sc  N  I
2  1  2
Selective  dynamics
Direct
-0.0000000000000000  -0.0000000000000000  0.0639130927272834  T  T  T
-0.0000000000000000  -0.0000000000000000  0.1461843003272799  T  T  T
0.3333333333333357  0.6666666666666643  0.1050486965272816  T  T  T
0.6666666666666643  0.3333333333333357  0.0000000000000000  T  T  T
0.6666666666666643  0.3333333333333357  0.2100973930545722  T  T  T

0.00000000E+00  0.00000000E+00  0.00000000E+00
0.00000000E+00  0.00000000E+00  0.00000000E+00
0.00000000E+00  0.00000000E+00  0.00000000E+00
0.00000000E+00  0.00000000E+00  0.00000000E+00
0.00000000E+00  0.00000000E+00  0.00000000E+00
