Hf2C  (n=1)
1.00000000000000
3.5531041709238309  0.0000000000000000  0.0000000000000000
-1.7765520854619155  3.0770784744742210  0.0000000000000000
0.0000000000000000  0.0000000000000000  31.9002590251154103
Hf  C  I
2  1  2
Selective  dynamics
Direct
0.0000000000000000  -0.0000000000000000  0.0659903955302019  T  T  T
0.0000000000000000  -0.0000000000000000  0.1503169084224877  T  T  T
0.3333333333333357  0.6666666666666643  0.1081536519763448  T  T  T
0.6666666666666643  0.3333333333333357  0.0000000000000000  T  T  T
0.6666666666666643  0.3333333333333357  0.2163073039526971  T  T  T

0.00000000E+00  0.00000000E+00  0.00000000E+00
0.00000000E+00  0.00000000E+00  0.00000000E+00
0.00000000E+00  0.00000000E+00  0.00000000E+00
0.00000000E+00  0.00000000E+00  0.00000000E+00
0.00000000E+00  0.00000000E+00  0.00000000E+00
