Mo2C  (n=1)
1.00000000000000
3.2836412834998976  0.0000000000000000  0.0000000000000000
-1.6418206417499488  2.8437167685651388  0.0000000000000000
0.0000000000000000  0.0000000000000000  31.8550091733787681
Mo  C  I
2  1  2
Selective  dynamics
Direct
0.0000000000000000  -0.0000000000000000  0.0681051088483487  T  T  T
0.0000000000000000  -0.0000000000000000  0.1470889642743018  T  T  T
0.3333333333333357  0.6666666666666643  0.1075970365613252  T  T  T
0.6666666666666643  0.3333333333333357  0.0000000000000000  T  T  T
0.6666666666666643  0.3333333333333357  0.2151940731226504  T  T  T

0.00000000E+00  0.00000000E+00  0.00000000E+00
0.00000000E+00  0.00000000E+00  0.00000000E+00
0.00000000E+00  0.00000000E+00  0.00000000E+00
0.00000000E+00  0.00000000E+00  0.00000000E+00
0.00000000E+00  0.00000000E+00  0.00000000E+00
