Nb2C  (n=1)
1.00000000000000
3.3660642324812331  -0.0000000000000001  0.0000000000000000
-1.6830321162406170  2.9150971363961107  0.0000000000000000
0.0000000000000000  0.0000000000000000  31.9668164121941913
Nb  C  I
2  1  2
Selective  dynamics
Direct
-0.0000000000000000  -0.0000000000000000  0.0659191875897443  T  T  T
0.0000000000000000  0.0000000000000000  0.1520198252403417  T  T  T
0.3333333333333357  0.6666666666666643  0.1089695064150462  T  T  T
0.6666666666666643  0.3333333333333357  0.0000000000000000  T  T  T
0.6666666666666643  0.3333333333333357  0.2179390128300859  T  T  T

0.00000000E+00  0.00000000E+00  0.00000000E+00
0.00000000E+00  0.00000000E+00  0.00000000E+00
0.00000000E+00  0.00000000E+00  0.00000000E+00
0.00000000E+00  0.00000000E+00  0.00000000E+00
0.00000000E+00  0.00000000E+00  0.00000000E+00
