Ti2N  (n=1)
1.00000000000000
3.4603592587576739  0.0000000000000000  0.0000000000000000
-1.7301796293788370  2.9967590243571158  0.0000000000000000
0.0000000000000000  0.0000000000000000  31.3301485936051236
Ti  N  I
2  1  2
Selective  dynamics
Direct
-0.0000000000000000  -0.0000000000000000  0.0637874500489126  T  T  T
-0.0000000000000000  -0.0000000000000000  0.1382591050350036  T  T  T
0.3333333333333357  0.6666666666666643  0.1010232775419582  T  T  T
0.6666666666666643  0.3333333333333357  0.0000000000000000  T  T  T
0.6666666666666643  0.3333333333333357  0.2020465550839163  T  T  T

0.00000000E+00  0.00000000E+00  0.00000000E+00
0.00000000E+00  0.00000000E+00  0.00000000E+00
0.00000000E+00  0.00000000E+00  0.00000000E+00
0.00000000E+00  0.00000000E+00  0.00000000E+00
0.00000000E+00  0.00000000E+00  0.00000000E+00
