Ta3C2  (n=2)
1.00000000000000
3.3348592059058388  0.0000000000000000  0.0000000000000000
-1.6674296029529194  2.8880727905708379  -0.0000000000000001
-0.0000000000000002  0.0000000000000000  33.9290326123638479
Ta  C  Te
3  2  2
Selective  dynamics
Direct
-0.0000000000000000  -0.0000000000000000  0.0621149717661341  T  T  T
0.6666666666666643  0.3333333333333357  0.1315839551686824  T  T  T
0.3333333333333357  0.6666666666666643  0.2010529385712309  T  T  T
0.3333333333333357  0.6666666666666643  0.0941039997022821  T  T  T
0.0000000000000000  -0.0000000000000000  0.1690639106350754  T  T  T
0.3333333333333357  0.6666666666666643  0.0000000000000000  T  T  T
0.0000000000000000  -0.0000000000000000  0.2631679103373575  T  T  T

0.00000000E+00  0.00000000E+00  0.00000000E+00
0.00000000E+00  0.00000000E+00  0.00000000E+00
0.00000000E+00  0.00000000E+00  0.00000000E+00
0.00000000E+00  0.00000000E+00  0.00000000E+00
0.00000000E+00  0.00000000E+00  0.00000000E+00
0.00000000E+00  0.00000000E+00  0.00000000E+00
0.00000000E+00  0.00000000E+00  0.00000000E+00
