Ti3N2  (n=2)
1.00000000000000
3.1913549556610268  -0.0000000000000000  -0.0000000000000000
-1.5956774778305134  2.7637944641497776  0.0000000000000000
-0.0000000000000014  -0.0000000000000011  33.8471259417814707
Ti  N  Te
3  2  2
Selective  dynamics
Direct
-0.0000000000000000  -0.0000000000000000  0.0649795763364740  T  T  T
0.6666666666666643  0.3333333333333357  0.1306924250673254  T  T  T
0.3333333333333357  0.6666666666666643  0.1964052737981769  T  T  T
0.3333333333333357  0.6666666666666643  0.0951962646953325  T  T  T
0.0000000000000000  0.0000000000000000  0.1661885854393183  T  T  T
0.3333333333333357  0.6666666666666643  0.0000000000000000  T  T  T
0.0000000000000000  0.0000000000000000  0.2613848501346587  T  T  T

0.00000000E+00  0.00000000E+00  0.00000000E+00
0.00000000E+00  0.00000000E+00  0.00000000E+00
0.00000000E+00  0.00000000E+00  0.00000000E+00
0.00000000E+00  0.00000000E+00  0.00000000E+00
0.00000000E+00  0.00000000E+00  0.00000000E+00
0.00000000E+00  0.00000000E+00  0.00000000E+00
0.00000000E+00  0.00000000E+00  0.00000000E+00
