Hf3C2  (n=2)
1.00000000000000
3.3668859407785439  -0.0000000000000000  -0.0000000000000000
-1.6834429703892722  2.9158087566196387  0.0000000000000000
0.0000000000000000  -0.0000000000000001  34.6789753768703406
Hf  C  Te
3  2  2
Selective  dynamics
Direct
0.0000000000000000  0.0000000000000000  0.0662026140533535  T  T  T
0.6666666666666643  0.3333333333333357  0.1395510575454547  T  T  T
0.3333333333333357  0.6666666666666643  0.2128995010375634  T  T  T
0.3333333333333357  0.6666666666666643  0.1003548177398493  T  T  T
-0.0000000000000000  -0.0000000000000000  0.1787472973510600  T  T  T
0.3333333333333357  0.6666666666666643  0.0000000000000000  T  T  T
-0.0000000000000000  -0.0000000000000000  0.2791021150909170  T  T  T

0.00000000E+00  0.00000000E+00  0.00000000E+00
0.00000000E+00  0.00000000E+00  0.00000000E+00
0.00000000E+00  0.00000000E+00  0.00000000E+00
0.00000000E+00  0.00000000E+00  0.00000000E+00
0.00000000E+00  0.00000000E+00  0.00000000E+00
0.00000000E+00  0.00000000E+00  0.00000000E+00
0.00000000E+00  0.00000000E+00  0.00000000E+00
