Sc3N2  (n=2)
1.00000000000000
3.2787149961308830  0.0000000000000000  0.0000000000000000
-1.6393574980654415  2.8394504785985766  0.0000000000000000
0.0000000000000002  -0.0000000000000007  34.7598612191191094
Sc  N  Te
3  2  2
Selective  dynamics
Direct
-0.0000000000000000  -0.0000000000000000  0.0693983160908224  T  T  T
0.6666666666666643  0.3333333333333357  0.1403898185553003  T  T  T
0.3333333333333357  0.6666666666666643  0.2113813210197706  T  T  T
0.3333333333333357  0.6666666666666643  0.1020952345625868  T  T  T
-0.0000000000000000  -0.0000000000000000  0.1786844025480062  T  T  T
0.3333333333333357  0.6666666666666643  0.0000000000000000  T  T  T
0.0000000000000000  0.0000000000000000  0.2807796371106008  T  T  T

0.00000000E+00  0.00000000E+00  0.00000000E+00
0.00000000E+00  0.00000000E+00  0.00000000E+00
0.00000000E+00  0.00000000E+00  0.00000000E+00
0.00000000E+00  0.00000000E+00  0.00000000E+00
0.00000000E+00  0.00000000E+00  0.00000000E+00
0.00000000E+00  0.00000000E+00  0.00000000E+00
0.00000000E+00  0.00000000E+00  0.00000000E+00
