Ta3N2  (n=2)
1.00000000000000
3.2769770390445365  0.0000000000000000  0.0000000000000000
-1.6384885195222683  2.8379453635803222  0.0000000000000000
-0.0000000000000001  0.0000000000000001  33.9876572357388653
Ta  N  Te
3  2  2
Selective  dynamics
Direct
0.0000000000000000  0.0000000000000000  0.0609834424787918  T  T  T
0.6666666666666643  0.3333333333333357  0.1322194285619643  T  T  T
0.3333333333333357  0.6666666666666643  0.2034554146451444  T  T  T
0.3333333333333357  0.6666666666666643  0.0968490106636442  T  T  T
-0.0000000000000000  0.0000000000000000  0.1675898464602843  T  T  T
0.3333333333333357  0.6666666666666643  0.0000000000000000  T  T  T
0.0000000000000000  0.0000000000000000  0.2644388571239362  T  T  T

0.00000000E+00  0.00000000E+00  0.00000000E+00
0.00000000E+00  0.00000000E+00  0.00000000E+00
0.00000000E+00  0.00000000E+00  0.00000000E+00
0.00000000E+00  0.00000000E+00  0.00000000E+00
0.00000000E+00  0.00000000E+00  0.00000000E+00
0.00000000E+00  0.00000000E+00  0.00000000E+00
0.00000000E+00  0.00000000E+00  0.00000000E+00
