Nb3C2  (n=2)
1.00000000000000
3.3464991431819335  -0.0000000000000001  -0.0000000000000000
-1.6732495715909668  2.8981532719344072  -0.0000000000000003
-0.0000000000000003  -0.0000000000000008  33.9726979344297035
Nb  C  Te
3  2  2
Selective  dynamics
Direct
-0.0000000000000000  -0.0000000000000000  0.0623866884893537  T  T  T
0.6666666666666643  0.3333333333333357  0.1320574826254277  T  T  T
0.3333333333333357  0.6666666666666643  0.2017282767615016  T  T  T
0.3333333333333357  0.6666666666666643  0.0941724666283587  T  T  T
0.0000000000000000  0.0000000000000000  0.1699424986224887  T  T  T
0.3333333333333357  0.6666666666666643  0.0000000000000000  T  T  T
0.0000000000000000  0.0000000000000000  0.2641149652508552  T  T  T

0.00000000E+00  0.00000000E+00  0.00000000E+00
0.00000000E+00  0.00000000E+00  0.00000000E+00
0.00000000E+00  0.00000000E+00  0.00000000E+00
0.00000000E+00  0.00000000E+00  0.00000000E+00
0.00000000E+00  0.00000000E+00  0.00000000E+00
0.00000000E+00  0.00000000E+00  0.00000000E+00
0.00000000E+00  0.00000000E+00  0.00000000E+00
