Hf3N2  (n=2)
1.00000000000000
3.3694468112461888  0.0000000000000000  0.0000000000000000
-1.6847234056230944  2.9180265354498958  0.0000000000000000
0.0000000000000000  0.0000000000000000  34.2387654521980025
Hf  N  Te
3  2  2
Selective  dynamics
Direct
-0.0000000000000000  0.0000000000000000  0.0626458401336389  T  T  T
0.6666666666666643  0.3333333333333357  0.1349644969983665  T  T  T
0.3333333333333357  0.6666666666666643  0.2072312408332946  T  T  T
0.3333333333333357  0.6666666666666643  0.0991778199232413  T  T  T
-0.0000000000000000  0.0000000000000000  0.1707113443617043  T  T  T
0.3333333333333357  0.6666666666666643  0.0000000000000000  T  T  T
0.0000000000000000  -0.0000000000000000  0.2698334864058280  T  T  T

0.00000000E+00  0.00000000E+00  0.00000000E+00
0.00000000E+00  0.00000000E+00  0.00000000E+00
0.00000000E+00  0.00000000E+00  0.00000000E+00
0.00000000E+00  0.00000000E+00  0.00000000E+00
0.00000000E+00  0.00000000E+00  0.00000000E+00
0.00000000E+00  0.00000000E+00  0.00000000E+00
0.00000000E+00  0.00000000E+00  0.00000000E+00
