Zr3N2  (n=2)
1.00000000000000
3.4134218419414113  0.0000000000000000  0.0000000000000000
-1.7067109209707056  2.9561100292574034  0.0000000000000000
-0.0000000000000003  -0.0000000000000008  34.3722371094990962
Zr  N  Te
3  2  2
Selective  dynamics
Direct
0.0000000000000000  0.0000000000000000  0.0633435115137904  T  T  T
0.6666666666666643  0.3333333333333357  0.1363344067428874  T  T  T
0.3333333333333357  0.6666666666666643  0.2093253019719921  T  T  T
0.3333333333333357  0.6666666666666643  0.0994493607391404  T  T  T
-0.0000000000000000  -0.0000000000000000  0.1732194527466420  T  T  T
0.3333333333333357  0.6666666666666643  0.0000000000000000  T  T  T
-0.0000000000000000  0.0000000000000000  0.2726688134857824  T  T  T

0.00000000E+00  0.00000000E+00  0.00000000E+00
0.00000000E+00  0.00000000E+00  0.00000000E+00
0.00000000E+00  0.00000000E+00  0.00000000E+00
0.00000000E+00  0.00000000E+00  0.00000000E+00
0.00000000E+00  0.00000000E+00  0.00000000E+00
0.00000000E+00  0.00000000E+00  0.00000000E+00
0.00000000E+00  0.00000000E+00  0.00000000E+00
