Mo3C2  (n=2)
1.00000000000000
3.2178451454420456  0.0000000000000000  0.0000000000000000
-1.6089225727210228  2.7867356415027054  -0.0000000000000001
0.0000000000000003  0.0000000000000008  33.9368694867075504
Mo  C  Te
3  2  2
Selective  dynamics
Direct
0.0000000000000000  -0.0000000000000000  0.0611474456213383  T  T  T
0.6666666666666643  0.3333333333333357  0.1316690316737587  T  T  T
0.3333333333333357  0.6666666666666643  0.2021906177261946  T  T  T
0.3333333333333357  0.6666666666666643  0.0936122004490541  T  T  T
-0.0000000000000000  -0.0000000000000000  0.1697258628984633  T  T  T
0.3333333333333357  0.6666666666666643  0.0000000000000000  T  T  T
0.0000000000000000  0.0000000000000000  0.2633380633475330  T  T  T

0.00000000E+00  0.00000000E+00  0.00000000E+00
0.00000000E+00  0.00000000E+00  0.00000000E+00
0.00000000E+00  0.00000000E+00  0.00000000E+00
0.00000000E+00  0.00000000E+00  0.00000000E+00
0.00000000E+00  0.00000000E+00  0.00000000E+00
0.00000000E+00  0.00000000E+00  0.00000000E+00
0.00000000E+00  0.00000000E+00  0.00000000E+00
