Cr3C2  (n=2)
1.00000000000000
3.1341388297874078  0.0000000000000000  -0.0000000000000001
-1.5670694148937039  2.7142438456022462  -0.0000000000000001
-0.0000000000000003  -0.0000000000000011  33.1518325824133271
Cr  C  Te
3  2  2
Selective  dynamics
Direct
0.0000000000000000  -0.0000000000000000  0.0617053201766033  T  T  T
0.6666666666666643  0.3333333333333357  0.1229469375810242  T  T  T
0.3333333333333357  0.6666666666666643  0.1841885549854528  T  T  T
0.3333333333333357  0.6666666666666643  0.0880730548002063  T  T  T
-0.0000000000000000  -0.0000000000000000  0.1578208203618419  T  T  T
0.3333333333333357  0.6666666666666643  0.0000000000000000  T  T  T
-0.0000000000000000  -0.0000000000000000  0.2458938751620561  T  T  T

0.00000000E+00  0.00000000E+00  0.00000000E+00
0.00000000E+00  0.00000000E+00  0.00000000E+00
0.00000000E+00  0.00000000E+00  0.00000000E+00
0.00000000E+00  0.00000000E+00  0.00000000E+00
0.00000000E+00  0.00000000E+00  0.00000000E+00
0.00000000E+00  0.00000000E+00  0.00000000E+00
0.00000000E+00  0.00000000E+00  0.00000000E+00
