Nb3N2  (n=2)
1.00000000000000
3.2922443051741666  -0.0000000000000000  -0.0000000000000000
-1.6461221525870833  2.8511672038313813  -0.0000000000000000
-0.0000000000000001  0.0000000000000001  34.0199081491343662
Nb  N  Te
3  2  2
Selective  dynamics
Direct
-0.0000000000000000  -0.0000000000000000  0.0609748928528903  T  T  T
0.6666666666666643  0.3333333333333357  0.1325680849811992  T  T  T
0.3333333333333357  0.6666666666666643  0.2041612771095166  T  T  T
0.3333333333333357  0.6666666666666643  0.0962639051048607  T  T  T
-0.0000000000000000  0.0000000000000000  0.1688722648575377  T  T  T
0.3333333333333357  0.6666666666666643  0.0000000000000000  T  T  T
0.0000000000000000  -0.0000000000000000  0.2651361699624071  T  T  T

0.00000000E+00  0.00000000E+00  0.00000000E+00
0.00000000E+00  0.00000000E+00  0.00000000E+00
0.00000000E+00  0.00000000E+00  0.00000000E+00
0.00000000E+00  0.00000000E+00  0.00000000E+00
0.00000000E+00  0.00000000E+00  0.00000000E+00
0.00000000E+00  0.00000000E+00  0.00000000E+00
0.00000000E+00  0.00000000E+00  0.00000000E+00
