Mo3N2  (n=2)
1.00000000000000
3.2595017588785553  0.0000000000000000  -0.0000000000000001
-1.6297508794392777  2.8228113269864430  0.0000000000000000
-0.0000000000000007  0.0000000000000010  33.6870954576404102
Mo  N  Te
3  2  2
Selective  dynamics
Direct
0.0000000000000000  -0.0000000000000000  0.0624867827743911  T  T  T
0.6666666666666643  0.3333333333333357  0.1289347813312021  T  T  T
0.3333333333333357  0.6666666666666643  0.1953892774684378  T  T  T
0.3333333333333357  0.6666666666666643  0.0928874974955703  T  T  T
0.0000000000000000  -0.0000000000000000  0.1649844238250136  T  T  T
0.3333333333333357  0.6666666666666643  0.0000000000000000  T  T  T
0.0000000000000000  0.0000000000000000  0.2578760602428289  T  T  T

0.00000000E+00  0.00000000E+00  0.00000000E+00
0.00000000E+00  0.00000000E+00  0.00000000E+00
0.00000000E+00  0.00000000E+00  0.00000000E+00
0.00000000E+00  0.00000000E+00  0.00000000E+00
0.00000000E+00  0.00000000E+00  0.00000000E+00
0.00000000E+00  0.00000000E+00  0.00000000E+00
0.00000000E+00  0.00000000E+00  0.00000000E+00
