Sc3C2  (n=2)
1.00000000000000
3.3278343351347774  0.0000000000000000  0.0000000000000000
-1.6639171675673887  2.8819890739930911  0.0000000000000000
-0.0000000000000001  0.0000000000000004  35.2945013080433370
Sc  C  Te
3  2  2
Selective  dynamics
Direct
0.0000000000000000  -0.0000000000000000  0.0727246640296634  T  T  T
0.6666666666666643  0.3333333333333357  0.1458371832228829  T  T  T
0.3333333333333357  0.6666666666666643  0.2189497024161179  T  T  T
0.3333333333333357  0.6666666666666643  0.1054173547907653  T  T  T
-0.0000000000000000  0.0000000000000000  0.1862570116550082  T  T  T
0.3333333333333357  0.6666666666666643  0.0000000000000000  T  T  T
0.0000000000000000  0.0000000000000000  0.2916743664457813  T  T  T

0.00000000E+00  0.00000000E+00  0.00000000E+00
0.00000000E+00  0.00000000E+00  0.00000000E+00
0.00000000E+00  0.00000000E+00  0.00000000E+00
0.00000000E+00  0.00000000E+00  0.00000000E+00
0.00000000E+00  0.00000000E+00  0.00000000E+00
0.00000000E+00  0.00000000E+00  0.00000000E+00
0.00000000E+00  0.00000000E+00  0.00000000E+00
