Cr3N2  (n=2)
1.00000000000000
3.0943390044431993  0.0000000000000000  0.0000000000000000
-1.5471695022215997  2.6797761857777629  0.0000000000000000
0.0000000000000000  0.0000000000000000  33.3765074685350243
Cr  N  Te
3  2  2
Selective  dynamics
Direct
0.0000000000000000  0.0000000000000000  0.0629009852169664  T  T  T
0.6666666666666643  0.3333333333333357  0.1254850807327765  T  T  T
0.3333333333333357  0.6666666666666643  0.1880691762486034  T  T  T
0.3333333333333357  0.6666666666666643  0.0902800820784502  T  T  T
0.0000000000000000  0.0000000000000000  0.1606900793871112  T  T  T
0.3333333333333357  0.6666666666666643  0.0000000000000000  T  T  T
0.0000000000000000  0.0000000000000000  0.2509701614655697  T  T  T

0.00000000E+00  0.00000000E+00  0.00000000E+00
0.00000000E+00  0.00000000E+00  0.00000000E+00
0.00000000E+00  0.00000000E+00  0.00000000E+00
0.00000000E+00  0.00000000E+00  0.00000000E+00
0.00000000E+00  0.00000000E+00  0.00000000E+00
0.00000000E+00  0.00000000E+00  0.00000000E+00
0.00000000E+00  0.00000000E+00  0.00000000E+00
