Zr3C2  (n=2)
1.00000000000000
3.4062487551848326  0.0000000000000000  -0.0000000000000001
-1.7031243775924163  2.9498979538772199  0.0000000000000001
-0.0000000000000004  -0.0000000000000011  34.8321053215852743
Zr  C  Te
3  2  2
Selective  dynamics
Direct
0.0000000000000000  0.0000000000000000  0.0667060752285624  T  T  T
0.6666666666666643  0.3333333333333357  0.1411356739825328  T  T  T
0.3333333333333357  0.6666666666666643  0.2155652727365109  T  T  T
0.3333333333333357  0.6666666666666643  0.1012965737798608  T  T  T
-0.0000000000000000  -0.0000000000000000  0.1809747741852124  T  T  T
0.3333333333333357  0.6666666666666643  0.0000000000000000  T  T  T
-0.0000000000000000  0.0000000000000000  0.2822713479650731  T  T  T

0.00000000E+00  0.00000000E+00  0.00000000E+00
0.00000000E+00  0.00000000E+00  0.00000000E+00
0.00000000E+00  0.00000000E+00  0.00000000E+00
0.00000000E+00  0.00000000E+00  0.00000000E+00
0.00000000E+00  0.00000000E+00  0.00000000E+00
0.00000000E+00  0.00000000E+00  0.00000000E+00
0.00000000E+00  0.00000000E+00  0.00000000E+00
