Ti3C2  (n=2)
1.00000000000000
3.1939151826886469  -0.0000000000000000  0.0000000000000000
-1.5969575913443232  2.7660116858241448  0.0000000000000001
0.0000000000000010  -0.0000000000000009  34.2149432880659532
Ti  C  Te
3  2  2
Selective  dynamics
Direct
0.0000000000000000  -0.0000000000000000  0.0667942649878875  T  T  T
0.6666666666666643  0.3333333333333357  0.1346625538800774  T  T  T
0.3333333333333357  0.6666666666666643  0.2025308427722754  T  T  T
0.3333333333333357  0.6666666666666643  0.0977836368208778  T  T  T
0.0000000000000000  0.0000000000000000  0.1715414709392690  T  T  T
0.3333333333333357  0.6666666666666643  0.0000000000000000  T  T  T
-0.0000000000000000  0.0000000000000000  0.2693251077601549  T  T  T

0.00000000E+00  0.00000000E+00  0.00000000E+00
0.00000000E+00  0.00000000E+00  0.00000000E+00
0.00000000E+00  0.00000000E+00  0.00000000E+00
0.00000000E+00  0.00000000E+00  0.00000000E+00
0.00000000E+00  0.00000000E+00  0.00000000E+00
0.00000000E+00  0.00000000E+00  0.00000000E+00
0.00000000E+00  0.00000000E+00  0.00000000E+00
