Cr4N3  (n=3)
1.00000000000000
2.6647497526498145  0.0000000000000000  0.0000000000000000
-1.3323748763249073  2.3077409805237115  0.0000000000000000
-0.0000000000000001  -0.0000000000000001  35.4775404436812565
Cr  N  F
4  3  2
Selective  dynamics
Direct
0.0000000000000000  -0.0000000000000000  0.0395054172253803  T  T  T
0.0000000000000000  -0.0000000000000000  0.1117928998475597  T  T  T
0.0000000000000000  -0.0000000000000000  0.1852359862868778  T  T  T
0.0000000000000000  -0.0000000000000000  0.2569263524422032  T  T  T
0.3333333333333357  0.6666666666666643  0.0740625924238799  T  T  T
0.3333333333333357  0.6666666666666643  0.1483527362569240  T  T  T
0.3333333333333357  0.6666666666666643  0.2221836253846981  T  T  T
0.3333333333333357  0.6666666666666643  0.0000000000000000  T  T  T
0.6666666666666643  0.3333333333333357  0.2953288281163066  T  T  T

0.00000000E+00  0.00000000E+00  0.00000000E+00
0.00000000E+00  0.00000000E+00  0.00000000E+00
0.00000000E+00  0.00000000E+00  0.00000000E+00
0.00000000E+00  0.00000000E+00  0.00000000E+00
0.00000000E+00  0.00000000E+00  0.00000000E+00
0.00000000E+00  0.00000000E+00  0.00000000E+00
0.00000000E+00  0.00000000E+00  0.00000000E+00
0.00000000E+00  0.00000000E+00  0.00000000E+00
0.00000000E+00  0.00000000E+00  0.00000000E+00
