Ta4C3  (n=3)
1.00000000000000
3.0105349963567680  0.0000000000000000  0.0000000000000000
-1.5052674981783838  2.6071997861523522  0.0000000000000000
-0.0000000000000002  0.0000000000000000  36.4765043758539491
Ta  C  F
4  3  2
Selective  dynamics
Direct
0.0000000000000000  -0.0000000000000000  0.0389450493273210  T  T  T
0.0000000000000000  -0.0000000000000000  0.1170379287381097  T  T  T
0.0000000000000000  -0.0000000000000000  0.1958918336925268  T  T  T
0.0000000000000000  -0.0000000000000000  0.2742701948533178  T  T  T
0.3333333333333357  0.6666666666666643  0.0755316958501994  T  T  T
0.3333333333333357  0.6666666666666643  0.1566246723472652  T  T  T
0.3333333333333357  0.6666666666666643  0.2376439768320522  T  T  T
0.3333333333333357  0.6666666666666643  0.0000000000000000  T  T  T
0.6666666666666643  0.3333333333333357  0.3146273079678916  T  T  T

0.00000000E+00  0.00000000E+00  0.00000000E+00
0.00000000E+00  0.00000000E+00  0.00000000E+00
0.00000000E+00  0.00000000E+00  0.00000000E+00
0.00000000E+00  0.00000000E+00  0.00000000E+00
0.00000000E+00  0.00000000E+00  0.00000000E+00
0.00000000E+00  0.00000000E+00  0.00000000E+00
0.00000000E+00  0.00000000E+00  0.00000000E+00
0.00000000E+00  0.00000000E+00  0.00000000E+00
0.00000000E+00  0.00000000E+00  0.00000000E+00
