Zr4C3  (n=3)
1.00000000000000
3.2549555727358115  0.0000000000000000  0.0000000000000000
-1.6274777863679060  2.8188742151543331  0.0000000000000000
0.0000000000000000  -0.0000000000000001  36.4163862070691238
Zr  C  F
4  3  2
Selective  dynamics
Direct
0.0000000000000000  0.0000000000000000  0.0388166738275967  T  T  T
0.0000000000000000  0.0000000000000000  0.1186450747478147  T  T  T
0.0000000000000000  0.0000000000000000  0.1970044204783934  T  T  T
0.0000000000000000  0.0000000000000000  0.2766865142094791  T  T  T
0.3333333333333357  0.6666666666666643  0.0742599990247164  T  T  T
0.3333333333333357  0.6666666666666643  0.1587394909731440  T  T  T
0.3333333333333357  0.6666666666666643  0.2431067298030082  T  T  T
0.3333333333333357  0.6666666666666643  0.0000000000000000  T  T  T
0.6666666666666643  0.3333333333333357  0.3134958571164589  T  T  T

0.00000000E+00  0.00000000E+00  0.00000000E+00
0.00000000E+00  0.00000000E+00  0.00000000E+00
0.00000000E+00  0.00000000E+00  0.00000000E+00
0.00000000E+00  0.00000000E+00  0.00000000E+00
0.00000000E+00  0.00000000E+00  0.00000000E+00
0.00000000E+00  0.00000000E+00  0.00000000E+00
0.00000000E+00  0.00000000E+00  0.00000000E+00
0.00000000E+00  0.00000000E+00  0.00000000E+00
0.00000000E+00  0.00000000E+00  0.00000000E+00
