Hf4C3  (n=3)
1.00000000000000
3.2097730628092083  0.0000000000000001  0.0000000000000000
-1.6048865314046041  2.7797450134970494  0.0000000000000000
0.0000000000000000  0.0000000000000000  36.2753793197795318
Hf  C  F
4  3  2
Selective  dynamics
Direct
0.0000000000000000  -0.0000000000000000  0.0390323722078922  T  T  T
0.0000000000000000  -0.0000000000000000  0.1180601144406491  T  T  T
0.0000000000000000  -0.0000000000000000  0.1953829511416113  T  T  T
0.0000000000000000  -0.0000000000000000  0.2739466293883703  T  T  T
0.3333333333333357  0.6666666666666643  0.0741286871539666  T  T  T
0.3333333333333357  0.6666666666666643  0.1578187976424252  T  T  T
0.3333333333333357  0.6666666666666643  0.2416362907134884  T  T  T
0.3333333333333357  0.6666666666666643  0.0000000000000000  T  T  T
0.6666666666666643  0.3333333333333357  0.3108273305809794  T  T  T

0.00000000E+00  0.00000000E+00  0.00000000E+00
0.00000000E+00  0.00000000E+00  0.00000000E+00
0.00000000E+00  0.00000000E+00  0.00000000E+00
0.00000000E+00  0.00000000E+00  0.00000000E+00
0.00000000E+00  0.00000000E+00  0.00000000E+00
0.00000000E+00  0.00000000E+00  0.00000000E+00
0.00000000E+00  0.00000000E+00  0.00000000E+00
0.00000000E+00  0.00000000E+00  0.00000000E+00
0.00000000E+00  0.00000000E+00  0.00000000E+00
