Mo4N3  (n=3)
1.00000000000000
2.8356612359269766  0.0000000000000001  0.0000000000000000
-1.4178306179634883  2.4557546669122425  0.0000000000000000
0.0000000000000000  0.0000000000000000  36.6586350414031443
Mo  N  F
4  3  2
Selective  dynamics
Direct
-0.0000000000000000  -0.0000000000000000  0.0433400618768498  T  T  T
-0.0000000000000000  -0.0000000000000000  0.1200610787998385  T  T  T
-0.0000000000000000  -0.0000000000000000  0.1994796238540864  T  T  T
-0.0000000000000000  -0.0000000000000000  0.2762893943091794  T  T  T
0.3333333333333357  0.6666666666666643  0.0801035362487521  T  T  T
0.3333333333333357  0.6666666666666643  0.1603347443191543  T  T  T
0.3333333333333357  0.6666666666666643  0.2387470549610224  T  T  T
0.3333333333333357  0.6666666666666643  0.0000000000000000  T  T  T
0.6666666666666643  0.3333333333333357  0.3180324370570699  T  T  T

0.00000000E+00  0.00000000E+00  0.00000000E+00
0.00000000E+00  0.00000000E+00  0.00000000E+00
0.00000000E+00  0.00000000E+00  0.00000000E+00
0.00000000E+00  0.00000000E+00  0.00000000E+00
0.00000000E+00  0.00000000E+00  0.00000000E+00
0.00000000E+00  0.00000000E+00  0.00000000E+00
0.00000000E+00  0.00000000E+00  0.00000000E+00
0.00000000E+00  0.00000000E+00  0.00000000E+00
0.00000000E+00  0.00000000E+00  0.00000000E+00
