Zr4N3  (n=3)
1.00000000000000
3.1064087689818880  0.0000000000000001  0.0000000000000000
-1.5532043844909442  2.6902289088076365  0.0000000000000000
0.0000000000000000  0.0000000000000004  36.6491521529248345
Zr  N  F
4  3  2
Selective  dynamics
Direct
-0.0000000000000000  0.0000000000000000  0.0382437552270662  T  T  T
-0.0000000000000000  0.0000000000000000  0.1180643736004049  T  T  T
-0.0000000000000000  0.0000000000000000  0.1987814552960904  T  T  T
-0.0000000000000000  0.0000000000000000  0.2791912074979199  T  T  T
0.3333333333333357  0.6666666666666643  0.0768248194073336  T  T  T
0.3333333333333357  0.6666666666666643  0.1585976059936250  T  T  T
0.3333333333333357  0.6666666666666643  0.2400131959007770  T  T  T
0.3333333333333357  0.6666666666666643  0.0000000000000000  T  T  T
0.6666666666666643  0.3333333333333357  0.3178559794321233  T  T  T

0.00000000E+00  0.00000000E+00  0.00000000E+00
0.00000000E+00  0.00000000E+00  0.00000000E+00
0.00000000E+00  0.00000000E+00  0.00000000E+00
0.00000000E+00  0.00000000E+00  0.00000000E+00
0.00000000E+00  0.00000000E+00  0.00000000E+00
0.00000000E+00  0.00000000E+00  0.00000000E+00
0.00000000E+00  0.00000000E+00  0.00000000E+00
0.00000000E+00  0.00000000E+00  0.00000000E+00
0.00000000E+00  0.00000000E+00  0.00000000E+00
