Ta4N3  (n=3)
1.00000000000000
2.9039115321343627  -0.0000000000000003  0.0000000000000000
-1.4519557660671814  2.5148611573211967  0.0000000000000000
-0.0000000000000004  -0.0000000000000005  36.7792608280428936
Ta  N  F
4  3  2
Selective  dynamics
Direct
-0.0000000000000000  -0.0000000000000000  0.0404415229105707  T  T  T
-0.0000000000000000  -0.0000000000000000  0.1197242408213964  T  T  T
-0.0000000000000000  -0.0000000000000000  0.1991813272700405  T  T  T
-0.0000000000000000  -0.0000000000000000  0.2790493756704039  T  T  T
0.3333333333333357  0.6666666666666643  0.0793933636875189  T  T  T
0.3333333333333357  0.6666666666666643  0.1589857745207010  T  T  T
0.3333333333333357  0.6666666666666643  0.2380361430917382  T  T  T
0.3333333333333357  0.6666666666666643  0.0000000000000000  T  T  T
0.6666666666666643  0.3333333333333357  0.3202691017395766  T  T  T

0.00000000E+00  0.00000000E+00  0.00000000E+00
0.00000000E+00  0.00000000E+00  0.00000000E+00
0.00000000E+00  0.00000000E+00  0.00000000E+00
0.00000000E+00  0.00000000E+00  0.00000000E+00
0.00000000E+00  0.00000000E+00  0.00000000E+00
0.00000000E+00  0.00000000E+00  0.00000000E+00
0.00000000E+00  0.00000000E+00  0.00000000E+00
0.00000000E+00  0.00000000E+00  0.00000000E+00
0.00000000E+00  0.00000000E+00  0.00000000E+00
