Nb4C3  (n=3)
1.00000000000000
3.0276436972685992  0.0000000000000000  0.0000000000000000
-1.5138218486342998  2.6220163556673466  0.0000000000000000
0.0000000000000001  0.0000000000000000  36.4780469438586366
Nb  C  F
4  3  2
Selective  dynamics
Direct
-0.0000000000000000  -0.0000000000000000  0.0385980554027844  T  T  T
-0.0000000000000000  -0.0000000000000000  0.1170009987521176  T  T  T
-0.0000000000000000  0.0000000000000000  0.1963051643487267  T  T  T
-0.0000000000000000  -0.0000000000000000  0.2748284362069077  T  T  T
0.3333333333333357  0.6666666666666643  0.0752339598941813  T  T  T
0.3333333333333357  0.6666666666666643  0.1569077667281960  T  T  T
0.3333333333333357  0.6666666666666643  0.2378440242840967  T  T  T
0.3333333333333357  0.6666666666666643  0.0000000000000000  T  T  T
0.6666666666666643  0.3333333333333357  0.3146562907143541  T  T  T

0.00000000E+00  0.00000000E+00  0.00000000E+00
0.00000000E+00  0.00000000E+00  0.00000000E+00
0.00000000E+00  0.00000000E+00  0.00000000E+00
0.00000000E+00  0.00000000E+00  0.00000000E+00
0.00000000E+00  0.00000000E+00  0.00000000E+00
0.00000000E+00  0.00000000E+00  0.00000000E+00
0.00000000E+00  0.00000000E+00  0.00000000E+00
0.00000000E+00  0.00000000E+00  0.00000000E+00
0.00000000E+00  0.00000000E+00  0.00000000E+00
