Cr4C3  (n=3)
1.00000000000000
2.6818345500950898  0.0000000000000000  0.0000000000000000
-1.3409172750475449  2.3225368491200253  0.0000000000000000
-0.0000000000000002  0.0000000000000001  35.5147942408210895
Cr  C  F
4  3  2
Selective  dynamics
Direct
-0.0000000000000000  -0.0000000000000000  0.0379716332872603  T  T  T
-0.0000000000000000  -0.0000000000000000  0.1112725780170625  T  T  T
-0.0000000000000000  -0.0000000000000000  0.1853771207529702  T  T  T
-0.0000000000000000  -0.0000000000000000  0.2582051073801792  T  T  T
0.3333333333333357  0.6666666666666643  0.0731800353800026  T  T  T
0.3333333333333357  0.6666666666666643  0.1478209749999351  T  T  T
0.3333333333333357  0.6666666666666643  0.2223490882288350  T  T  T
0.3333333333333357  0.6666666666666643  0.0000000000000000  T  T  T
0.6666666666666643  0.3333333333333357  0.2960680039287760  T  T  T

0.00000000E+00  0.00000000E+00  0.00000000E+00
0.00000000E+00  0.00000000E+00  0.00000000E+00
0.00000000E+00  0.00000000E+00  0.00000000E+00
0.00000000E+00  0.00000000E+00  0.00000000E+00
0.00000000E+00  0.00000000E+00  0.00000000E+00
0.00000000E+00  0.00000000E+00  0.00000000E+00
0.00000000E+00  0.00000000E+00  0.00000000E+00
0.00000000E+00  0.00000000E+00  0.00000000E+00
0.00000000E+00  0.00000000E+00  0.00000000E+00
