Sc4C3  (n=3)
1.00000000000000
3.3038046412549900  -0.0000000000000001  0.0000000000000000
-1.6519023206274950  2.8611787485094324  0.0000000000000000
0.0000000000000000  0.0000000000000000  35.4678591012373658
Sc  C  F
4  3  2
Selective  dynamics
Direct
0.0000000000000000  0.0000000000000000  0.0344248249699544  T  T  T
0.0000000000000000  0.0000000000000000  0.1113052853262790  T  T  T
0.0000000000000000  0.0000000000000000  0.1872427627398926  T  T  T
0.0000000000000000  -0.0000000000000000  0.2637023004268200  T  T  T
0.3333333333333357  0.6666666666666643  0.0724312352194263  T  T  T
0.3333333333333357  0.6666666666666643  0.1467695451085000  T  T  T
0.3333333333333357  0.6666666666666643  0.2263551547110911  T  T  T
0.3333333333333357  0.6666666666666643  0.0000000000000000  T  T  T
0.6666666666666643  0.3333333333333357  0.2951364803654635  T  T  T

0.00000000E+00  0.00000000E+00  0.00000000E+00
0.00000000E+00  0.00000000E+00  0.00000000E+00
0.00000000E+00  0.00000000E+00  0.00000000E+00
0.00000000E+00  0.00000000E+00  0.00000000E+00
0.00000000E+00  0.00000000E+00  0.00000000E+00
0.00000000E+00  0.00000000E+00  0.00000000E+00
0.00000000E+00  0.00000000E+00  0.00000000E+00
0.00000000E+00  0.00000000E+00  0.00000000E+00
0.00000000E+00  0.00000000E+00  0.00000000E+00
