Hf4N3  (n=3)
1.00000000000000
3.0452325082548235  -0.0000000000000003  0.0000000000000000
-1.5226162541274120  2.6372487128026103  0.0000000000000000
0.0000000000000001  -0.0000000000000005  36.5701553170018556
Hf  N  F
4  3  2
Selective  dynamics
Direct
-0.0000000000000000  0.0000000000000000  0.0383962585983689  T  T  T
-0.0000000000000000  -0.0000000000000000  0.1177502634878852  T  T  T
-0.0000000000000000  -0.0000000000000000  0.1978141235274794  T  T  T
-0.0000000000000000  -0.0000000000000000  0.2776587153777066  T  T  T
0.3333333333333357  0.6666666666666643  0.0771279139645634  T  T  T
0.3333333333333357  0.6666666666666643  0.1577926930705777  T  T  T
0.3333333333333357  0.6666666666666643  0.2389142081783053  T  T  T
0.3333333333333357  0.6666666666666643  0.0000000000000000  T  T  T
0.6666666666666643  0.3333333333333357  0.3163824494784895  T  T  T

0.00000000E+00  0.00000000E+00  0.00000000E+00
0.00000000E+00  0.00000000E+00  0.00000000E+00
0.00000000E+00  0.00000000E+00  0.00000000E+00
0.00000000E+00  0.00000000E+00  0.00000000E+00
0.00000000E+00  0.00000000E+00  0.00000000E+00
0.00000000E+00  0.00000000E+00  0.00000000E+00
0.00000000E+00  0.00000000E+00  0.00000000E+00
0.00000000E+00  0.00000000E+00  0.00000000E+00
0.00000000E+00  0.00000000E+00  0.00000000E+00
