Sc4N3  (n=3)
1.00000000000000
3.1007532664839346  0.0000000000000001  0.0000000000000000
-1.5503766332419668  2.6853310997902087  0.0000000000000000
0.0000000000000000  -0.0000000000000002  35.8233897795826195
Sc  N  F
4  3  2
Selective  dynamics
Direct
0.0000000000000000  -0.0000000000000000  0.0366379735801428  T  T  T
0.0000000000000000  -0.0000000000000000  0.1144306750721955  T  T  T
0.0000000000000000  -0.0000000000000000  0.1908123604659025  T  T  T
0.0000000000000000  -0.0000000000000000  0.2680456886029303  T  T  T
0.3333333333333357  0.6666666666666643  0.0722192140362457  T  T  T
0.3333333333333357  0.6666666666666643  0.1534828318729702  T  T  T
0.3333333333333357  0.6666666666666643  0.2350749105132141  T  T  T
0.3333333333333357  0.6666666666666643  0.0000000000000000  T  T  T
0.6666666666666643  0.3333333333333357  0.3021319268270744  T  T  T

0.00000000E+00  0.00000000E+00  0.00000000E+00
0.00000000E+00  0.00000000E+00  0.00000000E+00
0.00000000E+00  0.00000000E+00  0.00000000E+00
0.00000000E+00  0.00000000E+00  0.00000000E+00
0.00000000E+00  0.00000000E+00  0.00000000E+00
0.00000000E+00  0.00000000E+00  0.00000000E+00
0.00000000E+00  0.00000000E+00  0.00000000E+00
0.00000000E+00  0.00000000E+00  0.00000000E+00
0.00000000E+00  0.00000000E+00  0.00000000E+00
