Ti4C3  (n=3)
1.00000000000000
3.0023907955730520  0.0000000000000001  0.0000000000000000
-1.5011953977865260  2.6001467011506985  0.0000000000000000
0.0000000000000000  0.0000000000000000  35.5480552049086995
Ti  C  F
4  3  2
Selective  dynamics
Direct
-0.0000000000000000  0.0000000000000000  0.0374695135617542  T  T  T
-0.0000000000000000  0.0000000000000000  0.1126347362675668  T  T  T
-0.0000000000000000  0.0000000000000000  0.1867852938527824  T  T  T
-0.0000000000000000  -0.0000000000000000  0.2615414016264198  T  T  T
0.3333333333333357  0.6666666666666643  0.0716411477749292  T  T  T
0.3333333333333357  0.6666666666666643  0.1504305709635206  T  T  T
0.3333333333333357  0.6666666666666643  0.2290718410887340  T  T  T
0.3333333333333357  0.6666666666666643  0.0000000000000000  T  T  T
0.6666666666666643  0.3333333333333357  0.2967266463413210  T  T  T

0.00000000E+00  0.00000000E+00  0.00000000E+00
0.00000000E+00  0.00000000E+00  0.00000000E+00
0.00000000E+00  0.00000000E+00  0.00000000E+00
0.00000000E+00  0.00000000E+00  0.00000000E+00
0.00000000E+00  0.00000000E+00  0.00000000E+00
0.00000000E+00  0.00000000E+00  0.00000000E+00
0.00000000E+00  0.00000000E+00  0.00000000E+00
0.00000000E+00  0.00000000E+00  0.00000000E+00
0.00000000E+00  0.00000000E+00  0.00000000E+00
