Ti4N3  (n=3)
1.00000000000000
2.8739435459231180  0.0000000000000002  0.0000000000000000
-1.4369717729615590  2.4889081198359513  0.0000000000000000
-0.0000000000000001  0.0000000000000000  35.6756664505211702
Ti  N  F
4  3  2
Selective  dynamics
Direct
-0.0000000000000000  -0.0000000000000000  0.0367336302087339  T  T  T
-0.0000000000000000  -0.0000000000000000  0.1118057617721012  T  T  T
-0.0000000000000000  -0.0000000000000000  0.1875665417222924  T  T  T
-0.0000000000000000  -0.0000000000000000  0.2626653836825076  T  T  T
0.3333333333333357  0.6666666666666643  0.0727614293639919  T  T  T
0.3333333333333357  0.6666666666666643  0.1497906400360737  T  T  T
0.3333333333333357  0.6666666666666643  0.2273423358736295  T  T  T
0.3333333333333357  0.6666666666666643  0.0000000000000000  T  T  T
0.6666666666666643  0.3333333333333357  0.2992422430377671  T  T  T

0.00000000E+00  0.00000000E+00  0.00000000E+00
0.00000000E+00  0.00000000E+00  0.00000000E+00
0.00000000E+00  0.00000000E+00  0.00000000E+00
0.00000000E+00  0.00000000E+00  0.00000000E+00
0.00000000E+00  0.00000000E+00  0.00000000E+00
0.00000000E+00  0.00000000E+00  0.00000000E+00
0.00000000E+00  0.00000000E+00  0.00000000E+00
0.00000000E+00  0.00000000E+00  0.00000000E+00
0.00000000E+00  0.00000000E+00  0.00000000E+00
