Mo4C3  (n=3)
1.00000000000000
2.8916932254133498  0.0000000000000000  0.0000000000000000
-1.4458466127066749  2.5042797932813241  0.0000000000000000
0.0000000000000004  0.0000000000000006  36.4281504897417037
Mo  C  F
4  3  2
Selective  dynamics
Direct
-0.0000000000000000  -0.0000000000000000  0.0407065367703456  T  T  T
-0.0000000000000000  -0.0000000000000000  0.1178786793282384  T  T  T
-0.0000000000000000  -0.0000000000000000  0.1961671439093943  T  T  T
-0.0000000000000000  -0.0000000000000000  0.2729193970434110  T  T  T
0.3333333333333357  0.6666666666666643  0.0776460669143696  T  T  T
0.3333333333333357  0.6666666666666643  0.1563840825681890  T  T  T
0.3333333333333357  0.6666666666666643  0.2348498093260968  T  T  T
0.3333333333333357  0.6666666666666643  0.0000000000000000  T  T  T
0.6666666666666643  0.3333333333333357  0.3137175600765104  T  T  T

0.00000000E+00  0.00000000E+00  0.00000000E+00
0.00000000E+00  0.00000000E+00  0.00000000E+00
0.00000000E+00  0.00000000E+00  0.00000000E+00
0.00000000E+00  0.00000000E+00  0.00000000E+00
0.00000000E+00  0.00000000E+00  0.00000000E+00
0.00000000E+00  0.00000000E+00  0.00000000E+00
0.00000000E+00  0.00000000E+00  0.00000000E+00
0.00000000E+00  0.00000000E+00  0.00000000E+00
0.00000000E+00  0.00000000E+00  0.00000000E+00
