Nb4N3  (n=3)
1.00000000000000
2.9277793955508269  0.0000000000000000  0.0000000000000000
-1.4638896977754134  2.5355313334116834  0.0000000000000000
0.0000000000000000  -0.0000000000000002  36.7126135432082563
Nb  N  F
4  3  2
Selective  dynamics
Direct
0.0000000000000000  0.0000000000000000  0.0395925742402473  T  T  T
0.0000000000000000  0.0000000000000000  0.1189469304807274  T  T  T
0.0000000000000000  0.0000000000000000  0.1985853234924351  T  T  T
0.0000000000000000  0.0000000000000000  0.2783917756732255  T  T  T
0.3333333333333357  0.6666666666666643  0.0783088358957034  T  T  T
0.3333333333333357  0.6666666666666643  0.1582499272863815  T  T  T
0.3333333333333357  0.6666666666666643  0.2375345270977262  T  T  T
0.3333333333333357  0.6666666666666643  0.0000000000000000  T  T  T
0.6666666666666643  0.3333333333333357  0.3190351329638600  T  T  T

0.00000000E+00  0.00000000E+00  0.00000000E+00
0.00000000E+00  0.00000000E+00  0.00000000E+00
0.00000000E+00  0.00000000E+00  0.00000000E+00
0.00000000E+00  0.00000000E+00  0.00000000E+00
0.00000000E+00  0.00000000E+00  0.00000000E+00
0.00000000E+00  0.00000000E+00  0.00000000E+00
0.00000000E+00  0.00000000E+00  0.00000000E+00
0.00000000E+00  0.00000000E+00  0.00000000E+00
0.00000000E+00  0.00000000E+00  0.00000000E+00
