Nb2N  (n=1)
1.00000000000000
2.9873681709166875  0.0000000000000000  0.0000000000000000
-1.4936840854583437  2.5871367265206571  0.0000000000000000
0.0000000000000000  -0.0000000000000001  30.0156552125060934
Nb  N  H
2  1  2
Selective  dynamics
Direct
-0.0000000000000000  -0.0000000000000000  0.0386680521842185  T  T  T
0.6666666666666643  0.3333333333333357  0.1284332546836823  T  T  T
0.3333333333333357  0.6666666666666643  0.0835506534339504  T  T  T
0.3333333333333357  0.6666666666666643  0.0000000000000000  T  T  T
0.3333333333333357  0.6666666666666643  0.1671013068679010  T  T  T

0.00000000E+00  0.00000000E+00  0.00000000E+00
0.00000000E+00  0.00000000E+00  0.00000000E+00
0.00000000E+00  0.00000000E+00  0.00000000E+00
0.00000000E+00  0.00000000E+00  0.00000000E+00
0.00000000E+00  0.00000000E+00  0.00000000E+00
