Hf2N  (n=1)
1.00000000000000
3.1022652006384246  -0.0000000000000004  0.0000000000000000
-1.5511326003192127  2.6866404730875750  0.0000000000000000
-0.0000000000000003  0.0000000000000002  30.0123336491872408
Hf  N  H
2  1  2
Selective  dynamics
Direct
0.0000000000000000  0.0000000000000000  0.0391393036415479  T  T  T
0.6666666666666643  0.3333333333333357  0.1278698235984870  T  T  T
0.3333333333333357  0.6666666666666643  0.0835045636200175  T  T  T
0.3333333333333357  0.6666666666666643  0.0000000000000000  T  T  T
0.3333333333333357  0.6666666666666643  0.1670091272400266  T  T  T

0.00000000E+00  0.00000000E+00  0.00000000E+00
0.00000000E+00  0.00000000E+00  0.00000000E+00
0.00000000E+00  0.00000000E+00  0.00000000E+00
0.00000000E+00  0.00000000E+00  0.00000000E+00
0.00000000E+00  0.00000000E+00  0.00000000E+00
