Mo2N  (n=1)
1.00000000000000
2.7976058052200563  -0.0000000000000001  0.0000000000000001
-1.3988029026100279  2.4227976971485110  -0.0000000000000002
0.0000000000000000  -0.0000000000000019  30.2478113690206385
Mo  N  H
2  1  2
Selective  dynamics
Direct
-0.0000000000000000  -0.0000000000000000  0.0383218577445376  T  T  T
0.6666666666666643  0.3333333333333357  0.1351720623608892  T  T  T
0.3333333333333357  0.6666666666666643  0.0867469600527134  T  T  T
0.3333333333333357  0.6666666666666643  0.0000000000000000  T  T  T
0.3333333333333357  0.6666666666666643  0.1734939201054186  T  T  T

0.00000000E+00  0.00000000E+00  0.00000000E+00
0.00000000E+00  0.00000000E+00  0.00000000E+00
0.00000000E+00  0.00000000E+00  0.00000000E+00
0.00000000E+00  0.00000000E+00  0.00000000E+00
0.00000000E+00  0.00000000E+00  0.00000000E+00
