Zr2C  (n=1)
1.00000000000000
3.2418059286767913  -0.0000000000000006  0.0000000000000003
-1.6209029643383959  2.8074862884467748  0.0000000000000000
-0.0000000000000004  -0.0000000000000018  30.0000769291797695
Zr  C  H
2  1  2
Selective  dynamics
Direct
-0.0000000000000000  0.0000000000000000  0.0395589551705147  T  T  T
0.6666666666666643  0.3333333333333357  0.1271098484123325  T  T  T
0.3333333333333357  0.6666666666666643  0.0833344017914237  T  T  T
0.3333333333333357  0.6666666666666643  0.0000000000000000  T  T  T
0.3333333333333357  0.6666666666666643  0.1666688035828472  T  T  T

0.00000000E+00  0.00000000E+00  0.00000000E+00
0.00000000E+00  0.00000000E+00  0.00000000E+00
0.00000000E+00  0.00000000E+00  0.00000000E+00
0.00000000E+00  0.00000000E+00  0.00000000E+00
0.00000000E+00  0.00000000E+00  0.00000000E+00
