Nb2C  (n=1)
1.00000000000000
3.0424149308341475  0.0000000000000000  0.0000000000000000
-1.5212074654170737  2.6348086190202764  0.0000000000000001
-0.0000000000000003  0.0000000000000002  29.9017023371213391
Nb  C  H
2  1  2
Selective  dynamics
Direct
0.0000000000000000  0.0000000000000000  0.0386602345451640  T  T  T
0.6666666666666643  0.3333333333333357  0.1252669653800439  T  T  T
0.3333333333333357  0.6666666666666643  0.0819635999625996  T  T  T
0.3333333333333357  0.6666666666666643  0.0000000000000000  T  T  T
0.3333333333333357  0.6666666666666643  0.1639271999252077  T  T  T

0.00000000E+00  0.00000000E+00  0.00000000E+00
0.00000000E+00  0.00000000E+00  0.00000000E+00
0.00000000E+00  0.00000000E+00  0.00000000E+00
0.00000000E+00  0.00000000E+00  0.00000000E+00
0.00000000E+00  0.00000000E+00  0.00000000E+00
