Sc2N
1.00000000000000
3.1188361125450750  0.0000000000000000  0.0000000000000002
-1.5594180562725375  2.7009913037508984  0.0000000000000000
0.0000000000000000  0.0000000000000008  29.9251759156412938
Sc  N  H
2  1  2
Selective  dynamics
Direct
0.0000000000000000  0.0000000000000000  0.0392771210327833  T  T  T
0.6666666666666643  0.3333333333333357  0.1253059019551285  T  T  T
0.3333333333333357  0.6666666666666643  0.0822915114939559  T  T  T
0.3333333333333357  0.6666666666666643  0.0000000000000000  T  T  T
0.3333333333333357  0.6666666666666643  0.1645830229879117  T  T  T

0.00000000E+00  0.00000000E+00  0.00000000E+00
0.00000000E+00  0.00000000E+00  0.00000000E+00
0.00000000E+00  0.00000000E+00  0.00000000E+00
0.00000000E+00  0.00000000E+00  0.00000000E+00
0.00000000E+00  0.00000000E+00  0.00000000E+00
