Zr2N  (n=1)
1.00000000000000
3.1662779276420436  0.0000000000000003  -0.0000000000000001
-1.5831389638210220  2.7420771208445403  0.0000000000000002
0.0000000000000005  0.0000000000000007  30.0584876920710506
Zr  N  H
2  1  2
Selective  dynamics
Direct
0.0000000000000000  0.0000000000000000  0.0395010185598572  T  T  T
0.6666666666666643  0.3333333333333357  0.1287871449662688  T  T  T
0.3333333333333357  0.6666666666666643  0.0841440817630588  T  T  T
0.3333333333333357  0.6666666666666643  0.0000000000000000  T  T  T
0.3333333333333357  0.6666666666666643  0.1682881635261178  T  T  T

0.00000000E+00  0.00000000E+00  0.00000000E+00
0.00000000E+00  0.00000000E+00  0.00000000E+00
0.00000000E+00  0.00000000E+00  0.00000000E+00
0.00000000E+00  0.00000000E+00  0.00000000E+00
0.00000000E+00  0.00000000E+00  0.00000000E+00
