Ta2C  (n=1)
1.00000000000000
3.0091777486326809  -0.0000000000000001  0.0000000000000002
-1.5045888743163405  2.6060243748724967  -0.0000000000000007
0.0000000000000012  -0.0000000000000012  29.9592128584010702
Ta  C  H
2  1  2
Selective  dynamics
Direct
0.0000000000000000  -0.0000000000000000  0.0390217615887500  T  T  T
0.6666666666666643  0.3333333333333357  0.1265103864633448  T  T  T
0.3333333333333357  0.6666666666666643  0.0827660740260473  T  T  T
0.3333333333333357  0.6666666666666643  0.0000000000000000  T  T  T
0.3333333333333357  0.6666666666666643  0.1655321480520948  T  T  T

0.00000000E+00  0.00000000E+00  0.00000000E+00
0.00000000E+00  0.00000000E+00  0.00000000E+00
0.00000000E+00  0.00000000E+00  0.00000000E+00
0.00000000E+00  0.00000000E+00  0.00000000E+00
0.00000000E+00  0.00000000E+00  0.00000000E+00
