Hf2C  (n=1)
1.00000000000000
3.1865424564634051  0.0000000000000004  0.0000000000000001
-1.5932712282317023  2.7596267176040064  -0.0000000000000001
0.0000000000000004  -0.0000000000000023  29.9496849571556787
Hf  C  H
2  1  2
Selective  dynamics
Direct
-0.0000000000000000  -0.0000000000000000  0.0394540622211443  T  T  T
0.6666666666666643  0.3333333333333357  0.1258126163511569  T  T  T
0.3333333333333357  0.6666666666666643  0.0826333392861505  T  T  T
0.3333333333333357  0.6666666666666643  0.0000000000000000  T  T  T
0.3333333333333357  0.6666666666666643  0.1652666785722928  T  T  T

0.00000000E+00  0.00000000E+00  0.00000000E+00
0.00000000E+00  0.00000000E+00  0.00000000E+00
0.00000000E+00  0.00000000E+00  0.00000000E+00
0.00000000E+00  0.00000000E+00  0.00000000E+00
0.00000000E+00  0.00000000E+00  0.00000000E+00
