Cr2N  (n=1)
1.00000000000000
2.6401785879480810  0.0000000000000000  0.0000000000000000
-1.3200892939740405  2.2864617277172452  0.0000000000000000
0.0000000000000000  0.0000000000000000  29.7308392991413655
Cr  N  H
2  1  2
Selective  dynamics
Direct
-0.0000000000000000  -0.0000000000000000  0.0363487689453776  T  T  T
0.6666666666666643  0.3333333333333357  0.1227735232826117  T  T  T
0.3333333333333357  0.6666666666666643  0.0795611461139904  T  T  T
0.3333333333333357  0.6666666666666643  0.0000000000000000  T  T  T
0.3333333333333357  0.6666666666666643  0.1591222922279895  T  T  T

0.00000000E+00  0.00000000E+00  0.00000000E+00
0.00000000E+00  0.00000000E+00  0.00000000E+00
0.00000000E+00  0.00000000E+00  0.00000000E+00
0.00000000E+00  0.00000000E+00  0.00000000E+00
0.00000000E+00  0.00000000E+00  0.00000000E+00
