Ti2N  (n=1)
1.00000000000000
2.8918859067877620  0.0000000000000000  0.0000000000000000
-1.4459429533938810  2.5044466601561006  0.0000000000000000
-0.0000000000000002  0.0000000000000000  29.7318363204370364
Ti  N  H
2  1  2
Selective  dynamics
Direct
-0.0000000000000000  -0.0000000000000000  0.0382243526982212  T  T  T
0.6666666666666643  0.3333333333333357  0.1209261373502011  T  T  T
0.3333333333333357  0.6666666666666643  0.0795752450242112  T  T  T
0.3333333333333357  0.6666666666666643  0.0000000000000000  T  T  T
0.3333333333333357  0.6666666666666643  0.1591504900484224  T  T  T

0.00000000E+00  0.00000000E+00  0.00000000E+00
0.00000000E+00  0.00000000E+00  0.00000000E+00
0.00000000E+00  0.00000000E+00  0.00000000E+00
0.00000000E+00  0.00000000E+00  0.00000000E+00
0.00000000E+00  0.00000000E+00  0.00000000E+00
