Mo2C  (n=1)
1.00000000000000
2.9705715670738186  0.0000000000000000  0.0000000000000000
-1.4852857835369093  2.5725904408966849  0.0000000000000000
0.0000000000000001  0.0000000000000003  29.7577937179959449
Mo  C  H
2  1  2
Selective  dynamics
Direct
0.0000000000000000  0.0000000000000000  0.0392008638927638  T  T  T
0.6666666666666643  0.3333333333333357  0.1206830899743766  T  T  T
0.3333333333333357  0.6666666666666643  0.0799419769335701  T  T  T
0.3333333333333357  0.6666666666666643  0.0000000000000000  T  T  T
0.3333333333333357  0.6666666666666643  0.1598839538671404  T  T  T

0.00000000E+00  0.00000000E+00  0.00000000E+00
0.00000000E+00  0.00000000E+00  0.00000000E+00
0.00000000E+00  0.00000000E+00  0.00000000E+00
0.00000000E+00  0.00000000E+00  0.00000000E+00
0.00000000E+00  0.00000000E+00  0.00000000E+00
