Sc2C  (n=1)
1.00000000000000
3.2080901233648413  0.0000000000000000  0.0000000000000000
-1.6040450616824207  2.7782875445401300  0.0000000000000000
0.0000000000000004  0.0000000000000000  29.9692243031914138
Sc  C  H
2  1  2
Selective  dynamics
Direct
-0.0000000000000000  0.0000000000000000  0.0394692814473558  T  T  T
0.6666666666666643  0.3333333333333357  0.1263416268670861  T  T  T
0.3333333333333357  0.6666666666666643  0.0829054541572253  T  T  T
0.3333333333333357  0.6666666666666643  0.0000000000000000  T  T  T
0.3333333333333357  0.6666666666666643  0.1658109083144419  T  T  T

0.00000000E+00  0.00000000E+00  0.00000000E+00
0.00000000E+00  0.00000000E+00  0.00000000E+00
0.00000000E+00  0.00000000E+00  0.00000000E+00
0.00000000E+00  0.00000000E+00  0.00000000E+00
0.00000000E+00  0.00000000E+00  0.00000000E+00
