Ti2C  (n=1)
1.00000000000000
2.9721293323789766  0.0000000000000000  0.0000000000000000
-1.4860646661894883  2.5739395052146805  0.0000000000000000
0.0000000000000001  0.0000000000000000  29.6563659256326915
Ti  C  H
2  1  2
Selective  dynamics
Direct
0.0000000000000000  -0.0000000000000000  0.0378996897592688  T  T  T
0.6666666666666643  0.3333333333333357  0.1191109816530397  T  T  T
0.3333333333333357  0.6666666666666643  0.0785053357061542  T  T  T
0.3333333333333357  0.6666666666666643  0.0000000000000000  T  T  T
0.3333333333333357  0.6666666666666643  0.1570106714123083  T  T  T

0.00000000E+00  0.00000000E+00  0.00000000E+00
0.00000000E+00  0.00000000E+00  0.00000000E+00
0.00000000E+00  0.00000000E+00  0.00000000E+00
0.00000000E+00  0.00000000E+00  0.00000000E+00
0.00000000E+00  0.00000000E+00  0.00000000E+00
