Ta2N  (n=1)
1.00000000000000
2.9634180459687247  0.0000000000000000  0.0000000000000000
-1.4817090229843624  2.5663953098872381  0.0000000000000000
0.0000000000000001  -0.0000000000000001  30.0032506204809764
Ta  N  H
2  1  2
Selective  dynamics
Direct
0.0000000000000000  -0.0000000000000000  0.0382372734755267  T  T  T
0.6666666666666643  0.3333333333333357  0.1285196784217331  T  T  T
0.3333333333333357  0.6666666666666643  0.0833784759486299  T  T  T
0.3333333333333357  0.6666666666666643  0.0000000000000000  T  T  T
0.3333333333333357  0.6666666666666643  0.1667569518972598  T  T  T

0.00000000E+00  0.00000000E+00  0.00000000E+00
0.00000000E+00  0.00000000E+00  0.00000000E+00
0.00000000E+00  0.00000000E+00  0.00000000E+00
0.00000000E+00  0.00000000E+00  0.00000000E+00
0.00000000E+00  0.00000000E+00  0.00000000E+00
