Ta3C2  (n=2)
1.00000000000000
3.1868910477499535  0.0000000000000000  0.0000000000000000
-1.5934455238749767  2.7599286069776889  -0.0000000000000000
-0.0000000000000003  0.0000000000000004  33.6864070546533014
Ta  C  Cl
3  2  2
Selective  dynamics
Direct
-0.0000000000000000  0.0000000000000000  0.0535341542108819  T  T  T
0.6666666666666643  0.3333333333333357  0.1308188040006122  T  T  T
0.3333333333333357  0.6666666666666643  0.2021118473637970  T  T  T
0.3333333333333357  0.6666666666666643  0.0899896309986219  T  T  T
0.0000000000000000  -0.0000000000000000  0.1678209831038345  T  T  T
0.3333333333333357  0.6666666666666643  0.0000000000000000  T  T  T
0.6666666666666643  0.3333333333333357  0.2578608944717776  T  T  T

0.00000000E+00  0.00000000E+00  0.00000000E+00
0.00000000E+00  0.00000000E+00  0.00000000E+00
0.00000000E+00  0.00000000E+00  0.00000000E+00
0.00000000E+00  0.00000000E+00  0.00000000E+00
0.00000000E+00  0.00000000E+00  0.00000000E+00
0.00000000E+00  0.00000000E+00  0.00000000E+00
0.00000000E+00  0.00000000E+00  0.00000000E+00
