Ta3N2  (n=2)
1.00000000000000
3.1066440527329688  0.0000000000000004  0.0000000000000000
-1.5533220263664842  2.6904326705240957  0.0000000000000000
-0.0000000000000004  0.0000000000000001  33.8768637314255230
Ta  N  Cl
3  2  2
Selective  dynamics
Direct
0.0000000000000000  0.0000000000000000  0.0550061269855180  T  T  T
0.6666666666666643  0.3333333333333357  0.1310044455866482  T  T  T
0.3333333333333357  0.6666666666666643  0.2073234485628346  T  T  T
0.3333333333333357  0.6666666666666643  0.0916535387597531  T  T  T
-0.0000000000000000  -0.0000000000000000  0.1682733721773934  T  T  T
0.3333333333333357  0.6666666666666643  0.0000000000000000  T  T  T
0.6666666666666643  0.3333333333333357  0.2620332213100056  T  T  T

0.00000000E+00  0.00000000E+00  0.00000000E+00
0.00000000E+00  0.00000000E+00  0.00000000E+00
0.00000000E+00  0.00000000E+00  0.00000000E+00
0.00000000E+00  0.00000000E+00  0.00000000E+00
0.00000000E+00  0.00000000E+00  0.00000000E+00
0.00000000E+00  0.00000000E+00  0.00000000E+00
0.00000000E+00  0.00000000E+00  0.00000000E+00
