Sc3C2  (n=2)
1.00000000000000
3.3561198117919746  0.0000000000000002  -0.0000000000000002
-1.6780599058959869  2.9064850160449605  0.0000000000000002
-0.0000000000000029  0.0000000000000020  33.7924116804357055
Sc  C  Cl
3  2  2
Selective  dynamics
Direct
0.0000000000000000  0.0000000000000000  0.0525368604057294  T  T  T
0.6666666666666643  0.3333333333333357  0.1312592306488347  T  T  T
0.3333333333333357  0.6666666666666643  0.2096670048712501  T  T  T
0.3333333333333357  0.6666666666666643  0.0905650324414619  T  T  T
-0.0000000000000000  0.0000000000000000  0.1731515759553485  T  T  T
0.3333333333333357  0.6666666666666643  0.0000000000000000  T  T  T
0.6666666666666643  0.3333333333333357  0.2601889371963977  T  T  T

0.00000000E+00  0.00000000E+00  0.00000000E+00
0.00000000E+00  0.00000000E+00  0.00000000E+00
0.00000000E+00  0.00000000E+00  0.00000000E+00
0.00000000E+00  0.00000000E+00  0.00000000E+00
0.00000000E+00  0.00000000E+00  0.00000000E+00
0.00000000E+00  0.00000000E+00  0.00000000E+00
0.00000000E+00  0.00000000E+00  0.00000000E+00
