Hf3N2  (n=2)
1.00000000000000
3.2159688273657654  0.0000000000000000  0.0000000000000000
-1.6079844136828825  2.7851107028200599  0.0000000000000000
0.0000000000000000  0.0000000000000001  33.8892054691866491
Hf  N  Cl
3  2  2
Selective  dynamics
Direct
0.0000000000000000  0.0000000000000000  0.0531172246045390  T  T  T
0.6666666666666643  0.3333333333333357  0.1311745375711200  T  T  T
0.3333333333333357  0.6666666666666643  0.2083140947996989  T  T  T
0.3333333333333357  0.6666666666666643  0.0930358166738462  T  T  T
-0.0000000000000000  -0.0000000000000000  0.1682635242014218  T  T  T
0.3333333333333357  0.6666666666666643  0.0000000000000000  T  T  T
0.6666666666666643  0.3333333333333357  0.2623019733309784  T  T  T

0.00000000E+00  0.00000000E+00  0.00000000E+00
0.00000000E+00  0.00000000E+00  0.00000000E+00
0.00000000E+00  0.00000000E+00  0.00000000E+00
0.00000000E+00  0.00000000E+00  0.00000000E+00
0.00000000E+00  0.00000000E+00  0.00000000E+00
0.00000000E+00  0.00000000E+00  0.00000000E+00
0.00000000E+00  0.00000000E+00  0.00000000E+00
