Zr3N2  (n=2)
1.00000000000000
3.2837697099565588  0.0000000000000001  0.0000000000000000
-1.6418848549782794  2.8438279897689882  0.0000000000000000
-0.0000000000000001  0.0000000000000000  33.9391498899130681
Zr  N  Cl
3  2  2
Selective  dynamics
Direct
-0.0000000000000000  -0.0000000000000000  0.0534185566216451  T  T  T
0.6666666666666643  0.3333333333333357  0.1319358386116576  T  T  T
0.3333333333333357  0.6666666666666643  0.2092845838001486  T  T  T
0.3333333333333357  0.6666666666666643  0.0928222733353939  T  T  T
-0.0000000000000000  -0.0000000000000000  0.1698607440332646  T  T  T
0.3333333333333357  0.6666666666666643  0.0000000000000000  T  T  T
0.6666666666666643  0.3333333333333357  0.2633875603516469  T  T  T

0.00000000E+00  0.00000000E+00  0.00000000E+00
0.00000000E+00  0.00000000E+00  0.00000000E+00
0.00000000E+00  0.00000000E+00  0.00000000E+00
0.00000000E+00  0.00000000E+00  0.00000000E+00
0.00000000E+00  0.00000000E+00  0.00000000E+00
0.00000000E+00  0.00000000E+00  0.00000000E+00
0.00000000E+00  0.00000000E+00  0.00000000E+00
