Nb3N2  (n=2)
1.00000000000000
3.1879863076570674  0.0000000000000001  0.0000000000000000
-1.5939931538285337  2.7608771297903232  0.0000000000000000
0.0000000000000003  0.0000000000000002  33.6337333597631272
Nb  N  Cl
3  2  2
Selective  dynamics
Direct
0.0000000000000000  -0.0000000000000000  0.0545454597481892  T  T  T
0.6666666666666643  0.3333333333333357  0.1308851652378256  T  T  T
0.3333333333333357  0.6666666666666643  0.2016193455314898  T  T  T
0.3333333333333357  0.6666666666666643  0.0916015595754556  T  T  T
0.0000000000000000  -0.0000000000000000  0.1666386793244125  T  T  T
0.3333333333333357  0.6666666666666643  0.0000000000000000  T  T  T
0.6666666666666643  0.3333333333333357  0.2566986325131506  T  T  T

0.00000000E+00  0.00000000E+00  0.00000000E+00
0.00000000E+00  0.00000000E+00  0.00000000E+00
0.00000000E+00  0.00000000E+00  0.00000000E+00
0.00000000E+00  0.00000000E+00  0.00000000E+00
0.00000000E+00  0.00000000E+00  0.00000000E+00
0.00000000E+00  0.00000000E+00  0.00000000E+00
0.00000000E+00  0.00000000E+00  0.00000000E+00
