Mo3N2  (n=2)
1.00000000000000
2.9411571496580335  -0.0000000000000001  -0.0000000000000001
-1.4705785748290163  2.5471168084259936  0.0000000000000001
-0.0000000000000024  0.0000000000000020  34.3991519510532342
Mo  N  Cl
3  2  2
Selective  dynamics
Direct
0.0000000000000000  0.0000000000000000  0.0555899381931900  T  T  T
0.6666666666666643  0.3333333333333357  0.1381263193499554  T  T  T
0.3333333333333357  0.6666666666666643  0.2192156537609440  T  T  T
0.3333333333333357  0.6666666666666643  0.0939521540193005  T  T  T
0.0000000000000000  0.0000000000000000  0.1789217610698618  T  T  T
0.3333333333333357  0.6666666666666643  0.0000000000000000  T  T  T
0.6666666666666643  0.3333333333333357  0.2732378973884980  T  T  T

0.00000000E+00  0.00000000E+00  0.00000000E+00
0.00000000E+00  0.00000000E+00  0.00000000E+00
0.00000000E+00  0.00000000E+00  0.00000000E+00
0.00000000E+00  0.00000000E+00  0.00000000E+00
0.00000000E+00  0.00000000E+00  0.00000000E+00
0.00000000E+00  0.00000000E+00  0.00000000E+00
0.00000000E+00  0.00000000E+00  0.00000000E+00
