Nb3C2  (n=2)
1.00000000000000
3.2093016895786146  -0.0000000000000001  0.0000000000000000
-1.6046508447893073  2.7793367921764496  -0.0000000000000003
0.0000000000000007  -0.0000000000000030  33.7112792072894862
Nb  C  Cl
3  2  2
Selective  dynamics
Direct
-0.0000000000000000  -0.0000000000000000  0.0532494008426801  T  T  T
0.6666666666666643  0.3333333333333357  0.1308839464228296  T  T  T
0.3333333333333357  0.6666666666666643  0.2027329393681955  T  T  T
0.3333333333333357  0.6666666666666643  0.0898163571284508  T  T  T
0.0000000000000000  0.0000000000000000  0.1681921180392176  T  T  T
0.3333333333333357  0.6666666666666643  0.0000000000000000  T  T  T
0.6666666666666643  0.3333333333333357  0.2584084440618267  T  T  T

0.00000000E+00  0.00000000E+00  0.00000000E+00
0.00000000E+00  0.00000000E+00  0.00000000E+00
0.00000000E+00  0.00000000E+00  0.00000000E+00
0.00000000E+00  0.00000000E+00  0.00000000E+00
0.00000000E+00  0.00000000E+00  0.00000000E+00
0.00000000E+00  0.00000000E+00  0.00000000E+00
0.00000000E+00  0.00000000E+00  0.00000000E+00
