Cr3N2  (n=2)
1.00000000000000
3.0647024229219171  0.0000000000000000  0.0000000000000000
-1.5323512114609585  2.6541101533218923  0.0000000000000001
0.0000000000000002  0.0000000000000003  32.7647844462345788
Cr  N  Cl
3  2  2
Selective  dynamics
Direct
0.0000000000000000  0.0000000000000000  0.0538541220859518  T  T  T
0.6666666666666643  0.3333333333333357  0.1176935178131474  T  T  T
0.3333333333333357  0.6666666666666643  0.1854928211573776  T  T  T
0.3333333333333357  0.6666666666666643  0.0850076326761241  T  T  T
0.0000000000000000  0.0000000000000000  0.1563610668017202  T  T  T
0.3333333333333357  0.6666666666666643  0.0000000000000000  T  T  T
0.6666666666666643  0.3333333333333357  0.2369856715821285  T  T  T

0.00000000E+00  0.00000000E+00  0.00000000E+00
0.00000000E+00  0.00000000E+00  0.00000000E+00
0.00000000E+00  0.00000000E+00  0.00000000E+00
0.00000000E+00  0.00000000E+00  0.00000000E+00
0.00000000E+00  0.00000000E+00  0.00000000E+00
0.00000000E+00  0.00000000E+00  0.00000000E+00
0.00000000E+00  0.00000000E+00  0.00000000E+00
