Hf3C2  (n=2)
1.00000000000000
3.3518289781029389  -0.0000000000000000  0.0000000000000000
-1.6759144890514692  2.9027690448556109  -0.0000000000000001
0.0000000000000001  -0.0000000000000038  33.6698528402415889
Hf  C  Cl
3  2  2
Selective  dynamics
Direct
-0.0000000000000000  -0.0000000000000000  0.0547250224375379  T  T  T
0.6666666666666643  0.3333333333333357  0.1291860135916316  T  T  T
0.3333333333333357  0.6666666666666643  0.2036201135097795  T  T  T
0.3333333333333357  0.6666666666666643  0.0898235670946112  T  T  T
0.0000000000000000  0.0000000000000000  0.1710048059445705  T  T  T
0.3333333333333357  0.6666666666666643  0.0000000000000000  T  T  T
0.6666666666666643  0.3333333333333357  0.2574960122748008  T  T  T

0.00000000E+00  0.00000000E+00  0.00000000E+00
0.00000000E+00  0.00000000E+00  0.00000000E+00
0.00000000E+00  0.00000000E+00  0.00000000E+00
0.00000000E+00  0.00000000E+00  0.00000000E+00
0.00000000E+00  0.00000000E+00  0.00000000E+00
0.00000000E+00  0.00000000E+00  0.00000000E+00
0.00000000E+00  0.00000000E+00  0.00000000E+00
