Ti3N2  (n=2)
1.00000000000000
3.1152375354994151  -0.0000000000000012  -0.0000000000000001
-1.5576187677497080  2.6978748446877243  0.0000000000000000
-0.0000000000000011  -0.0000000000000009  33.0578031285346015
Ti  N  Cl
3  2  2
Selective  dynamics
Direct
0.0000000000000000  -0.0000000000000000  0.0518927134368783  T  T  T
0.6666666666666643  0.3333333333333357  0.1242832108857547  T  T  T
0.3333333333333357  0.6666666666666643  0.1915211896514307  T  T  T
0.3333333333333357  0.6666666666666643  0.0861773696950145  T  T  T
-0.0000000000000000  0.0000000000000000  0.1598787301991565  T  T  T
0.3333333333333357  0.6666666666666643  0.0000000000000000  T  T  T
0.6666666666666643  0.3333333333333357  0.2437488993810154  T  T  T

0.00000000E+00  0.00000000E+00  0.00000000E+00
0.00000000E+00  0.00000000E+00  0.00000000E+00
0.00000000E+00  0.00000000E+00  0.00000000E+00
0.00000000E+00  0.00000000E+00  0.00000000E+00
0.00000000E+00  0.00000000E+00  0.00000000E+00
0.00000000E+00  0.00000000E+00  0.00000000E+00
0.00000000E+00  0.00000000E+00  0.00000000E+00
