Sc3N2  (n=2)
1.00000000000000
3.2869094569151063  0.0000000000000004  0.0000000000000001
-1.6434547284575527  2.8465470901069345  -0.0000000000000001
0.0000000000000008  -0.0000000000000009  33.4820165248890973
Sc  N  Cl
3  2  2
Selective  dynamics
Direct
-0.0000000000000000  -0.0000000000000000  0.0529461497363586  T  T  T
0.6666666666666643  0.3333333333333357  0.1271910686600602  T  T  T
0.3333333333333357  0.6666666666666643  0.2016158770873333  T  T  T
0.3333333333333357  0.6666666666666643  0.0890814916312717  T  T  T
0.0000000000000000  0.0000000000000000  0.1685321534197813  T  T  T
0.3333333333333357  0.6666666666666643  0.0000000000000000  T  T  T
0.6666666666666643  0.3333333333333357  0.2533305160572970  T  T  T

0.00000000E+00  0.00000000E+00  0.00000000E+00
0.00000000E+00  0.00000000E+00  0.00000000E+00
0.00000000E+00  0.00000000E+00  0.00000000E+00
0.00000000E+00  0.00000000E+00  0.00000000E+00
0.00000000E+00  0.00000000E+00  0.00000000E+00
0.00000000E+00  0.00000000E+00  0.00000000E+00
0.00000000E+00  0.00000000E+00  0.00000000E+00
