Cr3C2  (n=2)
1.00000000000000
3.0906479092927506  0.0000000000000001  -0.0000000000000001
-1.5453239546463753  2.6765796036529070  -0.0000000000000002
-0.0000000000000004  -0.0000000000000037  32.6039430585874612
Cr  C  Cl
3  2  2
Selective  dynamics
Direct
0.0000000000000000  0.0000000000000000  0.0537041222600348  T  T  T
0.6666666666666643  0.3333333333333357  0.1167740926283449  T  T  T
0.3333333333333357  0.6666666666666643  0.1810755296938691  T  T  T
0.3333333333333357  0.6666666666666643  0.0832902118761937  T  T  T
-0.0000000000000000  -0.0000000000000000  0.1535300043263569  T  T  T
0.3333333333333357  0.6666666666666643  0.0000000000000000  T  T  T
0.6666666666666643  0.3333333333333357  0.2332215782895829  T  T  T

0.00000000E+00  0.00000000E+00  0.00000000E+00
0.00000000E+00  0.00000000E+00  0.00000000E+00
0.00000000E+00  0.00000000E+00  0.00000000E+00
0.00000000E+00  0.00000000E+00  0.00000000E+00
0.00000000E+00  0.00000000E+00  0.00000000E+00
0.00000000E+00  0.00000000E+00  0.00000000E+00
0.00000000E+00  0.00000000E+00  0.00000000E+00
