Zr3C2  (n=2)
1.00000000000000
3.4028917127553031  0.0000000000000002  -0.0000000000000000
-1.7014458563776524  2.9469906703598499  -0.0000000000000002
-0.0000000000000004  -0.0000000000000044  33.7923989052691667
Zr  C  Cl
3  2  2
Selective  dynamics
Direct
-0.0000000000000000  -0.0000000000000000  0.0548038960842250  T  T  T
0.6666666666666643  0.3333333333333357  0.1305898720114302  T  T  T
0.3333333333333357  0.6666666666666643  0.2062183451290536  T  T  T
0.3333333333333357  0.6666666666666643  0.0903647068551721  T  T  T
0.0000000000000000  0.0000000000000000  0.1727157522229679  T  T  T
0.3333333333333357  0.6666666666666643  0.0000000000000000  T  T  T
0.6666666666666643  0.3333333333333357  0.2601886575119173  T  T  T

0.00000000E+00  0.00000000E+00  0.00000000E+00
0.00000000E+00  0.00000000E+00  0.00000000E+00
0.00000000E+00  0.00000000E+00  0.00000000E+00
0.00000000E+00  0.00000000E+00  0.00000000E+00
0.00000000E+00  0.00000000E+00  0.00000000E+00
0.00000000E+00  0.00000000E+00  0.00000000E+00
0.00000000E+00  0.00000000E+00  0.00000000E+00
