Ti3C2  (n=2)
1.00000000000000
3.1695511266953358  0.0000000000000002  0.0000000000000001
-1.5847755633476677  2.7449117945761654  0.0000000000000001
0.0000000000000010  0.0000000000000002  33.1089174208569759
Ti  C  Cl
3  2  2
Selective  dynamics
Direct
0.0000000000000000  -0.0000000000000000  0.0527759931418983  T  T  T
0.6666666666666643  0.3333333333333357  0.1233131889225113  T  T  T
0.3333333333333357  0.6666666666666643  0.1933152415150937  T  T  T
0.3333333333333357  0.6666666666666643  0.0860427383540148  T  T  T
-0.0000000000000000  0.0000000000000000  0.1619895565955086  T  T  T
0.3333333333333357  0.6666666666666643  0.0000000000000000  T  T  T
0.6666666666666643  0.3333333333333357  0.2449164168608171  T  T  T

0.00000000E+00  0.00000000E+00  0.00000000E+00
0.00000000E+00  0.00000000E+00  0.00000000E+00
0.00000000E+00  0.00000000E+00  0.00000000E+00
0.00000000E+00  0.00000000E+00  0.00000000E+00
0.00000000E+00  0.00000000E+00  0.00000000E+00
0.00000000E+00  0.00000000E+00  0.00000000E+00
0.00000000E+00  0.00000000E+00  0.00000000E+00
