Mo3C2  (n=2)
1.00000000000000
3.1279124229422322  0.0000000000000000  -0.0000000000000000
-1.5639562114711159  2.7088516193867656  0.0000000000000001
-0.0000000000000000  0.0000000000000009  33.5840858933863586
Mo  C  Cl
3  2  2
Selective  dynamics
Direct
0.0000000000000000  0.0000000000000000  0.0558283523678923  T  T  T
0.6666666666666643  0.3333333333333357  0.1280555173057963  T  T  T
0.3333333333333357  0.6666666666666643  0.1988623612844419  T  T  T
0.3333333333333357  0.6666666666666643  0.0892793266936161  T  T  T
-0.0000000000000000  -0.0000000000000000  0.1667143982247467  T  T  T
0.3333333333333357  0.6666666666666643  0.0000000000000000  T  T  T
0.6666666666666643  0.3333333333333357  0.2555998076183103  T  T  T

0.00000000E+00  0.00000000E+00  0.00000000E+00
0.00000000E+00  0.00000000E+00  0.00000000E+00
0.00000000E+00  0.00000000E+00  0.00000000E+00
0.00000000E+00  0.00000000E+00  0.00000000E+00
0.00000000E+00  0.00000000E+00  0.00000000E+00
0.00000000E+00  0.00000000E+00  0.00000000E+00
0.00000000E+00  0.00000000E+00  0.00000000E+00
