Ta3N2Br2  (n=2)
1.00000000000000
3.1768705811327549  0.0000000000000002  0.0000000000000000
-1.5884352905663772  2.7512506282334681  0.0000000000000000
-0.0000000000000002  -0.0000000000000005  34.0440884033917257
Ta  N  Br
3  2  2
Selective  dynamics
Direct
-0.0000000000000000  0.0000000000000000  0.0590168707078052  T  T  T
0.6666666666666643  0.3333333333333357  0.1328290582527526  T  T  T
0.3333333333333357  0.6666666666666643  0.2066412457976932  T  T  T
0.3333333333333357  0.6666666666666643  0.0947229672270201  T  T  T
0.0000000000000000  -0.0000000000000000  0.1709351492784851  T  T  T
0.3333333333333357  0.6666666666666643  0.0000000000000000  T  T  T
0.0000000000000000  0.0000000000000000  0.2656581165054983  T  T  T

0.00000000E+00  0.00000000E+00  0.00000000E+00
0.00000000E+00  0.00000000E+00  0.00000000E+00
0.00000000E+00  0.00000000E+00  0.00000000E+00
0.00000000E+00  0.00000000E+00  0.00000000E+00
0.00000000E+00  0.00000000E+00  0.00000000E+00
0.00000000E+00  0.00000000E+00  0.00000000E+00
0.00000000E+00  0.00000000E+00  0.00000000E+00
