Cr3N2Br2  (n=2)
1.00000000000000
3.1004074653352420  0.0000000000000000  0.0000000000000000
-1.5502037326676210  2.6850316271943977  0.0000000000000000
0.0000000000000000  0.0000000000000000  33.1108393197350921
Cr  N  Br
3  2  2
Selective  dynamics
Direct
0.0000000000000000  0.0000000000000000  0.0587893307116165  T  T  T
0.6666666666666643  0.3333333333333357  0.1224801226180490  T  T  T
0.3333333333333357  0.6666666666666643  0.1861709145244741  T  T  T
0.3333333333333357  0.6666666666666643  0.0877369792186824  T  T  T
-0.0000000000000000  0.0000000000000000  0.1572232660174157  T  T  T
0.3333333333333357  0.6666666666666643  0.0000000000000000  T  T  T
-0.0000000000000000  -0.0000000000000000  0.2449602452360904  T  T  T

0.00000000E+00  0.00000000E+00  0.00000000E+00
0.00000000E+00  0.00000000E+00  0.00000000E+00
0.00000000E+00  0.00000000E+00  0.00000000E+00
0.00000000E+00  0.00000000E+00  0.00000000E+00
0.00000000E+00  0.00000000E+00  0.00000000E+00
0.00000000E+00  0.00000000E+00  0.00000000E+00
0.00000000E+00  0.00000000E+00  0.00000000E+00
