Ti3C2Br2  (n=2)
1.00000000000000
3.2109556310916081  -0.0000000000000002  0.0000000000000000
-1.6054778155458043  2.7807691472603295  0.0000000000000000
0.0000000000000008  -0.0000000000000004  33.4584844084859014
Ti  C  Br
3  2  2
Selective  dynamics
Direct
-0.0000000000000000  -0.0000000000000000  0.0569390769582665  T  T  T
0.6666666666666643  0.3333333333333357  0.1264026831762418  T  T  T
0.3333333333333357  0.6666666666666643  0.1958662893942102  T  T  T
0.3333333333333357  0.6666666666666643  0.0891277051505563  T  T  T
0.0000000000000000  -0.0000000000000000  0.1636776612019273  T  T  T
0.3333333333333357  0.6666666666666643  0.0000000000000000  T  T  T
-0.0000000000000000  -0.0000000000000000  0.2528053663524766  T  T  T

0.00000000E+00  0.00000000E+00  0.00000000E+00
0.00000000E+00  0.00000000E+00  0.00000000E+00
0.00000000E+00  0.00000000E+00  0.00000000E+00
0.00000000E+00  0.00000000E+00  0.00000000E+00
0.00000000E+00  0.00000000E+00  0.00000000E+00
0.00000000E+00  0.00000000E+00  0.00000000E+00
0.00000000E+00  0.00000000E+00  0.00000000E+00
