Zr3C2Br2  (n=2)
1.00000000000000
3.4151881544116320  -0.0000000000000004  0.0000000000000001
-1.7075940772058165  2.9576397013039371  -0.0000000000000001
0.0000000000000010  0.0000000000000003  34.1827182455412526
Zr  C  Br
3  2  2
Selective  dynamics
Direct
0.0000000000000000  -0.0000000000000000  0.0591085431999901  T  T  T
0.6666666666666643  0.3333333333333357  0.1343181396455976  T  T  T
0.3333333333333357  0.6666666666666643  0.2095277360911993  T  T  T
0.3333333333333357  0.6666666666666643  0.0939252054310205  T  T  T
-0.0000000000000000  0.0000000000000000  0.1747110738601747  T  T  T
0.3333333333333357  0.6666666666666643  0.0000000000000000  T  T  T
-0.0000000000000000  0.0000000000000000  0.2686362792911893  T  T  T

0.00000000E+00  0.00000000E+00  0.00000000E+00
0.00000000E+00  0.00000000E+00  0.00000000E+00
0.00000000E+00  0.00000000E+00  0.00000000E+00
0.00000000E+00  0.00000000E+00  0.00000000E+00
0.00000000E+00  0.00000000E+00  0.00000000E+00
0.00000000E+00  0.00000000E+00  0.00000000E+00
0.00000000E+00  0.00000000E+00  0.00000000E+00
