Mo3N2Br2  (n=2)
1.00000000000000
3.2435269198166283  0.0000000000000000  0.0000000000000000
-1.6217634599083142  2.8089767107588441  0.0000000000000000
0.0000000000000001  0.0000000000000001  33.4877312471449926
Mo  N  Br
3  2  2
Selective  dynamics
Direct
-0.0000000000000000  0.0000000000000000  0.0612386991840763  T  T  T
0.6666666666666643  0.3333333333333357  0.1267289680585459  T  T  T
0.3333333333333357  0.6666666666666643  0.1922192369330090  T  T  T
0.3333333333333357  0.6666666666666643  0.0900242624181184  T  T  T
-0.0000000000000000  -0.0000000000000000  0.1634336736989735  T  T  T
0.3333333333333357  0.6666666666666643  0.0000000000000000  T  T  T
-0.0000000000000000  -0.0000000000000000  0.2534579361170853  T  T  T

0.00000000E+00  0.00000000E+00  0.00000000E+00
0.00000000E+00  0.00000000E+00  0.00000000E+00
0.00000000E+00  0.00000000E+00  0.00000000E+00
0.00000000E+00  0.00000000E+00  0.00000000E+00
0.00000000E+00  0.00000000E+00  0.00000000E+00
0.00000000E+00  0.00000000E+00  0.00000000E+00
0.00000000E+00  0.00000000E+00  0.00000000E+00
