Ti3N2Br2  (n=2)
1.00000000000000
3.1432417439076739  0.0000000000000000  0.0000000000000000
-1.5716208719538369  2.7221272007120478  0.0000000000000001
0.0000000000000000  -0.0000000000000005  33.4411206669214494
Ti  N  Br
3  2  2
Selective  dynamics
Direct
-0.0000000000000000  0.0000000000000000  0.0560468761403710  T  T  T
0.6666666666666643  0.3333333333333357  0.1262086990295049  T  T  T
0.3333333333333357  0.6666666666666643  0.1963705219186317  T  T  T
0.3333333333333357  0.6666666666666643  0.0900964095831916  T  T  T
-0.0000000000000000  -0.0000000000000000  0.1623209884758182  T  T  T
0.3333333333333357  0.6666666666666643  0.0000000000000000  T  T  T
-0.0000000000000000  -0.0000000000000000  0.2524173980590027  T  T  T

0.00000000E+00  0.00000000E+00  0.00000000E+00
0.00000000E+00  0.00000000E+00  0.00000000E+00
0.00000000E+00  0.00000000E+00  0.00000000E+00
0.00000000E+00  0.00000000E+00  0.00000000E+00
0.00000000E+00  0.00000000E+00  0.00000000E+00
0.00000000E+00  0.00000000E+00  0.00000000E+00
0.00000000E+00  0.00000000E+00  0.00000000E+00
