Sc3C2Br2  (n=2)
1.00000000000000
3.4530565287344466  0.0000000000000003  -0.0000000000000000
-1.7265282643672231  2.9904346749942761  -0.0000000000000002
0.0000000000000006  0.0000000000000005  33.8640770891763978
Sc  C  Br
3  2  2
Selective  dynamics
Direct
-0.0000000000000000  -0.0000000000000000  0.0566202016458043  T  T  T
0.6666666666666643  0.3333333333333357  0.1308772872479924  T  T  T
0.3333333333333357  0.6666666666666643  0.2051343728501746  T  T  T
0.3333333333333357  0.6666666666666643  0.0923212603717607  T  T  T
-0.0000000000000000  0.0000000000000000  0.1694333141242241  T  T  T
0.3333333333333357  0.6666666666666643  0.0000000000000000  T  T  T
0.0000000000000000  0.0000000000000000  0.2617545744959790  T  T  T

0.00000000E+00  0.00000000E+00  0.00000000E+00
0.00000000E+00  0.00000000E+00  0.00000000E+00
0.00000000E+00  0.00000000E+00  0.00000000E+00
0.00000000E+00  0.00000000E+00  0.00000000E+00
0.00000000E+00  0.00000000E+00  0.00000000E+00
0.00000000E+00  0.00000000E+00  0.00000000E+00
0.00000000E+00  0.00000000E+00  0.00000000E+00
