Hf3C2Br2  (n=2)
1.00000000000000
3.3672654132361872  0.0000000000000003  0.0000000000000002
-1.6836327066180932  2.9161373901870662  -0.0000000000000000
0.0000000000000009  0.0000000000000002  34.0588262499624648
Hf  C  Br
3  2  2
Selective  dynamics
Direct
-0.0000000000000000  -0.0000000000000000  0.0590147508773911  T  T  T
0.6666666666666643  0.3333333333333357  0.1329879395061751  T  T  T
0.3333333333333357  0.6666666666666643  0.2069611281349529  T  T  T
0.3333333333333357  0.6666666666666643  0.0932434647313910  T  T  T
0.0000000000000000  0.0000000000000000  0.1727324142809592  T  T  T
0.3333333333333357  0.6666666666666643  0.0000000000000000  T  T  T
0.0000000000000000  -0.0000000000000000  0.2659758790123440  T  T  T

0.00000000E+00  0.00000000E+00  0.00000000E+00
0.00000000E+00  0.00000000E+00  0.00000000E+00
0.00000000E+00  0.00000000E+00  0.00000000E+00
0.00000000E+00  0.00000000E+00  0.00000000E+00
0.00000000E+00  0.00000000E+00  0.00000000E+00
0.00000000E+00  0.00000000E+00  0.00000000E+00
0.00000000E+00  0.00000000E+00  0.00000000E+00
