Cr3C2Br2  (n=2)
1.00000000000000
3.1173473930736746  0.0000000000000000  0.0000000000000001
-1.5586736965368373  2.6997020349473235  0.0000000000000000
0.0000000000000010  0.0000000000000007  32.9824478983177158
Cr  C  Br
3  2  2
Selective  dynamics
Direct
-0.0000000000000000  -0.0000000000000000  0.0586935038674656  T  T  T
0.6666666666666643  0.3333333333333357  0.1210105435916586  T  T  T
0.3333333333333357  0.6666666666666643  0.1833275833158441  T  T  T
0.3333333333333357  0.6666666666666643  0.0862149795234518  T  T  T
-0.0000000000000000  0.0000000000000000  0.1558061076598654  T  T  T
0.3333333333333357  0.6666666666666643  0.0000000000000000  T  T  T
-0.0000000000000000  0.0000000000000000  0.2420210871833096  T  T  T

0.00000000E+00  0.00000000E+00  0.00000000E+00
0.00000000E+00  0.00000000E+00  0.00000000E+00
0.00000000E+00  0.00000000E+00  0.00000000E+00
0.00000000E+00  0.00000000E+00  0.00000000E+00
0.00000000E+00  0.00000000E+00  0.00000000E+00
0.00000000E+00  0.00000000E+00  0.00000000E+00
0.00000000E+00  0.00000000E+00  0.00000000E+00
