Nb3C2Br2  (n=2)
1.00000000000000
3.2400602636357729  0.0000000000000003  -0.0000000000000001
-1.6200301318178865  2.8059744987453343  -0.0000000000000001
-0.0000000000000007  0.0000000000000003  33.9993634092662376
Nb  C  Br
3  2  2
Selective  dynamics
Direct
-0.0000000000000000  -0.0000000000000000  0.0582791599193909  T  T  T
0.6666666666666643  0.3333333333333357  0.1323460574972671  T  T  T
0.3333333333333357  0.6666666666666643  0.2064129550751369  T  T  T
0.3333333333333357  0.6666666666666643  0.0933941020699077  T  T  T
-0.0000000000000000  0.0000000000000000  0.1712980129246266  T  T  T
0.3333333333333357  0.6666666666666643  0.0000000000000000  T  T  T
0.0000000000000000  0.0000000000000000  0.2646921149945276  T  T  T

0.00000000E+00  0.00000000E+00  0.00000000E+00
0.00000000E+00  0.00000000E+00  0.00000000E+00
0.00000000E+00  0.00000000E+00  0.00000000E+00
0.00000000E+00  0.00000000E+00  0.00000000E+00
0.00000000E+00  0.00000000E+00  0.00000000E+00
0.00000000E+00  0.00000000E+00  0.00000000E+00
0.00000000E+00  0.00000000E+00  0.00000000E+00
