Ta3C2Br2  (n=2)
1.00000000000000
3.2167032294163240  -0.0000000000000000  -0.0000000000000000
-1.6083516147081620  2.7857467137047878  0.0000000000000000
0.0000000000000003  0.0000000000000008  33.9940252183414913
Ta  C  Br
3  2  2
Selective  dynamics
Direct
0.0000000000000000  0.0000000000000000  0.0584585029244945  T  T  T
0.6666666666666643  0.3333333333333357  0.1322883236182485  T  T  T
0.3333333333333357  0.6666666666666643  0.2061181443119959  T  T  T
0.3333333333333357  0.6666666666666643  0.0937264855719040  T  T  T
-0.0000000000000000  -0.0000000000000000  0.1708501616645931  T  T  T
0.3333333333333357  0.6666666666666643  0.0000000000000000  T  T  T
-0.0000000000000000  -0.0000000000000000  0.2645766472364903  T  T  T

0.00000000E+00  0.00000000E+00  0.00000000E+00
0.00000000E+00  0.00000000E+00  0.00000000E+00
0.00000000E+00  0.00000000E+00  0.00000000E+00
0.00000000E+00  0.00000000E+00  0.00000000E+00
0.00000000E+00  0.00000000E+00  0.00000000E+00
0.00000000E+00  0.00000000E+00  0.00000000E+00
0.00000000E+00  0.00000000E+00  0.00000000E+00
