Zr3N2Br2  (n=2)
1.00000000000000
3.3362178663746995  0.0000000000000000  0.0000000000000000
-1.6681089331873498  2.8892494254778112  0.0000000000000000
0.0000000000000000  -0.0000000000000004  34.1493982952017063
Zr  N  Br
3  2  2
Selective  dynamics
Direct
0.0000000000000000  0.0000000000000000  0.0575986637947078  T  T  T
0.6666666666666643  0.3333333333333357  0.1339613397593522  T  T  T
0.3333333333333357  0.6666666666666643  0.2103240157239904  T  T  T
0.3333333333333357  0.6666666666666643  0.0959966741556939  T  T  T
0.0000000000000000  -0.0000000000000000  0.1719260053630104  T  T  T
0.3333333333333357  0.6666666666666643  0.0000000000000000  T  T  T
-0.0000000000000000  -0.0000000000000000  0.2679226795186982  T  T  T

0.00000000E+00  0.00000000E+00  0.00000000E+00
0.00000000E+00  0.00000000E+00  0.00000000E+00
0.00000000E+00  0.00000000E+00  0.00000000E+00
0.00000000E+00  0.00000000E+00  0.00000000E+00
0.00000000E+00  0.00000000E+00  0.00000000E+00
0.00000000E+00  0.00000000E+00  0.00000000E+00
0.00000000E+00  0.00000000E+00  0.00000000E+00
