Mo3C2Br2  (n=2)
1.00000000000000
3.1705700726048001  0.0000000000000001  0.0000000000000000
-1.5852850363023998  2.7457942277625156  -0.0000000000000000
0.0000000000000002  -0.0000000000000000  33.8454856195620266
Mo  C  Br
3  2  2
Selective  dynamics
Direct
0.0000000000000000  -0.0000000000000000  0.0602638792601723  T  T  T
0.6666666666666643  0.3333333333333357  0.1306745265674331  T  T  T
0.3333333333333357  0.6666666666666643  0.2010851738746868  T  T  T
0.3333333333333357  0.6666666666666643  0.0922575953919559  T  T  T
-0.0000000000000000  0.0000000000000000  0.1690914577429102  T  T  T
0.3333333333333357  0.6666666666666643  0.0000000000000000  T  T  T
-0.0000000000000000  0.0000000000000000  0.2613490531348592  T  T  T

0.00000000E+00  0.00000000E+00  0.00000000E+00
0.00000000E+00  0.00000000E+00  0.00000000E+00
0.00000000E+00  0.00000000E+00  0.00000000E+00
0.00000000E+00  0.00000000E+00  0.00000000E+00
0.00000000E+00  0.00000000E+00  0.00000000E+00
0.00000000E+00  0.00000000E+00  0.00000000E+00
0.00000000E+00  0.00000000E+00  0.00000000E+00
