Nb3N2Br2  (n=2)
1.00000000000000
3.2193650239650440  -0.0000000000000006  0.0000000000000000
-1.6096825119825227  2.7880518953271851  0.0000000000000001
-0.0000000000000002  -0.0000000000000001  33.9601295143800925
Nb  N  Br
3  2  2
Selective  dynamics
Direct
0.0000000000000000  0.0000000000000000  0.0589655209702220  T  T  T
0.6666666666666643  0.3333333333333357  0.1319213095254280  T  T  T
0.3333333333333357  0.6666666666666643  0.2048770980806273  T  T  T
0.3333333333333357  0.6666666666666643  0.0937491204292762  T  T  T
0.0000000000000000  0.0000000000000000  0.1700934986215799  T  T  T
0.3333333333333357  0.6666666666666643  0.0000000000000000  T  T  T
0.0000000000000000  0.0000000000000000  0.2638426190508494  T  T  T

0.00000000E+00  0.00000000E+00  0.00000000E+00
0.00000000E+00  0.00000000E+00  0.00000000E+00
0.00000000E+00  0.00000000E+00  0.00000000E+00
0.00000000E+00  0.00000000E+00  0.00000000E+00
0.00000000E+00  0.00000000E+00  0.00000000E+00
0.00000000E+00  0.00000000E+00  0.00000000E+00
0.00000000E+00  0.00000000E+00  0.00000000E+00
