Sc3N2Br2  (n=2)
1.00000000000000
3.3282712435471682  0.0000000000000001  -0.0000000000000002
-1.6641356217735843  2.8823674480993628  0.0000000000000002
-0.0000000000000020  0.0000000000000004  33.8588480156134182
Sc  N  Br
3  2  2
Selective  dynamics
Direct
-0.0000000000000000  0.0000000000000000  0.0574480190433794  T  T  T
0.6666666666666643  0.3333333333333357  0.1308202808838701  T  T  T
0.3333333333333357  0.6666666666666643  0.2041925427243543  T  T  T
0.3333333333333357  0.6666666666666643  0.0919626451652323  T  T  T
0.0000000000000000  0.0000000000000000  0.1696779166025077  T  T  T
0.3333333333333357  0.6666666666666643  0.0000000000000000  T  T  T
-0.0000000000000000  -0.0000000000000000  0.2616405617677338  T  T  T

0.00000000E+00  0.00000000E+00  0.00000000E+00
0.00000000E+00  0.00000000E+00  0.00000000E+00
0.00000000E+00  0.00000000E+00  0.00000000E+00
0.00000000E+00  0.00000000E+00  0.00000000E+00
0.00000000E+00  0.00000000E+00  0.00000000E+00
0.00000000E+00  0.00000000E+00  0.00000000E+00
0.00000000E+00  0.00000000E+00  0.00000000E+00
