Hf3N2Br2  (n=2)
1.00000000000000
3.2771271582628860  -0.0000000000000004  0.0000000000000000
-1.6385635791314428  2.8380753710969611  0.0000000000000000
0.0000000000000001  -0.0000000000000008  34.0770450672162042
Hf  N  Br
3  2  2
Selective  dynamics
Direct
0.0000000000000000  -0.0000000000000000  0.0572964688714438  T  T  T
0.6666666666666643  0.3333333333333357  0.1331841573897055  T  T  T
0.3333333333333357  0.6666666666666643  0.2090718459079607  T  T  T
0.3333333333333357  0.6666666666666643  0.0963022629721144  T  T  T
0.0000000000000000  -0.0000000000000000  0.1700660518072966  T  T  T
0.3333333333333357  0.6666666666666643  0.0000000000000000  T  T  T
-0.0000000000000000  -0.0000000000000000  0.2663683147794045  T  T  T

0.00000000E+00  0.00000000E+00  0.00000000E+00
0.00000000E+00  0.00000000E+00  0.00000000E+00
0.00000000E+00  0.00000000E+00  0.00000000E+00
0.00000000E+00  0.00000000E+00  0.00000000E+00
0.00000000E+00  0.00000000E+00  0.00000000E+00
0.00000000E+00  0.00000000E+00  0.00000000E+00
0.00000000E+00  0.00000000E+00  0.00000000E+00
