Nb4N3  (n=3)
1.00000000000000
2.9788452207513165  0.0000000000000000  0.0000000000000000
-1.4894226103756583  2.5797556353391449  0.0000000000000000
0.0000000000000000  0.0000000000000000  36.0863692401086524
Nb  N  O
4  3  2
Selective  dynamics
Direct
0.0000000000000000  0.0000000000000000  0.0324724961649502  T  T  T
0.0000000000000000  0.0000000000000000  0.1132638940264821  T  T  T
0.0000000000000000  0.0000000000000000  0.1939537472480676  T  T  T
0.0000000000000000  0.0000000000000000  0.2747451451095996  T  T  T
0.3333333333333357  0.6666666666666643  0.0744329722741991  T  T  T
0.3333333333333357  0.6666666666666643  0.1536088206372711  T  T  T
0.3333333333333357  0.6666666666666643  0.2327846690003432  T  T  T
0.6666666666666643  0.3333333333333357  0.0000000000000000  T  T  T
0.6666666666666643  0.3333333333333357  0.3072176412745498  T  T  T

0.00000000E+00  0.00000000E+00  0.00000000E+00
0.00000000E+00  0.00000000E+00  0.00000000E+00
0.00000000E+00  0.00000000E+00  0.00000000E+00
0.00000000E+00  0.00000000E+00  0.00000000E+00
0.00000000E+00  0.00000000E+00  0.00000000E+00
0.00000000E+00  0.00000000E+00  0.00000000E+00
0.00000000E+00  0.00000000E+00  0.00000000E+00
0.00000000E+00  0.00000000E+00  0.00000000E+00
0.00000000E+00  0.00000000E+00  0.00000000E+00
