Ta4N3  (n=3)
1.00000000000000
2.9555725736513470  0.0000000000000000  0.0000000000000000
-1.4777862868256735  2.5596009316753556  0.0000000000000000
0.0000000000000000  0.0000000000000000  36.0825685576080133
Ta  N  O
4  3  2
Selective  dynamics
Direct
0.0000000000000000  0.0000000000000000  0.0325793938617039  T  T  T
0.0000000000000000  0.0000000000000000  0.1132559981220191  T  T  T
0.0000000000000000  0.0000000000000000  0.1938886703600338  T  T  T
0.0000000000000000  0.0000000000000000  0.2745652746203565  T  T  T
0.3333333333333357  0.6666666666666643  0.0740860735387809  T  T  T
0.3333333333333357  0.6666666666666643  0.1535723342410304  T  T  T
0.3333333333333357  0.6666666666666643  0.2330585949432797  T  T  T
0.6666666666666643  0.3333333333333357  0.0000000000000000  T  T  T
0.6666666666666643  0.3333333333333357  0.3071446684820682  T  T  T

0.00000000E+00  0.00000000E+00  0.00000000E+00
0.00000000E+00  0.00000000E+00  0.00000000E+00
0.00000000E+00  0.00000000E+00  0.00000000E+00
0.00000000E+00  0.00000000E+00  0.00000000E+00
0.00000000E+00  0.00000000E+00  0.00000000E+00
0.00000000E+00  0.00000000E+00  0.00000000E+00
0.00000000E+00  0.00000000E+00  0.00000000E+00
0.00000000E+00  0.00000000E+00  0.00000000E+00
0.00000000E+00  0.00000000E+00  0.00000000E+00
