Cr4C3  (n=3)
1.00000000000000
2.6955753276243737  0.0000000000000000  0.0000000000000000
-1.3477876638121868  2.3344367115271982  0.0000000000000000
0.0000000000000000  0.0000000000000000  35.1066126636897380
Cr  C  O
4  3  2
Selective  dynamics
Direct
0.0000000000000000  0.0000000000000000  0.0310705187668140  T  T  T
0.0000000000000000  0.0000000000000000  0.1062650949185450  T  T  T
0.0000000000000000  0.0000000000000000  0.1816183520123042  T  T  T
0.0000000000000000  0.0000000000000000  0.2568129281640504  T  T  T
0.3333333333333357  0.6666666666666643  0.0699328211971555  T  T  T
0.3333333333333357  0.6666666666666643  0.1439417234654323  T  T  T
0.3333333333333357  0.6666666666666643  0.2179506257337014  T  T  T
0.6666666666666643  0.3333333333333357  0.0000000000000000  T  T  T
0.6666666666666643  0.3333333333333357  0.2878834469308644  T  T  T

0.00000000E+00  0.00000000E+00  0.00000000E+00
0.00000000E+00  0.00000000E+00  0.00000000E+00
0.00000000E+00  0.00000000E+00  0.00000000E+00
0.00000000E+00  0.00000000E+00  0.00000000E+00
0.00000000E+00  0.00000000E+00  0.00000000E+00
0.00000000E+00  0.00000000E+00  0.00000000E+00
0.00000000E+00  0.00000000E+00  0.00000000E+00
0.00000000E+00  0.00000000E+00  0.00000000E+00
0.00000000E+00  0.00000000E+00  0.00000000E+00
