Zr4N3  (n=3)
1.00000000000000
3.2046179853293957  0.0000000000000003  0.0000000000000000
-1.6023089926646978  2.7752805851477858  0.0000000000000000
0.0000000000000000  0.0000000000000000  35.7205069277397982
Zr  N  O
4  3  2
Selective  dynamics
Direct
0.0000000000000000  0.0000000000000000  0.0276045151921153  T  T  T
0.0000000000000000  0.0000000000000000  0.1092163900083649  T  T  T
0.0000000000000000  0.0000000000000000  0.1909055245385478  T  T  T
0.0000000000000000  0.0000000000000000  0.2725173993547972  T  T  T
0.3333333333333357  0.6666666666666643  0.0664440190560023  T  T  T
0.3333333333333357  0.6666666666666643  0.1500609572734564  T  T  T
0.3333333333333357  0.6666666666666643  0.2336778954909104  T  T  T
0.6666666666666643  0.3333333333333357  0.0000000000000000  T  T  T
0.6666666666666643  0.3333333333333357  0.3001219145469203  T  T  T

0.00000000E+00  0.00000000E+00  0.00000000E+00
0.00000000E+00  0.00000000E+00  0.00000000E+00
0.00000000E+00  0.00000000E+00  0.00000000E+00
0.00000000E+00  0.00000000E+00  0.00000000E+00
0.00000000E+00  0.00000000E+00  0.00000000E+00
0.00000000E+00  0.00000000E+00  0.00000000E+00
0.00000000E+00  0.00000000E+00  0.00000000E+00
0.00000000E+00  0.00000000E+00  0.00000000E+00
0.00000000E+00  0.00000000E+00  0.00000000E+00
