Cr4N3  (n=3)
1.00000000000000
2.6784714005598462  0.0000000000000000  0.0000000000000000
-1.3392357002799231  2.3196242761961430  0.0000000000000000
0.0000000000000000  0.0000000000000000  34.9956744158109103
Cr  N  O
4  3  2
Selective  dynamics
Direct
0.0000000000000000  0.0000000000000000  0.0310588290470951  T  T  T
0.0000000000000000  0.0000000000000000  0.1054622152307271  T  T  T
0.0000000000000000  0.0000000000000000  0.1801637823438447  T  T  T
0.0000000000000000  0.0000000000000000  0.2545671685274765  T  T  T
0.3333333333333357  0.6666666666666643  0.0701611764011786  T  T  T
0.3333333333333357  0.6666666666666643  0.1428129987872858  T  T  T
0.3333333333333357  0.6666666666666643  0.2154648211733853  T  T  T
0.6666666666666643  0.3333333333333357  0.0000000000000000  T  T  T
0.6666666666666643  0.3333333333333357  0.2856259975745717  T  T  T

0.00000000E+00  0.00000000E+00  0.00000000E+00
0.00000000E+00  0.00000000E+00  0.00000000E+00
0.00000000E+00  0.00000000E+00  0.00000000E+00
0.00000000E+00  0.00000000E+00  0.00000000E+00
0.00000000E+00  0.00000000E+00  0.00000000E+00
0.00000000E+00  0.00000000E+00  0.00000000E+00
0.00000000E+00  0.00000000E+00  0.00000000E+00
0.00000000E+00  0.00000000E+00  0.00000000E+00
0.00000000E+00  0.00000000E+00  0.00000000E+00
