Hf4N3  (n=3)
1.00000000000000
3.1488392844586488  -0.0000000000000004  0.0000000000000000
-1.5744196422293244  2.7269748131133853  0.0000000000000000
0.0000000000000000  0.0000000000000000  35.5941853681436484
Hf  N  O
4  3  2
Selective  dynamics
Direct
0.0000000000000000  0.0000000000000000  0.0273500263073228  T  T  T
0.0000000000000000  0.0000000000000000  0.1083257342315160  T  T  T
0.0000000000000000  0.0000000000000000  0.1893123563321630  T  T  T
0.0000000000000000  0.0000000000000000  0.2702880642563562  T  T  T
0.3333333333333357  0.6666666666666643  0.0653268613881272  T  T  T
0.3333333333333357  0.6666666666666643  0.1488190452818357  T  T  T
0.3333333333333357  0.6666666666666643  0.2323112291755441  T  T  T
0.6666666666666643  0.3333333333333357  0.0000000000000000  T  T  T
0.6666666666666643  0.3333333333333357  0.2976380905636715  T  T  T

0.00000000E+00  0.00000000E+00  0.00000000E+00
0.00000000E+00  0.00000000E+00  0.00000000E+00
0.00000000E+00  0.00000000E+00  0.00000000E+00
0.00000000E+00  0.00000000E+00  0.00000000E+00
0.00000000E+00  0.00000000E+00  0.00000000E+00
0.00000000E+00  0.00000000E+00  0.00000000E+00
0.00000000E+00  0.00000000E+00  0.00000000E+00
0.00000000E+00  0.00000000E+00  0.00000000E+00
0.00000000E+00  0.00000000E+00  0.00000000E+00
