Nb4C3  (n=3)
1.00000000000000
3.0938027401689743  0.0000000000000001  0.0000000000000000
-1.5469013700844871  2.6793117676134459  0.0000000000000000
0.0000000000000000  0.0000000000000000  35.6923407273060533
Nb  C  O
4  3  2
Selective  dynamics
Direct
0.0000000000000000  0.0000000000000000  0.0300574576830219  T  T  T
0.0000000000000000  0.0000000000000000  0.1095938156778970  T  T  T
0.0000000000000000  0.0000000000000000  0.1899757981223543  T  T  T
0.0000000000000000  0.0000000000000000  0.2695121561172295  T  T  T
0.3333333333333357  0.6666666666666643  0.0683142728853411  T  T  T
0.3333333333333357  0.6666666666666643  0.1497848069001218  T  T  T
0.3333333333333357  0.6666666666666643  0.2312553409149024  T  T  T
0.6666666666666643  0.3333333333333357  0.0000000000000000  T  T  T
0.6666666666666643  0.3333333333333357  0.2995696138002513  T  T  T

0.00000000E+00  0.00000000E+00  0.00000000E+00
0.00000000E+00  0.00000000E+00  0.00000000E+00
0.00000000E+00  0.00000000E+00  0.00000000E+00
0.00000000E+00  0.00000000E+00  0.00000000E+00
0.00000000E+00  0.00000000E+00  0.00000000E+00
0.00000000E+00  0.00000000E+00  0.00000000E+00
0.00000000E+00  0.00000000E+00  0.00000000E+00
0.00000000E+00  0.00000000E+00  0.00000000E+00
0.00000000E+00  0.00000000E+00  0.00000000E+00
