Ti4C3  (n=3)
1.00000000000000
3.0319430666608493  0.0000000000000000  0.0000000000000000
-1.5159715333304247  2.6257397186804319  0.0000000000000000
0.0000000000000000  0.0000000000000000  34.9439695226665421
Ti  C  O
4  3  2
Selective  dynamics
Direct
0.0000000000000000  0.0000000000000000  0.0249345507592373  T  T  T
0.0000000000000000  0.0000000000000000  0.1032257489672872  T  T  T
0.0000000000000000  0.0000000000000000  0.1813432241202250  T  T  T
0.0000000000000000  0.0000000000000000  0.2596344223282749  T  T  T
0.3333333333333357  0.6666666666666643  0.0647891573574062  T  T  T
0.3333333333333357  0.6666666666666643  0.1422844865437562  T  T  T
0.3333333333333357  0.6666666666666643  0.2197798157300979  T  T  T
0.6666666666666643  0.3333333333333357  0.0000000000000000  T  T  T
0.6666666666666643  0.3333333333333357  0.2845689730875122  T  T  T

0.00000000E+00  0.00000000E+00  0.00000000E+00
0.00000000E+00  0.00000000E+00  0.00000000E+00
0.00000000E+00  0.00000000E+00  0.00000000E+00
0.00000000E+00  0.00000000E+00  0.00000000E+00
0.00000000E+00  0.00000000E+00  0.00000000E+00
0.00000000E+00  0.00000000E+00  0.00000000E+00
0.00000000E+00  0.00000000E+00  0.00000000E+00
0.00000000E+00  0.00000000E+00  0.00000000E+00
0.00000000E+00  0.00000000E+00  0.00000000E+00
