Sc4C3  (n=3)
1.00000000000000
3.2994905913927526  0.0000000000000000  0.0000000000000000
-1.6497452956963763  2.8574426720097237  0.0000000000000000
0.0000000000000000  0.0000000000000000  35.2354965150093804
Sc  C  O
4  3  2
Selective  dynamics
Direct
0.0000000000000000  0.0000000000000000  0.0193956406445456  T  T  T
0.0000000000000000  0.0000000000000000  0.1057324115337825  T  T  T
0.0000000000000000  0.0000000000000000  0.1847558042530828  T  T  T
0.0000000000000000  0.0000000000000000  0.2710925751423197  T  T  T
0.3333333333333357  0.6666666666666643  0.0691881972547754  T  T  T
0.3333333333333357  0.6666666666666643  0.1452441078934285  T  T  T
0.3333333333333357  0.6666666666666643  0.2213000185320738  T  T  T
0.6666666666666643  0.3333333333333357  0.0000000000000000  T  T  T
0.6666666666666643  0.3333333333333357  0.2904882157868652  T  T  T

0.00000000E+00  0.00000000E+00  0.00000000E+00
0.00000000E+00  0.00000000E+00  0.00000000E+00
0.00000000E+00  0.00000000E+00  0.00000000E+00
0.00000000E+00  0.00000000E+00  0.00000000E+00
0.00000000E+00  0.00000000E+00  0.00000000E+00
0.00000000E+00  0.00000000E+00  0.00000000E+00
0.00000000E+00  0.00000000E+00  0.00000000E+00
0.00000000E+00  0.00000000E+00  0.00000000E+00
0.00000000E+00  0.00000000E+00  0.00000000E+00
