Ti4N3  (n=3)
1.00000000000000
2.9385715790066067  0.0000000000000000  0.0000000000000000
-1.4692857895033034  2.5448776383176219  0.0000000000000000
0.0000000000000000  0.0000000000000000  34.9241700847264340
Ti  N  O
4  3  2
Selective  dynamics
Direct
0.0000000000000000  0.0000000000000000  0.0269500271071645  T  T  T
0.0000000000000000  0.0000000000000000  0.1036097148320048  T  T  T
0.0000000000000000  0.0000000000000000  0.1805536614386569  T  T  T
0.0000000000000000  0.0000000000000000  0.2572133491634970  T  T  T
0.3333333333333357  0.6666666666666643  0.0644810374109251  T  T  T
0.3333333333333357  0.6666666666666643  0.1420816881353308  T  T  T
0.3333333333333357  0.6666666666666643  0.2196823388597210  T  T  T
0.6666666666666643  0.3333333333333357  0.0000000000000000  T  T  T
0.6666666666666643  0.3333333333333357  0.2841633762706539  T  T  T

0.00000000E+00  0.00000000E+00  0.00000000E+00
0.00000000E+00  0.00000000E+00  0.00000000E+00
0.00000000E+00  0.00000000E+00  0.00000000E+00
0.00000000E+00  0.00000000E+00  0.00000000E+00
0.00000000E+00  0.00000000E+00  0.00000000E+00
0.00000000E+00  0.00000000E+00  0.00000000E+00
0.00000000E+00  0.00000000E+00  0.00000000E+00
0.00000000E+00  0.00000000E+00  0.00000000E+00
0.00000000E+00  0.00000000E+00  0.00000000E+00
