Hf4C3  (n=3)
1.00000000000000
3.2383685438852874  0.0000000000000000  0.0000000000000000
-1.6191842719426437  2.8045094265989943  0.0000000000000000
0.0000000000000000  0.0000000000000000  35.6317359972960404
Hf  C  O
4  3  2
Selective  dynamics
Direct
0.0000000000000000  0.0000000000000000  0.0256376929301875  T  T  T
0.0000000000000000  0.0000000000000000  0.1079072574500099  T  T  T
0.0000000000000000  0.0000000000000000  0.1904710196595546  T  T  T
0.0000000000000000  0.0000000000000000  0.2727405841793850  T  T  T
0.3333333333333357  0.6666666666666643  0.0666014372424759  T  T  T
0.3333333333333357  0.6666666666666643  0.1491891385547822  T  T  T
0.3333333333333357  0.6666666666666643  0.2317768398670807  T  T  T
0.6666666666666643  0.3333333333333357  0.0000000000000000  T  T  T
0.6666666666666643  0.3333333333333357  0.2983782771095645  T  T  T

0.00000000E+00  0.00000000E+00  0.00000000E+00
0.00000000E+00  0.00000000E+00  0.00000000E+00
0.00000000E+00  0.00000000E+00  0.00000000E+00
0.00000000E+00  0.00000000E+00  0.00000000E+00
0.00000000E+00  0.00000000E+00  0.00000000E+00
0.00000000E+00  0.00000000E+00  0.00000000E+00
0.00000000E+00  0.00000000E+00  0.00000000E+00
0.00000000E+00  0.00000000E+00  0.00000000E+00
0.00000000E+00  0.00000000E+00  0.00000000E+00
