Sc4N3  (n=3)
1.00000000000000
3.1892754946561364  0.0000000000000000  0.0000000000000000
-1.5946377473280682  2.7619935983332575  0.0000000000000000
0.0000000000000000  0.0000000000000000  35.0887305781824494
Sc  N  O
4  3  2
Selective  dynamics
Direct
0.0000000000000000  0.0000000000000000  0.0216228186208514  T  T  T
0.0000000000000000  0.0000000000000000  0.1032197608648417  T  T  T
0.0000000000000000  0.0000000000000000  0.1843007738465350  T  T  T
0.0000000000000000  0.0000000000000000  0.2658977160905253  T  T  T
0.3333333333333357  0.6666666666666643  0.0685075752275951  T  T  T
0.3333333333333357  0.6666666666666643  0.1437602673556844  T  T  T
0.3333333333333357  0.6666666666666643  0.2190129594837738  T  T  T
0.6666666666666643  0.3333333333333357  0.0000000000000000  T  T  T
0.6666666666666643  0.3333333333333357  0.2875205347113765  T  T  T

0.00000000E+00  0.00000000E+00  0.00000000E+00
0.00000000E+00  0.00000000E+00  0.00000000E+00
0.00000000E+00  0.00000000E+00  0.00000000E+00
0.00000000E+00  0.00000000E+00  0.00000000E+00
0.00000000E+00  0.00000000E+00  0.00000000E+00
0.00000000E+00  0.00000000E+00  0.00000000E+00
0.00000000E+00  0.00000000E+00  0.00000000E+00
0.00000000E+00  0.00000000E+00  0.00000000E+00
0.00000000E+00  0.00000000E+00  0.00000000E+00
