Ta4C3  (n=3)
1.00000000000000
3.0768462805154955  0.0000000000000000  0.0000000000000000
-1.5384231402577477  2.6646270428568988  0.0000000000000000
0.0000000000000000  0.0000000000000000  35.6509297603513886
Ta  C  O
4  3  2
Selective  dynamics
Direct
0.0000000000000000  0.0000000000000000  0.0300353161056668  T  T  T
0.0000000000000000  0.0000000000000000  0.1092129422512525  T  T  T
0.0000000000000000  0.0000000000000000  0.1895430742663489  T  T  T
0.0000000000000000  0.0000000000000000  0.2687207004119347  T  T  T
0.3333333333333357  0.6666666666666643  0.0676117492570052  T  T  T
0.3333333333333357  0.6666666666666643  0.1493780082588007  T  T  T
0.3333333333333357  0.6666666666666643  0.2311442672605884  T  T  T
0.6666666666666643  0.3333333333333357  0.0000000000000000  T  T  T
0.6666666666666643  0.3333333333333357  0.2987560165176014  T  T  T

0.00000000E+00  0.00000000E+00  0.00000000E+00
0.00000000E+00  0.00000000E+00  0.00000000E+00
0.00000000E+00  0.00000000E+00  0.00000000E+00
0.00000000E+00  0.00000000E+00  0.00000000E+00
0.00000000E+00  0.00000000E+00  0.00000000E+00
0.00000000E+00  0.00000000E+00  0.00000000E+00
0.00000000E+00  0.00000000E+00  0.00000000E+00
0.00000000E+00  0.00000000E+00  0.00000000E+00
0.00000000E+00  0.00000000E+00  0.00000000E+00
