Mo4C3  (n=3)
1.00000000000000
2.9106548163235590  0.0000000000000000  0.0000000000000000
-1.4553274081617795  2.5207010127074296  0.0000000000000000
0.0000000000000000  0.0000000000000000  35.9237598509049647
Mo  C  O
4  3  2
Selective  dynamics
Direct
0.0000000000000000  0.0000000000000000  0.0330703239923146  T  T  T
0.0000000000000000  0.0000000000000000  0.1122869723696693  T  T  T
0.0000000000000000  0.0000000000000000  0.1917947801039675  T  T  T
0.0000000000000000  0.0000000000000000  0.2710114284813218  T  T  T
0.3333333333333357  0.6666666666666643  0.0739798172335853  T  T  T
0.3333333333333357  0.6666666666666643  0.1520408762368145  T  T  T
0.3333333333333357  0.6666666666666643  0.2301019352400434  T  T  T
0.6666666666666643  0.3333333333333357  0.0000000000000000  T  T  T
0.6666666666666643  0.3333333333333357  0.3040817524736287  T  T  T

0.00000000E+00  0.00000000E+00  0.00000000E+00
0.00000000E+00  0.00000000E+00  0.00000000E+00
0.00000000E+00  0.00000000E+00  0.00000000E+00
0.00000000E+00  0.00000000E+00  0.00000000E+00
0.00000000E+00  0.00000000E+00  0.00000000E+00
0.00000000E+00  0.00000000E+00  0.00000000E+00
0.00000000E+00  0.00000000E+00  0.00000000E+00
0.00000000E+00  0.00000000E+00  0.00000000E+00
0.00000000E+00  0.00000000E+00  0.00000000E+00
