Zr4C3  (n=3)
1.00000000000000
3.2962747384985551  0.0000000000000000  0.0000000000000000
-1.6481373692492776  2.8546576625548270  0.0000000000000000
0.0000000000000000  0.0000000000000000  35.7484813261354759
Zr  C  O
4  3  2
Selective  dynamics
Direct
0.0000000000000000  0.0000000000000000  0.0256250094563562  T  T  T
0.0000000000000000  0.0000000000000000  0.1088024506750365  T  T  T
0.0000000000000000  0.0000000000000000  0.1918671421973557  T  T  T
0.0000000000000000  0.0000000000000000  0.2750445834160362  T  T  T
0.3333333333333357  0.6666666666666643  0.0673859428231695  T  T  T
0.3333333333333357  0.6666666666666643  0.1503347964361922  T  T  T
0.3333333333333357  0.6666666666666643  0.2332836500492148  T  T  T
0.6666666666666643  0.3333333333333357  0.0000000000000000  T  T  T
0.6666666666666643  0.3333333333333357  0.3006695928723924  T  T  T

0.00000000E+00  0.00000000E+00  0.00000000E+00
0.00000000E+00  0.00000000E+00  0.00000000E+00
0.00000000E+00  0.00000000E+00  0.00000000E+00
0.00000000E+00  0.00000000E+00  0.00000000E+00
0.00000000E+00  0.00000000E+00  0.00000000E+00
0.00000000E+00  0.00000000E+00  0.00000000E+00
0.00000000E+00  0.00000000E+00  0.00000000E+00
0.00000000E+00  0.00000000E+00  0.00000000E+00
0.00000000E+00  0.00000000E+00  0.00000000E+00
