Mo4N3  (n=3)
1.00000000000000
2.8647641790084326  -0.0000000000000003  0.0000000000000000
-1.4323820895042163  2.4809585549357016  0.0000000000000000
0.0000000000000000  0.0000000000000000  36.0339446903615084
Mo  N  O
4  3  2
Selective  dynamics
Direct
0.0000000000000000  0.0000000000000000  0.0334485789355111  T  T  T
0.0000000000000000  0.0000000000000000  0.1130014789788622  T  T  T
0.0000000000000000  0.0000000000000000  0.1932082570124681  T  T  T
0.0000000000000000  0.0000000000000000  0.2727611570558190  T  T  T
0.3333333333333357  0.6666666666666643  0.0762687624021088  T  T  T
0.3333333333333357  0.6666666666666643  0.1531048679956613  T  T  T
0.3333333333333357  0.6666666666666643  0.2299409735892059  T  T  T
0.6666666666666643  0.3333333333333357  0.0000000000000000  T  T  T
0.6666666666666643  0.3333333333333357  0.3062097359913224  T  T  T

0.00000000E+00  0.00000000E+00  0.00000000E+00
0.00000000E+00  0.00000000E+00  0.00000000E+00
0.00000000E+00  0.00000000E+00  0.00000000E+00
0.00000000E+00  0.00000000E+00  0.00000000E+00
0.00000000E+00  0.00000000E+00  0.00000000E+00
0.00000000E+00  0.00000000E+00  0.00000000E+00
0.00000000E+00  0.00000000E+00  0.00000000E+00
0.00000000E+00  0.00000000E+00  0.00000000E+00
0.00000000E+00  0.00000000E+00  0.00000000E+00
