Nb3N2  (n=2)
1.00000000000000
3.2052786334294723  0.0000000000000000  0.0000000000000000
-1.6026393167147361  2.7758527229637822  0.0000000000000000
0.0000000000000001  0.0000000000000006  34.9086478438591570
Nb  N  I
3  2  2
Selective  dynamics
Direct
-0.0000000000000000  -0.0000000000000000  0.0609957855078897  T  T  T
-0.0000000000000000  -0.0000000000000000  0.1411720346506439  T  T  T
-0.0000000000000000  -0.0000000000000000  0.2216056125350556  T  T  T
0.3333333333333357  0.6666666666666643  0.0997133842112719  T  T  T
0.3333333333333357  0.6666666666666643  0.1803566981265035  T  T  T
0.3333333333333357  0.6666666666666643  0.0000000000000000  T  T  T
0.6666666666666643  0.3333333333333357  0.2838450772478776  T  T  T

0.00000000E+00  0.00000000E+00  0.00000000E+00
0.00000000E+00  0.00000000E+00  0.00000000E+00
0.00000000E+00  0.00000000E+00  0.00000000E+00
0.00000000E+00  0.00000000E+00  0.00000000E+00
0.00000000E+00  0.00000000E+00  0.00000000E+00
0.00000000E+00  0.00000000E+00  0.00000000E+00
0.00000000E+00  0.00000000E+00  0.00000000E+00
