Sc3C2  (n=2)
1.00000000000000
3.4863997441049732  0.0000000000000000  0.0000000000000000
-1.7431998720524866  3.0193107468147988  -0.0000000000000001
0.0000000000000002  0.0000000000000009  34.9127614927264887
Sc  C  I
3  2  2
Selective  dynamics
Direct
0.0000000000000000  0.0000000000000000  0.0636969413084299  T  T  T
0.0000000000000000  0.0000000000000000  0.1417855656243689  T  T  T
0.0000000000000000  0.0000000000000000  0.2202944456629380  T  T  T
0.3333333333333357  0.6666666666666643  0.0988971618758543  T  T  T
0.3333333333333357  0.6666666666666643  0.1862534211781370  T  T  T
0.3333333333333357  0.6666666666666643  0.0000000000000000  T  T  T
0.6666666666666643  0.3333333333333357  0.2839294592835818  T  T  T

0.00000000E+00  0.00000000E+00  0.00000000E+00
0.00000000E+00  0.00000000E+00  0.00000000E+00
0.00000000E+00  0.00000000E+00  0.00000000E+00
0.00000000E+00  0.00000000E+00  0.00000000E+00
0.00000000E+00  0.00000000E+00  0.00000000E+00
0.00000000E+00  0.00000000E+00  0.00000000E+00
0.00000000E+00  0.00000000E+00  0.00000000E+00
