Ti3C2  (n=2)
1.00000000000000
3.3387574335953043  0.0000000000000005  0.0000000000000001
-1.6693787167976519  2.8914487550084798  -0.0000000000000001
0.0000000000000008  0.0000000000000000  34.1469325225363605
Ti  C  I
3  2  2
Selective  dynamics
Direct
0.0000000000000000  -0.0000000000000000  0.0612352743347380  T  T  T
-0.0000000000000000  0.0000000000000000  0.1348843345913546  T  T  T
-0.0000000000000000  -0.0000000000000000  0.2075521092433041  T  T  T
0.3333333333333357  0.6666666666666643  0.0940579632862256  T  T  T
0.3333333333333357  0.6666666666666643  0.1763692022491852  T  T  T
0.3333333333333357  0.6666666666666643  0.0000000000000000  T  T  T
0.6666666666666643  0.3333333333333357  0.2678698157294086  T  T  T

0.00000000E+00  0.00000000E+00  0.00000000E+00
0.00000000E+00  0.00000000E+00  0.00000000E+00
0.00000000E+00  0.00000000E+00  0.00000000E+00
0.00000000E+00  0.00000000E+00  0.00000000E+00
0.00000000E+00  0.00000000E+00  0.00000000E+00
0.00000000E+00  0.00000000E+00  0.00000000E+00
0.00000000E+00  0.00000000E+00  0.00000000E+00
