Hf3N2  (n=2)
1.00000000000000
3.3298507111975861  -0.0000000000000001  0.0000000000000000
-1.6649253555987931  2.8837353073640291  -0.0000000000000000
0.0000000000000003  -0.0000000000000004  34.9478266723580901
Hf  N  I
3  2  2
Selective  dynamics
Direct
-0.0000000000000000  0.0000000000000000  0.0607154022357094  T  T  T
-0.0000000000000000  0.0000000000000000  0.1421174327088723  T  T  T
0.0000000000000000  -0.0000000000000000  0.2234076408382866  T  T  T
0.3333333333333357  0.6666666666666643  0.1000555351242284  T  T  T
0.3333333333333357  0.6666666666666643  0.1835731355580682  T  T  T
0.3333333333333357  0.6666666666666643  0.0000000000000000  T  T  T
0.6666666666666643  0.3333333333333357  0.2846479343514171  T  T  T

0.00000000E+00  0.00000000E+00  0.00000000E+00
0.00000000E+00  0.00000000E+00  0.00000000E+00
0.00000000E+00  0.00000000E+00  0.00000000E+00
0.00000000E+00  0.00000000E+00  0.00000000E+00
0.00000000E+00  0.00000000E+00  0.00000000E+00
0.00000000E+00  0.00000000E+00  0.00000000E+00
0.00000000E+00  0.00000000E+00  0.00000000E+00
