Mo3N2  (n=2)
1.00000000000000
3.1020409984746693  0.0000000000000001  0.0000000000000000
-1.5510204992373346  2.6864463083160244  0.0000000000000000
-0.0000000000000001  0.0000000000000003  34.8530968239575003
Mo  N  I
3  2  2
Selective  dynamics
Direct
0.0000000000000000  0.0000000000000000  0.0645782814590090  T  T  T
0.0000000000000000  0.0000000000000000  0.1412577803866347  T  T  T
0.0000000000000000  0.0000000000000000  0.2183196406848772  T  T  T
0.3333333333333357  0.6666666666666643  0.1009043804218871  T  T  T
0.3333333333333357  0.6666666666666643  0.1797755369208530  T  T  T
0.3333333333333357  0.6666666666666643  0.0000000000000000  T  T  T
0.6666666666666643  0.3333333333333357  0.2827036252682323  T  T  T

0.00000000E+00  0.00000000E+00  0.00000000E+00
0.00000000E+00  0.00000000E+00  0.00000000E+00
0.00000000E+00  0.00000000E+00  0.00000000E+00
0.00000000E+00  0.00000000E+00  0.00000000E+00
0.00000000E+00  0.00000000E+00  0.00000000E+00
0.00000000E+00  0.00000000E+00  0.00000000E+00
0.00000000E+00  0.00000000E+00  0.00000000E+00
