Cr3C2  (n=2)
1.00000000000000
3.2014680233787041  0.0000000000000001  0.0000000000000000
-1.6007340116893520  2.7725526376776677  0.0000000000000001
-0.0000000000000004  0.0000000000000004  33.8872744860907318
Cr  C  I
3  2  2
Selective  dynamics
Direct
0.0000000000000000  0.0000000000000000  0.0622069110324983  T  T  T
0.0000000000000000  0.0000000000000000  0.1318400411414631  T  T  T
0.0000000000000000  0.0000000000000000  0.2012668570364691  T  T  T
0.3333333333333357  0.6666666666666643  0.0936279683463664  T  T  T
0.3333333333333357  0.6666666666666643  0.1710702564929218  T  T  T
0.3333333333333357  0.6666666666666643  0.0000000000000000  T  T  T
0.6666666666666643  0.3333333333333357  0.2622599374210096  T  T  T

0.00000000E+00  0.00000000E+00  0.00000000E+00
0.00000000E+00  0.00000000E+00  0.00000000E+00
0.00000000E+00  0.00000000E+00  0.00000000E+00
0.00000000E+00  0.00000000E+00  0.00000000E+00
0.00000000E+00  0.00000000E+00  0.00000000E+00
0.00000000E+00  0.00000000E+00  0.00000000E+00
0.00000000E+00  0.00000000E+00  0.00000000E+00
