Ta3C2  (n=2)
1.00000000000000
3.2531856817107978  -0.0000000000000001  0.0000000000000000
-1.6265928408553987  2.8173414438779858  0.0000000000000000
0.0000000000000000  -0.0000000000000012  34.8415430635851351
Ta  C  I
3  2  2
Selective  dynamics
Direct
0.0000000000000000  0.0000000000000000  0.0607018228135416  T  T  T
0.0000000000000000  0.0000000000000000  0.1404297726701849  T  T  T
0.0000000000000000  0.0000000000000000  0.2203910619830550  T  T  T
0.3333333333333357  0.6666666666666643  0.0980469190358115  T  T  T
0.3333333333333357  0.6666666666666643  0.1820625309649659  T  T  T
0.3333333333333357  0.6666666666666643  0.0000000000000000  T  T  T
0.6666666666666643  0.3333333333333357  0.2824657635175490  T  T  T

0.00000000E+00  0.00000000E+00  0.00000000E+00
0.00000000E+00  0.00000000E+00  0.00000000E+00
0.00000000E+00  0.00000000E+00  0.00000000E+00
0.00000000E+00  0.00000000E+00  0.00000000E+00
0.00000000E+00  0.00000000E+00  0.00000000E+00
0.00000000E+00  0.00000000E+00  0.00000000E+00
0.00000000E+00  0.00000000E+00  0.00000000E+00
