Cr3N2  (n=2)
1.00000000000000
3.1691185356401115  -0.0000000000000002  -0.0000000000000001
-1.5845592678200557  2.7445371594688130  0.0000000000000001
-0.0000000000000006  0.0000000000000006  33.9771397625588065
Cr  N  I
3  2  2
Selective  dynamics
Direct
0.0000000000000000  -0.0000000000000000  0.0610701425203143  T  T  T
0.0000000000000000  -0.0000000000000000  0.1307398102309776  T  T  T
0.0000000000000000  -0.0000000000000000  0.2024000569971712  T  T  T
0.3333333333333357  0.6666666666666643  0.0918037863128753  T  T  T
0.3333333333333357  0.6666666666666643  0.1761036704412952  T  T  T
0.3333333333333357  0.6666666666666643  0.0000000000000000  T  T  T
0.6666666666666643  0.3333333333333357  0.2642111674288483  T  T  T

0.00000000E+00  0.00000000E+00  0.00000000E+00
0.00000000E+00  0.00000000E+00  0.00000000E+00
0.00000000E+00  0.00000000E+00  0.00000000E+00
0.00000000E+00  0.00000000E+00  0.00000000E+00
0.00000000E+00  0.00000000E+00  0.00000000E+00
0.00000000E+00  0.00000000E+00  0.00000000E+00
0.00000000E+00  0.00000000E+00  0.00000000E+00
