Mo3C2  (n=2)
1.00000000000000
3.1384485871641612  -0.0000000000000001  0.0000000000000000
-1.5692242935820806  2.7179762050788656  0.0000000000000000
0.0000000000000001  0.0000000000000004  34.8168919998087958
Mo  C  I
3  2  2
Selective  dynamics
Direct
0.0000000000000000  0.0000000000000000  0.0624205877721187  T  T  T
0.0000000000000000  0.0000000000000000  0.1406635726454718  T  T  T
0.0000000000000000  0.0000000000000000  0.2179325073397382  T  T  T
0.3333333333333357  0.6666666666666643  0.0992817417761068  T  T  T
0.3333333333333357  0.6666666666666643  0.1802750107681294  T  T  T
0.3333333333333357  0.6666666666666643  0.0000000000000000  T  T  T
0.6666666666666643  0.3333333333333357  0.2819577347645709  T  T  T

0.00000000E+00  0.00000000E+00  0.00000000E+00
0.00000000E+00  0.00000000E+00  0.00000000E+00
0.00000000E+00  0.00000000E+00  0.00000000E+00
0.00000000E+00  0.00000000E+00  0.00000000E+00
0.00000000E+00  0.00000000E+00  0.00000000E+00
0.00000000E+00  0.00000000E+00  0.00000000E+00
0.00000000E+00  0.00000000E+00  0.00000000E+00
