Nb3C2  (n=2)
1.00000000000000
3.2767595152987821  0.0000000000000000  0.0000000000000000
-1.6383797576493910  2.8377569824720004  0.0000000000000000
-0.0000000000000006  0.0000000000000001  34.8522966973097112
Nb  C  I
3  2  2
Selective  dynamics
Direct
-0.0000000000000000  -0.0000000000000000  0.0606572361054729  T  T  T
-0.0000000000000000  -0.0000000000000000  0.1405263612557361  T  T  T
-0.0000000000000000  0.0000000000000000  0.2206385740174166  T  T  T
0.3333333333333357  0.6666666666666643  0.0979806688874578  T  T  T
0.3333333333333357  0.6666666666666643  0.1818609237167994  T  T  T
0.3333333333333357  0.6666666666666643  0.0000000000000000  T  T  T
0.6666666666666643  0.3333333333333357  0.2826871578328501  T  T  T

0.00000000E+00  0.00000000E+00  0.00000000E+00
0.00000000E+00  0.00000000E+00  0.00000000E+00
0.00000000E+00  0.00000000E+00  0.00000000E+00
0.00000000E+00  0.00000000E+00  0.00000000E+00
0.00000000E+00  0.00000000E+00  0.00000000E+00
0.00000000E+00  0.00000000E+00  0.00000000E+00
0.00000000E+00  0.00000000E+00  0.00000000E+00
