Ti3N2  (n=2)
1.00000000000000
3.2407362689899517  0.0000000000000000  0.0000000000000000
-1.6203681344949759  2.8065599361333216  0.0000000000000000
0.0000000000000000  -0.0000000000000007  34.2200851857013362
Ti  N  I
3  2  2
Selective  dynamics
Direct
-0.0000000000000000  -0.0000000000000000  0.0597259643467240  T  T  T
-0.0000000000000000  -0.0000000000000000  0.1347866245405231  T  T  T
-0.0000000000000000  -0.0000000000000000  0.2090795003807905  T  T  T
0.3333333333333357  0.6666666666666643  0.0948640854227470  T  T  T
0.3333333333333357  0.6666666666666643  0.1757424503718167  T  T  T
0.3333333333333357  0.6666666666666643  0.0000000000000000  T  T  T
0.6666666666666643  0.3333333333333357  0.2694348987054508  T  T  T

0.00000000E+00  0.00000000E+00  0.00000000E+00
0.00000000E+00  0.00000000E+00  0.00000000E+00
0.00000000E+00  0.00000000E+00  0.00000000E+00
0.00000000E+00  0.00000000E+00  0.00000000E+00
0.00000000E+00  0.00000000E+00  0.00000000E+00
0.00000000E+00  0.00000000E+00  0.00000000E+00
0.00000000E+00  0.00000000E+00  0.00000000E+00
