Zr3C2  (n=2)
1.00000000000000
3.4947269972788146  0.0000000000000000  0.0000000000000000
-1.7473634986394073  3.0265223598378461  0.0000000000000000
0.0000000000000001  0.0000000000000002  34.9788400458652404
Zr  C  I
3  2  2
Selective  dynamics
Direct
-0.0000000000000000  -0.0000000000000000  0.0627110171285732  T  T  T
-0.0000000000000000  -0.0000000000000000  0.1427657450550529  T  T  T
-0.0000000000000000  -0.0000000000000000  0.2222559689634432  T  T  T
0.3333333333333357  0.6666666666666643  0.0990732714908115  T  T  T
0.3333333333333357  0.6666666666666643  0.1882481512761758  T  T  T
0.3333333333333357  0.6666666666666643  0.0000000000000000  T  T  T
0.6666666666666643  0.3333333333333357  0.2852821886826638  T  T  T

0.00000000E+00  0.00000000E+00  0.00000000E+00
0.00000000E+00  0.00000000E+00  0.00000000E+00
0.00000000E+00  0.00000000E+00  0.00000000E+00
0.00000000E+00  0.00000000E+00  0.00000000E+00
0.00000000E+00  0.00000000E+00  0.00000000E+00
0.00000000E+00  0.00000000E+00  0.00000000E+00
0.00000000E+00  0.00000000E+00  0.00000000E+00
