Ta3N2  (n=2)
1.00000000000000
3.1687939840961139  -0.0000000000000001  0.0000000000000000
-1.5843969920480565  2.7442560897717110  0.0000000000000000
0.0000000000000006  -0.0000000000000008  34.9635734145822568
Ta  N  I
3  2  2
Selective  dynamics
Direct
-0.0000000000000000  -0.0000000000000000  0.0614548301617497  T  T  T
-0.0000000000000000  -0.0000000000000000  0.1417574045166864  T  T  T
-0.0000000000000000  -0.0000000000000000  0.2227519112481923  T  T  T
0.3333333333333357  0.6666666666666643  0.1007565777344624  T  T  T
0.3333333333333357  0.6666666666666643  0.1808732456154496  T  T  T
0.3333333333333357  0.6666666666666643  0.0000000000000000  T  T  T
0.6666666666666643  0.3333333333333357  0.2849701115054433  T  T  T

0.00000000E+00  0.00000000E+00  0.00000000E+00
0.00000000E+00  0.00000000E+00  0.00000000E+00
0.00000000E+00  0.00000000E+00  0.00000000E+00
0.00000000E+00  0.00000000E+00  0.00000000E+00
0.00000000E+00  0.00000000E+00  0.00000000E+00
0.00000000E+00  0.00000000E+00  0.00000000E+00
0.00000000E+00  0.00000000E+00  0.00000000E+00
