Sc3N2  (n=2)
1.00000000000000
3.4292155436272140  0.0000000000000001  0.0000000000000000
-1.7146077718136070  2.9697877760084292  0.0000000000000001
0.0000000000000000  0.0000000000000009  34.6219269525825482
Sc  N  I
3  2  2
Selective  dynamics
Direct
-0.0000000000000000  -0.0000000000000000  0.0618439097972347  T  T  T
-0.0000000000000000  -0.0000000000000000  0.1392738176335480  T  T  T
-0.0000000000000000  -0.0000000000000000  0.2167451981902578  T  T  T
0.3333333333333357  0.6666666666666643  0.0971677854505508  T  T  T
0.3333333333333357  0.6666666666666643  0.1842116946092829  T  T  T
0.3333333333333357  0.6666666666666643  0.0000000000000000  T  T  T
0.6666666666666643  0.3333333333333357  0.2779142525995314  T  T  T

0.00000000E+00  0.00000000E+00  0.00000000E+00
0.00000000E+00  0.00000000E+00  0.00000000E+00
0.00000000E+00  0.00000000E+00  0.00000000E+00
0.00000000E+00  0.00000000E+00  0.00000000E+00
0.00000000E+00  0.00000000E+00  0.00000000E+00
0.00000000E+00  0.00000000E+00  0.00000000E+00
0.00000000E+00  0.00000000E+00  0.00000000E+00
