Zr3N2  (n=2)
1.00000000000000
3.3769696516080079  0.0000000000000000  0.0000000000000000
-1.6884848258040044  2.9245415063813613  0.0000000000000000
-0.0000000000000009  -0.0000000000000004  35.0558218582614955
Zr  N  I
3  2  2
Selective  dynamics
Direct
-0.0000000000000000  -0.0000000000000000  0.0610224873684094  T  T  T
-0.0000000000000000  -0.0000000000000000  0.1430434984326950  T  T  T
-0.0000000000000000  -0.0000000000000000  0.2252290910757755  T  T  T
0.3333333333333357  0.6666666666666643  0.1010029350451810  T  T  T
0.3333333333333357  0.6666666666666643  0.1845919999704587  T  T  T
0.3333333333333357  0.6666666666666643  0.0000000000000000  T  T  T
0.6666666666666643  0.3333333333333357  0.2868516932485402  T  T  T

0.00000000E+00  0.00000000E+00  0.00000000E+00
0.00000000E+00  0.00000000E+00  0.00000000E+00
0.00000000E+00  0.00000000E+00  0.00000000E+00
0.00000000E+00  0.00000000E+00  0.00000000E+00
0.00000000E+00  0.00000000E+00  0.00000000E+00
0.00000000E+00  0.00000000E+00  0.00000000E+00
0.00000000E+00  0.00000000E+00  0.00000000E+00
