Hf3C2  (n=2)
1.00000000000000
3.4535240466328330  0.0000000000000001  0.0000000000000000
-1.7267620233164165  2.9908395572574706  0.0000000000000000
-0.0000000000000005  -0.0000000000000002  34.8678927419012794
Hf  C  I
3  2  2
Selective  dynamics
Direct
0.0000000000000000  0.0000000000000000  0.0625181399365746  T  T  T
0.0000000000000000  -0.0000000000000000  0.1417481399200439  T  T  T
0.0000000000000000  0.0000000000000000  0.2203878824612654  T  T  T
0.3333333333333357  0.6666666666666643  0.0986950299392148  T  T  T
0.3333333333333357  0.6666666666666643  0.1872740854614202  T  T  T
0.3333333333333357  0.6666666666666643  0.0000000000000000  T  T  T
0.6666666666666643  0.3333333333333357  0.2830080043822918  T  T  T

0.00000000E+00  0.00000000E+00  0.00000000E+00
0.00000000E+00  0.00000000E+00  0.00000000E+00
0.00000000E+00  0.00000000E+00  0.00000000E+00
0.00000000E+00  0.00000000E+00  0.00000000E+00
0.00000000E+00  0.00000000E+00  0.00000000E+00
0.00000000E+00  0.00000000E+00  0.00000000E+00
0.00000000E+00  0.00000000E+00  0.00000000E+00
