Sc4C3  (n=3)
1.00000000000000
3.3369710995741340  0.0000000000000000  0.0000000000000000
-1.6684855497870670  2.8899017444736734  0.0000000000000000
0.0000000000000000  0.0000000000000000  38.2079086415624118
Sc  C  Te
4  3  2
Selective  dynamics
Direct
-0.0000000000000000  0.0000000000000000  0.0662268510573446  T  T  T
-0.0000000000000000  0.0000000000000000  0.1374368829839877  T  T  T
-0.0000000000000000  0.0000000000000000  0.2082483196652590  T  T  T
-0.0000000000000000  0.0000000000000000  0.2794583515919020  T  T  T
0.3333333333333357  0.6666666666666643  0.0974363894788009  T  T  T
0.3333333333333357  0.6666666666666643  0.1728426013246274  T  T  T
0.3333333333333357  0.6666666666666643  0.2482488131704380  T  T  T
0.3333333333333357  0.6666666666666643  0.0000000000000000  T  T  T
0.3333333333333357  0.6666666666666643  0.3456852026492468  T  T  T

0.00000000E+00  0.00000000E+00  0.00000000E+00
0.00000000E+00  0.00000000E+00  0.00000000E+00
0.00000000E+00  0.00000000E+00  0.00000000E+00
0.00000000E+00  0.00000000E+00  0.00000000E+00
0.00000000E+00  0.00000000E+00  0.00000000E+00
0.00000000E+00  0.00000000E+00  0.00000000E+00
0.00000000E+00  0.00000000E+00  0.00000000E+00
0.00000000E+00  0.00000000E+00  0.00000000E+00
0.00000000E+00  0.00000000E+00  0.00000000E+00
