Cr4C3  (n=3)
1.00000000000000
2.9505971314312496  0.0000000000000001  -0.0000000000000000
-1.4752985657156248  2.5552920721024943  0.0000000000000000
-0.0000000000000000  0.0000000000000000  36.4286094626196331
Cr  C  Te
4  3  2
Selective  dynamics
Direct
-0.0000000000000000  -0.0000000000000000  0.0541127900793660  T  T  T
-0.0000000000000000  -0.0000000000000000  0.1222764353557833  T  T  T
-0.0000000000000000  -0.0000000000000000  0.1914497713594797  T  T  T
-0.0000000000000000  -0.0000000000000000  0.2596134166359037  T  T  T
0.3333333333333357  0.6666666666666643  0.0869824013706942  T  T  T
0.3333333333333357  0.6666666666666643  0.1568631033576348  T  T  T
0.3333333333333357  0.6666666666666643  0.2267438053445754  T  T  T
0.3333333333333357  0.6666666666666643  0.0000000000000000  T  T  T
0.3333333333333357  0.6666666666666643  0.3137262067152696  T  T  T

0.00000000E+00  0.00000000E+00  0.00000000E+00
0.00000000E+00  0.00000000E+00  0.00000000E+00
0.00000000E+00  0.00000000E+00  0.00000000E+00
0.00000000E+00  0.00000000E+00  0.00000000E+00
0.00000000E+00  0.00000000E+00  0.00000000E+00
0.00000000E+00  0.00000000E+00  0.00000000E+00
0.00000000E+00  0.00000000E+00  0.00000000E+00
0.00000000E+00  0.00000000E+00  0.00000000E+00
0.00000000E+00  0.00000000E+00  0.00000000E+00
