Zr4C3  (n=3)
1.00000000000000
3.3437151729351848  0.0000000000000000  0.0000000000000000
-1.6718575864675924  2.8957422845089438  0.0000000000000000
0.0000000000000000  0.0000000000000000  38.3422458004423774
Zr  C  Te
4  3  2
Selective  dynamics
Direct
-0.0000000000000000  -0.0000000000000000  0.0617691708808492  T  T  T
-0.0000000000000000  -0.0000000000000000  0.1371122365226850  T  T  T
-0.0000000000000000  -0.0000000000000000  0.2108654450634166  T  T  T
-0.0000000000000000  -0.0000000000000000  0.2862085107052524  T  T  T
0.3333333333333357  0.6666666666666643  0.0943210072935842  T  T  T
0.3333333333333357  0.6666666666666643  0.1739888407930546  T  T  T
0.3333333333333357  0.6666666666666643  0.2536566742925173  T  T  T
0.3333333333333357  0.6666666666666643  0.0000000000000000  T  T  T
0.3333333333333357  0.6666666666666643  0.3479776815861015  T  T  T

0.00000000E+00  0.00000000E+00  0.00000000E+00
0.00000000E+00  0.00000000E+00  0.00000000E+00
0.00000000E+00  0.00000000E+00  0.00000000E+00
0.00000000E+00  0.00000000E+00  0.00000000E+00
0.00000000E+00  0.00000000E+00  0.00000000E+00
0.00000000E+00  0.00000000E+00  0.00000000E+00
0.00000000E+00  0.00000000E+00  0.00000000E+00
0.00000000E+00  0.00000000E+00  0.00000000E+00
0.00000000E+00  0.00000000E+00  0.00000000E+00
