Ti4N3  (n=3)
1.00000000000000
3.0335923160802802  0.0000000000000000  0.0000000000000000
-1.5167961580401401  2.6271680105002702  0.0000000000000000
0.0000000000000000  0.0000000000000000  37.5882038790770210
Ti  N  Te
4  3  2
Selective  dynamics
Direct
0.0000000000000000  0.0000000000000000  0.0622939652215275  T  T  T
0.0000000000000000  0.0000000000000000  0.1322222057500939  T  T  T
0.0000000000000000  0.0000000000000000  0.2026755169390121  T  T  T
0.0000000000000000  0.0000000000000000  0.2726037574675785  T  T  T
0.3333333333333357  0.6666666666666643  0.0947147271422853  T  T  T
0.3333333333333357  0.6666666666666643  0.1674488613445571  T  T  T
0.3333333333333357  0.6666666666666643  0.2401829955468208  T  T  T
0.3333333333333357  0.6666666666666643  0.0000000000000000  T  T  T
0.3333333333333357  0.6666666666666643  0.3348977226891141  T  T  T

0.00000000E+00  0.00000000E+00  0.00000000E+00
0.00000000E+00  0.00000000E+00  0.00000000E+00
0.00000000E+00  0.00000000E+00  0.00000000E+00
0.00000000E+00  0.00000000E+00  0.00000000E+00
0.00000000E+00  0.00000000E+00  0.00000000E+00
0.00000000E+00  0.00000000E+00  0.00000000E+00
0.00000000E+00  0.00000000E+00  0.00000000E+00
0.00000000E+00  0.00000000E+00  0.00000000E+00
0.00000000E+00  0.00000000E+00  0.00000000E+00
