Hf4C3  (n=3)
1.00000000000000
3.3091448193201058  0.0000000000000000  0.0000000000000000
-1.6545724096600529  2.8658034789652356  -0.0000000000000000
0.0000000000000000  0.0000000000000000  38.1353867569019442
Hf  C  Te
4  3  2
Selective  dynamics
Direct
0.0000000000000000  -0.0000000000000000  0.0610384043048171  T  T  T
0.0000000000000000  -0.0000000000000000  0.1356087430709511  T  T  T
0.0000000000000000  -0.0000000000000000  0.2088321522223067  T  T  T
0.0000000000000000  -0.0000000000000000  0.2834024909884326  T  T  T
0.3333333333333357  0.6666666666666643  0.0933819387156684  T  T  T
0.3333333333333357  0.6666666666666643  0.1722204476466289  T  T  T
0.3333333333333357  0.6666666666666643  0.2510589565775814  T  T  T
0.3333333333333357  0.6666666666666643  0.0000000000000000  T  T  T
0.3333333333333357  0.6666666666666643  0.3444408952932576  T  T  T

0.00000000E+00  0.00000000E+00  0.00000000E+00
0.00000000E+00  0.00000000E+00  0.00000000E+00
0.00000000E+00  0.00000000E+00  0.00000000E+00
0.00000000E+00  0.00000000E+00  0.00000000E+00
0.00000000E+00  0.00000000E+00  0.00000000E+00
0.00000000E+00  0.00000000E+00  0.00000000E+00
0.00000000E+00  0.00000000E+00  0.00000000E+00
0.00000000E+00  0.00000000E+00  0.00000000E+00
0.00000000E+00  0.00000000E+00  0.00000000E+00
