Mo4N3  (n=3)
1.00000000000000
3.0438904549629333  0.0000000000000000  0.0000000000000000
-1.5219452274814667  2.6360864605082202  0.0000000000000000
0.0000000000000000  0.0000000000000000  37.4540876282256932
Mo  N  Te
4  3  2
Selective  dynamics
Direct
-0.0000000000000000  -0.0000000000000000  0.0558633099894566  T  T  T
-0.0000000000000000  -0.0000000000000000  0.1291337437460488  T  T  T
-0.0000000000000000  -0.0000000000000000  0.2033823690971308  T  T  T
-0.0000000000000000  -0.0000000000000000  0.2766528028537231  T  T  T
0.3333333333333357  0.6666666666666643  0.0929749015270609  T  T  T
0.3333333333333357  0.6666666666666643  0.1662580564215898  T  T  T
0.3333333333333357  0.6666666666666643  0.2395412113161187  T  T  T
0.3333333333333357  0.6666666666666643  0.0000000000000000  T  T  T
0.3333333333333357  0.6666666666666643  0.3325161128431867  T  T  T

0.00000000E+00  0.00000000E+00  0.00000000E+00
0.00000000E+00  0.00000000E+00  0.00000000E+00
0.00000000E+00  0.00000000E+00  0.00000000E+00
0.00000000E+00  0.00000000E+00  0.00000000E+00
0.00000000E+00  0.00000000E+00  0.00000000E+00
0.00000000E+00  0.00000000E+00  0.00000000E+00
0.00000000E+00  0.00000000E+00  0.00000000E+00
0.00000000E+00  0.00000000E+00  0.00000000E+00
0.00000000E+00  0.00000000E+00  0.00000000E+00
