Ti4C3  (n=3)
1.00000000000000
3.1373339440604884  0.0000000000000000  0.0000000000000000
-1.5686669720302442  2.7170108959341444  0.0000000000000000
0.0000000000000000  0.0000000000000000  37.5618661397178926
Ti  C  Te
4  3  2
Selective  dynamics
Direct
-0.0000000000000000  0.0000000000000000  0.0634839345972963  T  T  T
0.0000000000000000  0.0000000000000000  0.1330646583495272  T  T  T
0.0000000000000000  0.0000000000000000  0.2013667059759867  T  T  T
-0.0000000000000000  0.0000000000000000  0.2709474297282176  T  T  T
0.3333333333333357  0.6666666666666643  0.0928962598967794  T  T  T
0.3333333333333357  0.6666666666666643  0.1672156821627570  T  T  T
0.3333333333333357  0.6666666666666643  0.2415351044287267  T  T  T
0.3333333333333357  0.6666666666666643  0.0000000000000000  T  T  T
0.3333333333333357  0.6666666666666643  0.3344313643255062  T  T  T

0.00000000E+00  0.00000000E+00  0.00000000E+00
0.00000000E+00  0.00000000E+00  0.00000000E+00
0.00000000E+00  0.00000000E+00  0.00000000E+00
0.00000000E+00  0.00000000E+00  0.00000000E+00
0.00000000E+00  0.00000000E+00  0.00000000E+00
0.00000000E+00  0.00000000E+00  0.00000000E+00
0.00000000E+00  0.00000000E+00  0.00000000E+00
0.00000000E+00  0.00000000E+00  0.00000000E+00
0.00000000E+00  0.00000000E+00  0.00000000E+00
