Ta4N3  (n=3)
1.00000000000000
3.0766005753802959  -0.0000000000000001  0.0000000000000000
-1.5383002876901475  2.6644142557334130  0.0000000000000000
0.0000000000000000  0.0000000000000000  37.9761274337763410
Ta  N  Te
4  3  2
Selective  dynamics
Direct
0.0000000000000000  -0.0000000000000000  0.0575367062427484  T  T  T
0.0000000000000000  -0.0000000000000000  0.1331214495795587  T  T  T
0.0000000000000000  -0.0000000000000000  0.2085702475637169  T  T  T
-0.0000000000000000  -0.0000000000000000  0.2841549909005269  T  T  T
0.3333333333333357  0.6666666666666643  0.0962150511631719  T  T  T
0.3333333333333357  0.6666666666666643  0.1708458485716378  T  T  T
0.3333333333333357  0.6666666666666643  0.2454766459800957  T  T  T
0.3333333333333357  0.6666666666666643  0.0000000000000000  T  T  T
0.3333333333333357  0.6666666666666643  0.3416916971432754  T  T  T

0.00000000E+00  0.00000000E+00  0.00000000E+00
0.00000000E+00  0.00000000E+00  0.00000000E+00
0.00000000E+00  0.00000000E+00  0.00000000E+00
0.00000000E+00  0.00000000E+00  0.00000000E+00
0.00000000E+00  0.00000000E+00  0.00000000E+00
0.00000000E+00  0.00000000E+00  0.00000000E+00
0.00000000E+00  0.00000000E+00  0.00000000E+00
0.00000000E+00  0.00000000E+00  0.00000000E+00
0.00000000E+00  0.00000000E+00  0.00000000E+00
