Sc4N3  (n=3)
1.00000000000000
3.2229363148426042  0.0000000000000000  -0.0000000000000000
-1.6114681574213021  2.7911447236778533  0.0000000000000000
-0.0000000000000000  -0.0000000000000000  37.9738914414230351
Sc  N  Te
4  3  2
Selective  dynamics
Direct
0.0000000000000000  -0.0000000000000000  0.0627704663445712  T  T  T
0.0000000000000000  -0.0000000000000000  0.1350387916896005  T  T  T
0.0000000000000000  -0.0000000000000000  0.2066141427070764  T  T  T
0.0000000000000000  -0.0000000000000000  0.2788824680521134  T  T  T
0.3333333333333357  0.6666666666666643  0.0940064413462378  T  T  T
0.3333333333333357  0.6666666666666643  0.1708264671983423  T  T  T
0.3333333333333357  0.6666666666666643  0.2476464930504312  T  T  T
0.3333333333333357  0.6666666666666643  0.0000000000000000  T  T  T
0.3333333333333357  0.6666666666666643  0.3416529343966768  T  T  T

0.00000000E+00  0.00000000E+00  0.00000000E+00
0.00000000E+00  0.00000000E+00  0.00000000E+00
0.00000000E+00  0.00000000E+00  0.00000000E+00
0.00000000E+00  0.00000000E+00  0.00000000E+00
0.00000000E+00  0.00000000E+00  0.00000000E+00
0.00000000E+00  0.00000000E+00  0.00000000E+00
0.00000000E+00  0.00000000E+00  0.00000000E+00
0.00000000E+00  0.00000000E+00  0.00000000E+00
0.00000000E+00  0.00000000E+00  0.00000000E+00
