Cr4N3  (n=3)
1.00000000000000
2.9031234596365763  0.0000000000000001  0.0000000000000000
-1.4515617298182881  2.5141786663685308  0.0000000000000000
0.0000000000000000  0.0000000000000000  36.6438164587603623
Cr  N  Te
4  3  2
Selective  dynamics
Direct
0.0000000000000000  0.0000000000000000  0.0572562205513541  T  T  T
0.0000000000000000  0.0000000000000000  0.1245457962092984  T  T  T
0.0000000000000000  0.0000000000000000  0.1932108564544472  T  T  T
0.0000000000000000  0.0000000000000000  0.2605004321123812  T  T  T
0.3333333333333357  0.6666666666666643  0.0888624657929131  T  T  T
0.3333333333333357  0.6666666666666643  0.1588783263318702  T  T  T
0.3333333333333357  0.6666666666666643  0.2288941868708222  T  T  T
0.3333333333333357  0.6666666666666643  0.0000000000000000  T  T  T
0.3333333333333357  0.6666666666666643  0.3177566526637456  T  T  T

0.00000000E+00  0.00000000E+00  0.00000000E+00
0.00000000E+00  0.00000000E+00  0.00000000E+00
0.00000000E+00  0.00000000E+00  0.00000000E+00
0.00000000E+00  0.00000000E+00  0.00000000E+00
0.00000000E+00  0.00000000E+00  0.00000000E+00
0.00000000E+00  0.00000000E+00  0.00000000E+00
0.00000000E+00  0.00000000E+00  0.00000000E+00
0.00000000E+00  0.00000000E+00  0.00000000E+00
0.00000000E+00  0.00000000E+00  0.00000000E+00
