Zr4N3  (n=3)
1.00000000000000
3.2323571977993115  0.0000000000000001  0.0000000000000000
-1.6161785988996558  2.7993034476301748  0.0000000000000000
0.0000000000000000  0.0000000000000000  38.4204844442169957
Zr  N  Te
4  3  2
Selective  dynamics
Direct
-0.0000000000000000  0.0000000000000000  0.0608026081287913  T  T  T
-0.0000000000000000  0.0000000000000000  0.1366685492978565  T  T  T
-0.0000000000000000  0.0000000000000000  0.2126368964390913  T  T  T
-0.0000000000000000  0.0000000000000000  0.2885028376081564  T  T  T
0.3333333333333357  0.6666666666666643  0.0983025842763335  T  T  T
0.3333333333333357  0.6666666666666643  0.1746527228684698  T  T  T
0.3333333333333357  0.6666666666666643  0.2510028614606061  T  T  T
0.3333333333333357  0.6666666666666643  0.0000000000000000  T  T  T
0.3333333333333357  0.6666666666666643  0.3493054457369558  T  T  T

0.00000000E+00  0.00000000E+00  0.00000000E+00
0.00000000E+00  0.00000000E+00  0.00000000E+00
0.00000000E+00  0.00000000E+00  0.00000000E+00
0.00000000E+00  0.00000000E+00  0.00000000E+00
0.00000000E+00  0.00000000E+00  0.00000000E+00
0.00000000E+00  0.00000000E+00  0.00000000E+00
0.00000000E+00  0.00000000E+00  0.00000000E+00
0.00000000E+00  0.00000000E+00  0.00000000E+00
0.00000000E+00  0.00000000E+00  0.00000000E+00
