Mo4C3  (n=3)
1.00000000000000
3.0799646541019210  0.0000000000000000  0.0000000000000000
-1.5399823270509605  2.6673276332737741  0.0000000000000000
0.0000000000000000  0.0000000000000000  37.3813405750537413
Mo  C  Te
4  3  2
Selective  dynamics
Direct
0.0000000000000000  -0.0000000000000000  0.0546298912025907  T  T  T
0.0000000000000000  -0.0000000000000000  0.1283542926749992  T  T  T
0.0000000000000000  -0.0000000000000000  0.2028628435910117  T  T  T
0.0000000000000000  -0.0000000000000000  0.2765872450634204  T  T  T
0.3333333333333357  0.6666666666666643  0.0909937967151426  T  T  T
0.3333333333333357  0.6666666666666643  0.1656085681330055  T  T  T
0.3333333333333357  0.6666666666666643  0.2402233395508684  T  T  T
0.3333333333333357  0.6666666666666643  0.0000000000000000  T  T  T
0.3333333333333357  0.6666666666666643  0.3312171362660111  T  T  T

0.00000000E+00  0.00000000E+00  0.00000000E+00
0.00000000E+00  0.00000000E+00  0.00000000E+00
0.00000000E+00  0.00000000E+00  0.00000000E+00
0.00000000E+00  0.00000000E+00  0.00000000E+00
0.00000000E+00  0.00000000E+00  0.00000000E+00
0.00000000E+00  0.00000000E+00  0.00000000E+00
0.00000000E+00  0.00000000E+00  0.00000000E+00
0.00000000E+00  0.00000000E+00  0.00000000E+00
0.00000000E+00  0.00000000E+00  0.00000000E+00
