Hf4N3  (n=3)
1.00000000000000
3.1839605132615989  -0.0000000000000001  0.0000000000000000
-1.5919802566307992  2.7573906897279290  0.0000000000000000
0.0000000000000000  0.0000000000000000  38.3075603344220781
Hf  N  Te
4  3  2
Selective  dynamics
Direct
-0.0000000000000000  0.0000000000000000  0.0606857525184908  T  T  T
-0.0000000000000000  0.0000000000000000  0.1359931133641622  T  T  T
-0.0000000000000000  0.0000000000000000  0.2113941965623404  T  T  T
-0.0000000000000000  0.0000000000000000  0.2867015574080045  T  T  T
0.3333333333333357  0.6666666666666643  0.0980195004317575  T  T  T
0.3333333333333357  0.6666666666666643  0.1736936549632477  T  T  T
0.3333333333333357  0.6666666666666643  0.2493678094947305  T  T  T
0.3333333333333357  0.6666666666666643  0.0000000000000000  T  T  T
0.3333333333333357  0.6666666666666643  0.3473873099265026  T  T  T

0.00000000E+00  0.00000000E+00  0.00000000E+00
0.00000000E+00  0.00000000E+00  0.00000000E+00
0.00000000E+00  0.00000000E+00  0.00000000E+00
0.00000000E+00  0.00000000E+00  0.00000000E+00
0.00000000E+00  0.00000000E+00  0.00000000E+00
0.00000000E+00  0.00000000E+00  0.00000000E+00
0.00000000E+00  0.00000000E+00  0.00000000E+00
0.00000000E+00  0.00000000E+00  0.00000000E+00
0.00000000E+00  0.00000000E+00  0.00000000E+00
