Ta4C3  (n=3)
1.00000000000000
3.1243716335781393  0.0000000000000000  0.0000000000000000
-1.5621858167890696  2.7057852057378593  0.0000000000000000
0.0000000000000000  0.0000000000000000  38.1863293818140335
Ta  C  Te
4  3  2
Selective  dynamics
Direct
-0.0000000000000000  -0.0000000000000000  0.0613219798137212  T  T  T
-0.0000000000000000  -0.0000000000000000  0.1354218153281040  T  T  T
-0.0000000000000000  -0.0000000000000000  0.2098936312016674  T  T  T
-0.0000000000000000  -0.0000000000000000  0.2839934667160502  T  T  T
0.3333333333333357  0.6666666666666643  0.0960714300270330  T  T  T
0.3333333333333357  0.6666666666666643  0.1726577232648855  T  T  T
0.3333333333333357  0.6666666666666643  0.2492440165027301  T  T  T
0.3333333333333357  0.6666666666666643  0.0000000000000000  T  T  T
0.3333333333333357  0.6666666666666643  0.3453154465297713  T  T  T

0.00000000E+00  0.00000000E+00  0.00000000E+00
0.00000000E+00  0.00000000E+00  0.00000000E+00
0.00000000E+00  0.00000000E+00  0.00000000E+00
0.00000000E+00  0.00000000E+00  0.00000000E+00
0.00000000E+00  0.00000000E+00  0.00000000E+00
0.00000000E+00  0.00000000E+00  0.00000000E+00
0.00000000E+00  0.00000000E+00  0.00000000E+00
0.00000000E+00  0.00000000E+00  0.00000000E+00
0.00000000E+00  0.00000000E+00  0.00000000E+00
