Nb4N3  (n=3)
1.00000000000000
3.1012868616037470  0.0000000000000000  0.0000000000000000
-1.5506434308018731  2.6857932068152590  0.0000000000000000
0.0000000000000000  0.0000000000000000  37.9439482009176601
Nb  N  Te
4  3  2
Selective  dynamics
Direct
-0.0000000000000000  0.0000000000000000  0.0575037547660801  T  T  T
-0.0000000000000000  0.0000000000000000  0.1328729991661409  T  T  T
-0.0000000000000000  0.0000000000000000  0.2082604045686957  T  T  T
-0.0000000000000000  0.0000000000000000  0.2836296489687643  T  T  T
0.3333333333333357  0.6666666666666643  0.0958582057476303  T  T  T
0.3333333333333357  0.6666666666666643  0.1705667018674182  T  T  T
0.3333333333333357  0.6666666666666643  0.2452751979871984  T  T  T
0.3333333333333357  0.6666666666666643  0.0000000000000000  T  T  T
0.3333333333333357  0.6666666666666643  0.3411334037348442  T  T  T

0.00000000E+00  0.00000000E+00  0.00000000E+00
0.00000000E+00  0.00000000E+00  0.00000000E+00
0.00000000E+00  0.00000000E+00  0.00000000E+00
0.00000000E+00  0.00000000E+00  0.00000000E+00
0.00000000E+00  0.00000000E+00  0.00000000E+00
0.00000000E+00  0.00000000E+00  0.00000000E+00
0.00000000E+00  0.00000000E+00  0.00000000E+00
0.00000000E+00  0.00000000E+00  0.00000000E+00
0.00000000E+00  0.00000000E+00  0.00000000E+00
