Nb4C3  (n=3)
1.00000000000000
3.1380340495467647  0.0000000000000000  0.0000000000000000
-1.5690170247733823  2.7176172050205909  0.0000000000000000
0.0000000000000000  0.0000000000000000  38.2267129384499427
Nb  C  Te
4  3  2
Selective  dynamics
Direct
-0.0000000000000000  -0.0000000000000000  0.0616448786756410  T  T  T
-0.0000000000000000  -0.0000000000000000  0.1355817045029242  T  T  T
-0.0000000000000000  -0.0000000000000000  0.2104253654679283  T  T  T
-0.0000000000000000  -0.0000000000000000  0.2843621912952112  T  T  T
0.3333333333333357  0.6666666666666643  0.0959458179548258  T  T  T
0.3333333333333357  0.6666666666666643  0.1730035349854262  T  T  T
0.3333333333333357  0.6666666666666643  0.2500612520160183  T  T  T
0.3333333333333357  0.6666666666666643  0.0000000000000000  T  T  T
0.3333333333333357  0.6666666666666643  0.3460070699708525  T  T  T

0.00000000E+00  0.00000000E+00  0.00000000E+00
0.00000000E+00  0.00000000E+00  0.00000000E+00
0.00000000E+00  0.00000000E+00  0.00000000E+00
0.00000000E+00  0.00000000E+00  0.00000000E+00
0.00000000E+00  0.00000000E+00  0.00000000E+00
0.00000000E+00  0.00000000E+00  0.00000000E+00
0.00000000E+00  0.00000000E+00  0.00000000E+00
0.00000000E+00  0.00000000E+00  0.00000000E+00
0.00000000E+00  0.00000000E+00  0.00000000E+00
