Nb2C  (n=1)
1.00000000000000
3.2130937703258113  0.0000000000000000  0.0000000000000000
-1.6065468851629057  2.7826208299022075  0.0000000000000000
0.0000000000000000  0.0000000000000000  32.3143690000545121
Nb  C  Te
2  1  2
Selective  dynamics
Direct
0.0000000000000000  -0.0000000000000000  0.0698636529230949  T  T  T
0.0000000000000000  0.0000000000000000  0.1564867053352445  T  T  T
0.3333333333333357  0.6666666666666643  0.1131751791291697  T  T  T
0.6666666666666643  0.3333333333333357  0.0000000000000000  T  T  T
0.6666666666666643  0.3333333333333357  0.2263503582583393  T  T  T

0.00000000E+00  0.00000000E+00  0.00000000E+00
0.00000000E+00  0.00000000E+00  0.00000000E+00
0.00000000E+00  0.00000000E+00  0.00000000E+00
0.00000000E+00  0.00000000E+00  0.00000000E+00
0.00000000E+00  0.00000000E+00  0.00000000E+00
