Mo2N  (n=1)
1.00000000000000
3.1647255689259346  0.0000000000000000  0.0000000000000000
-1.5823627844629673  2.7407327387241653  0.0000000000000000
0.0000000000000000  0.0000000000000000  31.8380346387929229
Mo  N  Te
2  1  2
Selective  dynamics
Direct
-0.0000000000000000  0.0000000000000000  0.0659317856892447  T  T  T
-0.0000000000000000  0.0000000000000000  0.1488438660232726  T  T  T
0.3333333333333357  0.6666666666666643  0.1073878258562662  T  T  T
0.6666666666666643  0.3333333333333357  0.0000000000000000  T  T  T
0.6666666666666643  0.3333333333333357  0.2147756517125322  T  T  T

0.00000000E+00  0.00000000E+00  0.00000000E+00
0.00000000E+00  0.00000000E+00  0.00000000E+00
0.00000000E+00  0.00000000E+00  0.00000000E+00
0.00000000E+00  0.00000000E+00  0.00000000E+00
0.00000000E+00  0.00000000E+00  0.00000000E+00
