Cr2N  (n=1)
1.00000000000000
3.2111079607196324  0.0000000000000000  0.0000000000000000
-1.6055539803598162  2.7809010683276152  0.0000000000000000
0.0000000000000000  0.0000000000000000  31.1119790815910342
Cr  N  Te
2  1  2
Selective  dynamics
Direct
0.0000000000000000  0.0000000000000000  0.0620888981201517  T  T  T
0.0000000000000000  0.0000000000000000  0.1343620915633523  T  T  T
0.3333333333333357  0.6666666666666643  0.0982254948417520  T  T  T
0.6666666666666643  0.3333333333333357  0.0000000000000000  T  T  T
0.6666666666666643  0.3333333333333357  0.1964509896835040  T  T  T

0.00000000E+00  0.00000000E+00  0.00000000E+00
0.00000000E+00  0.00000000E+00  0.00000000E+00
0.00000000E+00  0.00000000E+00  0.00000000E+00
0.00000000E+00  0.00000000E+00  0.00000000E+00
0.00000000E+00  0.00000000E+00  0.00000000E+00
