Nb2N  (n=1)
1.00000000000000
3.2979688606010420  0.0000000000000000  0.0000000000000000
-1.6489844303005210  2.8561248142218427  0.0000000000000000
0.0000000000000000  0.0000000000000000  31.8602109669690954
Nb  N  Te
2  1  2
Selective  dynamics
Direct
0.0000000000000000  0.0000000000000000  0.0639499632332933  T  T  T
0.0000000000000000  0.0000000000000000  0.1513722445851516  T  T  T
0.3333333333333357  0.6666666666666643  0.1076611039092301  T  T  T
0.6666666666666643  0.3333333333333357  0.0000000000000000  T  T  T
0.6666666666666643  0.3333333333333357  0.2153222078184411  T  T  T

0.00000000E+00  0.00000000E+00  0.00000000E+00
0.00000000E+00  0.00000000E+00  0.00000000E+00
0.00000000E+00  0.00000000E+00  0.00000000E+00
0.00000000E+00  0.00000000E+00  0.00000000E+00
0.00000000E+00  0.00000000E+00  0.00000000E+00
