Ti2C  (n=1)
1.00000000000000
3.3036389905072325  0.0000000000000000  0.0000000000000000
-1.6518194952536163  2.8610352907699816  0.0000000000000000
0.0000000000000000  0.0000000000000000  31.6081089555069816
Ti  C  Te
2  1  2
Selective  dynamics
Direct
-0.0000000000000000  0.0000000000000000  0.0645843530003221  T  T  T
-0.0000000000000000  0.0000000000000000  0.1444793706412554  T  T  T
0.3333333333333357  0.6666666666666643  0.1045318618207842  T  T  T
0.6666666666666643  0.3333333333333357  0.0000000000000000  T  T  T
0.6666666666666643  0.3333333333333357  0.2090637236415774  T  T  T

0.00000000E+00  0.00000000E+00  0.00000000E+00
0.00000000E+00  0.00000000E+00  0.00000000E+00
0.00000000E+00  0.00000000E+00  0.00000000E+00
0.00000000E+00  0.00000000E+00  0.00000000E+00
0.00000000E+00  0.00000000E+00  0.00000000E+00
