Hf2N  (n=1)
1.00000000000000
3.4361072480295847  0.0000000000000000  0.0000000000000000
-1.7180536240147923  2.9757561670016197  0.0000000000000000
0.0000000000000000  0.0000000000000000  31.9048476250211657
Hf  N  Te
2  1  2
Selective  dynamics
Direct
0.0000000000000000  0.0000000000000000  0.0651173038340667  T  T  T
-0.0000000000000000  -0.0000000000000000  0.1513027119006702  T  T  T
0.3333333333333357  0.6666666666666643  0.1082100078673638  T  T  T
0.6666666666666643  0.3333333333333357  0.0000000000000000  T  T  T
0.6666666666666643  0.3333333333333357  0.2164200157347275  T  T  T

0.00000000E+00  0.00000000E+00  0.00000000E+00
0.00000000E+00  0.00000000E+00  0.00000000E+00
0.00000000E+00  0.00000000E+00  0.00000000E+00
0.00000000E+00  0.00000000E+00  0.00000000E+00
0.00000000E+00  0.00000000E+00  0.00000000E+00
