Ta2N  (n=1)
1.00000000000000
3.2855925378006376  0.0000000000000000  0.0000000000000000
-1.6427962689003188  2.8454066042639967  0.0000000000000000
0.0000000000000000  0.0000000000000000  31.8424532507666882
Ta  N  Te
2  1  2
Selective  dynamics
Direct
0.0000000000000000  -0.0000000000000000  0.0635049328872753  T  T  T
0.0000000000000000  -0.0000000000000000  0.1513796803327208  T  T  T
0.3333333333333357  0.6666666666666643  0.1074423066099962  T  T  T
0.6666666666666643  0.3333333333333357  0.0000000000000000  T  T  T
0.6666666666666643  0.3333333333333357  0.2148846132199923  T  T  T

0.00000000E+00  0.00000000E+00  0.00000000E+00
0.00000000E+00  0.00000000E+00  0.00000000E+00
0.00000000E+00  0.00000000E+00  0.00000000E+00
0.00000000E+00  0.00000000E+00  0.00000000E+00
0.00000000E+00  0.00000000E+00  0.00000000E+00
