Hf2C  (n=1)
1.00000000000000
3.4554225682677586  0.0000000000000000  0.0000000000000000
-1.7277112841338793  2.9924837250333556  0.0000000000000000
0.0000000000000000  0.0000000000000000  32.0186092029806844
Hf  C  Te
2  1  2
Selective  dynamics
Direct
0.0000000000000000  0.0000000000000000  0.0663034569297512  T  T  T
0.0000000000000000  0.0000000000000000  0.1529006052606521  T  T  T
0.3333333333333357  0.6666666666666643  0.1096020310952018  T  T  T
0.6666666666666643  0.3333333333333357  0.0000000000000000  T  T  T
0.6666666666666643  0.3333333333333357  0.2192040621904123  T  T  T

0.00000000E+00  0.00000000E+00  0.00000000E+00
0.00000000E+00  0.00000000E+00  0.00000000E+00
0.00000000E+00  0.00000000E+00  0.00000000E+00
0.00000000E+00  0.00000000E+00  0.00000000E+00
0.00000000E+00  0.00000000E+00  0.00000000E+00
