Ta2C  (n=1)
1.00000000000000
3.1915852628514507  -0.0000000000000006  0.0000000000000000
-1.5957926314257254  2.7639939160218159  0.0000000000000000
0.0000000000000000  0.0000000000000000  32.3211358842341596
Ta  C  Te
2  1  2
Selective  dynamics
Direct
-0.0000000000000000  -0.0000000000000000  0.0699671957776086  T  T  T
-0.0000000000000000  -0.0000000000000000  0.1565451369094772  T  T  T
0.3333333333333357  0.6666666666666643  0.1132561663435429  T  T  T
0.6666666666666643  0.3333333333333357  0.0000000000000000  T  T  T
0.6666666666666643  0.3333333333333357  0.2265123326870860  T  T  T

0.00000000E+00  0.00000000E+00  0.00000000E+00
0.00000000E+00  0.00000000E+00  0.00000000E+00
0.00000000E+00  0.00000000E+00  0.00000000E+00
0.00000000E+00  0.00000000E+00  0.00000000E+00
0.00000000E+00  0.00000000E+00  0.00000000E+00
