Ti2N  (n=1)
1.00000000000000
3.3094330554722489  0.0000000000000000  0.0000000000000000
-1.6547165277361244  2.8660530981992705  0.0000000000000000
0.0000000000000000  0.0000000000000000  31.4498586000345384
Ti  N  Te
2  1  2
Selective  dynamics
Direct
0.0000000000000000  0.0000000000000000  0.0634279561943427  T  T  T
0.0000000000000000  0.0000000000000000  0.1416559102249313  T  T  T
0.3333333333333357  0.6666666666666643  0.1025419332096314  T  T  T
0.6666666666666643  0.3333333333333357  0.0000000000000000  T  T  T
0.6666666666666643  0.3333333333333357  0.2050838664192740  T  T  T

0.00000000E+00  0.00000000E+00  0.00000000E+00
0.00000000E+00  0.00000000E+00  0.00000000E+00
0.00000000E+00  0.00000000E+00  0.00000000E+00
0.00000000E+00  0.00000000E+00  0.00000000E+00
0.00000000E+00  0.00000000E+00  0.00000000E+00
