Sc2N  (n=1)
1.00000000000000
3.3852553455904979  0.0000000000000000  0.0000000000000000
-1.6926276727952489  2.9317171276665688  0.0000000000000000
0.0000000000000000  0.0000000000000000  32.0046845104620203
Sc  N  Te
2  1  2
Selective  dynamics
Direct
-0.0000000000000000  0.0000000000000000  0.0678153820643821  T  T  T
-0.0000000000000000  0.0000000000000000  0.1510489691268398  T  T  T
0.3333333333333357  0.6666666666666643  0.1094321755956065  T  T  T
0.6666666666666643  0.3333333333333357  0.0000000000000000  T  T  T
0.6666666666666643  0.3333333333333357  0.2188643511912219  T  T  T

0.00000000E+00  0.00000000E+00  0.00000000E+00
0.00000000E+00  0.00000000E+00  0.00000000E+00
0.00000000E+00  0.00000000E+00  0.00000000E+00
0.00000000E+00  0.00000000E+00  0.00000000E+00
0.00000000E+00  0.00000000E+00  0.00000000E+00
