Sc2C  (n=1)
1.00000000000000
3.3755826096198813  0.0000000000000000  0.0000000000000000
-1.6877913048099407  2.9233402926087901  0.0000000000000000
0.0000000000000000  0.0000000000000000  32.3435605061070177
Sc  C  Te
2  1  2
Selective  dynamics
Direct
0.0000000000000000  0.0000000000000000  0.0725066877438447  T  T  T
-0.0000000000000000  -0.0000000000000000  0.1545419238250856  T  T  T
0.3333333333333357  0.6666666666666643  0.1135243057844610  T  T  T
0.6666666666666643  0.3333333333333357  0.0000000000000000  T  T  T
0.6666666666666643  0.3333333333333357  0.2270486115689219  T  T  T

0.00000000E+00  0.00000000E+00  0.00000000E+00
0.00000000E+00  0.00000000E+00  0.00000000E+00
0.00000000E+00  0.00000000E+00  0.00000000E+00
0.00000000E+00  0.00000000E+00  0.00000000E+00
0.00000000E+00  0.00000000E+00  0.00000000E+00
