Zr2N  (n=1)
1.00000000000000
3.4709701406575308  0.0000000000000000  0.0000000000000000
-1.7354850703287654  3.0059483176774608  0.0000000000000000
0.0000000000000000  0.0000000000000000  31.9985579301582561
Zr  N  Te
2  1  2
Selective  dynamics
Direct
0.0000000000000000  0.0000000000000000  0.0658760858503120  T  T  T
0.0000000000000000  0.0000000000000000  0.1528387057797692  T  T  T
0.3333333333333357  0.6666666666666643  0.1093573958150463  T  T  T
0.6666666666666643  0.3333333333333357  0.0000000000000000  T  T  T
0.6666666666666643  0.3333333333333357  0.2187147916301003  T  T  T

0.00000000E+00  0.00000000E+00  0.00000000E+00
0.00000000E+00  0.00000000E+00  0.00000000E+00
0.00000000E+00  0.00000000E+00  0.00000000E+00
0.00000000E+00  0.00000000E+00  0.00000000E+00
0.00000000E+00  0.00000000E+00  0.00000000E+00
