Cr2C  (n=1)
1.00000000000000
3.1614468636693971  0.0000000000000001  0.0000000000000000
-1.5807234318346985  2.7378932966885934  0.0000000000000000
0.0000000000000000  0.0000000000000000  31.2342932627217778
Cr  C  Te
2  1  2
Selective  dynamics
Direct
-0.0000000000000000  0.0000000000000000  0.0635082227369036  T  T  T
-0.0000000000000000  0.0000000000000000  0.1360894825891980  T  T  T
0.3333333333333357  0.6666666666666643  0.0997988526630458  T  T  T
0.6666666666666643  0.3333333333333357  0.0000000000000000  T  T  T
0.6666666666666643  0.3333333333333357  0.1995977053261015  T  T  T

0.00000000E+00  0.00000000E+00  0.00000000E+00
0.00000000E+00  0.00000000E+00  0.00000000E+00
0.00000000E+00  0.00000000E+00  0.00000000E+00
0.00000000E+00  0.00000000E+00  0.00000000E+00
0.00000000E+00  0.00000000E+00  0.00000000E+00
