Mo2C  (n=1)
1.00000000000000
3.2041993555400303  0.0000000000000000  0.0000000000000000
-1.6020996777700152  2.7749180407194176  0.0000000000000000
0.0000000000000000  0.0000000000000000  31.7604102037429179
Mo  C  Te
2  1  2
Selective  dynamics
Direct
-0.0000000000000000  -0.0000000000000000  0.0639161189929894  T  T  T
-0.0000000000000000  -0.0000000000000000  0.1489403951507169  T  T  T
0.3333333333333357  0.6666666666666643  0.1064282570718475  T  T  T
0.6666666666666643  0.3333333333333357  0.0000000000000000  T  T  T
0.6666666666666643  0.3333333333333357  0.2128565141437063  T  T  T

0.00000000E+00  0.00000000E+00  0.00000000E+00
0.00000000E+00  0.00000000E+00  0.00000000E+00
0.00000000E+00  0.00000000E+00  0.00000000E+00
0.00000000E+00  0.00000000E+00  0.00000000E+00
0.00000000E+00  0.00000000E+00  0.00000000E+00
