Zr2C  (n=1)
1.00000000000000
3.4729602027472062  0.0000000000000000  0.0000000000000000
-1.7364801013736031  3.0076717620285143  0.0000000000000000
0.0000000000000000  0.0000000000000000  32.1365360955254786
Zr  C  Te
2  1  2
Selective  dynamics
Direct
0.0000000000000000  0.0000000000000000  0.0672171421185436  T  T  T
0.0000000000000000  0.0000000000000000  0.1548520962807813  T  T  T
0.3333333333333357  0.6666666666666643  0.1110346191996581  T  T  T
0.6666666666666643  0.3333333333333357  0.0000000000000000  T  T  T
0.6666666666666643  0.3333333333333357  0.2220692383993162  T  T  T

0.00000000E+00  0.00000000E+00  0.00000000E+00
0.00000000E+00  0.00000000E+00  0.00000000E+00
0.00000000E+00  0.00000000E+00  0.00000000E+00
0.00000000E+00  0.00000000E+00  0.00000000E+00
0.00000000E+00  0.00000000E+00  0.00000000E+00
