Hf4C3  (n=3)
1.00000000000000
3.2603656161307271  0.0000000000000000  0.0000000000000000
-1.6301828080653644  2.8235594499375996  0.0000000000000000
0.0000000000000000  0.0000000000000000  35.5307485079869920
Hf  C  H
4  3  2
Selective  dynamics
Direct
-0.0000000000000000  -0.0000000000000000  0.0298348177961815  T  T  T
-0.0000000000000000  -0.0000000000000000  0.1089605497543145  T  T  T
-0.0000000000000000  -0.0000000000000000  0.1874235386816435  T  T  T
-0.0000000000000000  -0.0000000000000000  0.2665492706397845  T  T  T
0.3333333333333357  0.6666666666666643  0.0636206700839098  T  T  T
0.3333333333333357  0.6666666666666643  0.1481920442179789  T  T  T
0.3333333333333357  0.6666666666666643  0.2327634183520401  T  T  T
0.6666666666666643  0.3333333333333357  0.0000000000000000  T  T  T
0.6666666666666643  0.3333333333333357  0.2963840884359578  T  T  T

0.00000000E+00  0.00000000E+00  0.00000000E+00
0.00000000E+00  0.00000000E+00  0.00000000E+00
0.00000000E+00  0.00000000E+00  0.00000000E+00
0.00000000E+00  0.00000000E+00  0.00000000E+00
0.00000000E+00  0.00000000E+00  0.00000000E+00
0.00000000E+00  0.00000000E+00  0.00000000E+00
0.00000000E+00  0.00000000E+00  0.00000000E+00
0.00000000E+00  0.00000000E+00  0.00000000E+00
0.00000000E+00  0.00000000E+00  0.00000000E+00
