Ta4C3  (n=3)
1.00000000000000
3.0253051776514606  0.0000000000000000  0.0000000000000000
-1.5126525888257303  2.6199911382451746  0.0000000000000000
0.0000000000000000  0.0000000000000000  35.6135391111501889
Ta  C  H
4  3  2
Selective  dynamics
Direct
0.0000000000000000  0.0000000000000000  0.0282614968695412  T  T  T
0.0000000000000000  -0.0000000000000000  0.1085860810316479  T  T  T
0.0000000000000000  -0.0000000000000000  0.1894336995362208  T  T  T
0.0000000000000000  0.0000000000000000  0.2697582836983275  T  T  T
0.3333333333333357  0.6666666666666643  0.0671011032252301  T  T  T
0.3333333333333357  0.6666666666666643  0.1490098902839343  T  T  T
0.3333333333333357  0.6666666666666643  0.2309186773426305  T  T  T
0.6666666666666643  0.3333333333333357  0.0000000000000000  T  T  T
0.6666666666666643  0.3333333333333357  0.2980197805678686  T  T  T

0.00000000E+00  0.00000000E+00  0.00000000E+00
0.00000000E+00  0.00000000E+00  0.00000000E+00
0.00000000E+00  0.00000000E+00  0.00000000E+00
0.00000000E+00  0.00000000E+00  0.00000000E+00
0.00000000E+00  0.00000000E+00  0.00000000E+00
0.00000000E+00  0.00000000E+00  0.00000000E+00
0.00000000E+00  0.00000000E+00  0.00000000E+00
0.00000000E+00  0.00000000E+00  0.00000000E+00
0.00000000E+00  0.00000000E+00  0.00000000E+00
