Cr4C3  (n=3)
1.00000000000000
2.6771355391129532  0.0000000000000000  0.0000000000000000
-1.3385677695564766  2.3184673862395910  0.0000000000000000
0.0000000000000000  0.0000000000000000  34.7916569914820428
Cr  C  H
4  3  2
Selective  dynamics
Direct
0.0000000000000000  -0.0000000000000000  0.0279713010444470  T  T  T
0.0000000000000000  0.0000000000000000  0.1028490666196386  T  T  T
0.0000000000000000  -0.0000000000000000  0.1785878593042621  T  T  T
0.0000000000000000  0.0000000000000000  0.2534656248794697  T  T  T
0.3333333333333357  0.6666666666666643  0.0643829597559700  T  T  T
0.3333333333333357  0.6666666666666643  0.1407184629619584  T  T  T
0.3333333333333357  0.6666666666666643  0.2170539661679387  T  T  T
0.6666666666666643  0.3333333333333357  0.0000000000000000  T  T  T
0.6666666666666643  0.3333333333333357  0.2814369259239166  T  T  T

0.00000000E+00  0.00000000E+00  0.00000000E+00
0.00000000E+00  0.00000000E+00  0.00000000E+00
0.00000000E+00  0.00000000E+00  0.00000000E+00
0.00000000E+00  0.00000000E+00  0.00000000E+00
0.00000000E+00  0.00000000E+00  0.00000000E+00
0.00000000E+00  0.00000000E+00  0.00000000E+00
0.00000000E+00  0.00000000E+00  0.00000000E+00
0.00000000E+00  0.00000000E+00  0.00000000E+00
0.00000000E+00  0.00000000E+00  0.00000000E+00
