Mo4C3  (n=3)
1.00000000000000
2.9075180566131396  0.0000000000000001  0.0000000000000000
-1.4537590283065698  2.5179844990712428  0.0000000000000000
0.0000000000000000  0.0000000000000000  35.4985554805896228
Mo  C  H
4  3  2
Selective  dynamics
Direct
-0.0000000000000000  -0.0000000000000000  0.0288511303012464  T  T  T
-0.0000000000000000  -0.0000000000000000  0.1077414157597561  T  T  T
-0.0000000000000000  -0.0000000000000000  0.1880045755476979  T  T  T
-0.0000000000000000  0.0000000000000000  0.2668948610062075  T  T  T
0.3333333333333357  0.6666666666666643  0.0676891503650209  T  T  T
0.3333333333333357  0.6666666666666643  0.1478729956537230  T  T  T
0.3333333333333357  0.6666666666666643  0.2280568409424250  T  T  T
0.6666666666666643  0.3333333333333357  0.0000000000000000  T  T  T
0.6666666666666643  0.3333333333333357  0.2957459913074537  T  T  T

0.00000000E+00  0.00000000E+00  0.00000000E+00
0.00000000E+00  0.00000000E+00  0.00000000E+00
0.00000000E+00  0.00000000E+00  0.00000000E+00
0.00000000E+00  0.00000000E+00  0.00000000E+00
0.00000000E+00  0.00000000E+00  0.00000000E+00
0.00000000E+00  0.00000000E+00  0.00000000E+00
0.00000000E+00  0.00000000E+00  0.00000000E+00
0.00000000E+00  0.00000000E+00  0.00000000E+00
0.00000000E+00  0.00000000E+00  0.00000000E+00
