Nb4N3  (n=3)
1.00000000000000
2.9470154067272900  0.0000000000000000  0.0000000000000000
-1.4735077033636448  2.5521902077001717  0.0000000000000000
0.0000000000000000  0.0000000000000000  35.9109931052118867
Nb  N  H
4  3  2
Selective  dynamics
Direct
0.0000000000000000  0.0000000000000000  0.0304287581766856  T  T  T
0.0000000000000000  0.0000000000000000  0.1113066180836616  T  T  T
0.0000000000000000  -0.0000000000000000  0.1925277279408246  T  T  T
0.0000000000000000  -0.0000000000000000  0.2734055878478004  T  T  T
0.3333333333333357  0.6666666666666643  0.0713805619245566  T  T  T
0.3333333333333357  0.6666666666666643  0.1519171730122391  T  T  T
0.3333333333333357  0.6666666666666643  0.2324537840999216  T  T  T
0.6666666666666643  0.3333333333333357  0.0000000000000000  T  T  T
0.6666666666666643  0.3333333333333357  0.3038343460244862  T  T  T

0.00000000E+00  0.00000000E+00  0.00000000E+00
0.00000000E+00  0.00000000E+00  0.00000000E+00
0.00000000E+00  0.00000000E+00  0.00000000E+00
0.00000000E+00  0.00000000E+00  0.00000000E+00
0.00000000E+00  0.00000000E+00  0.00000000E+00
0.00000000E+00  0.00000000E+00  0.00000000E+00
0.00000000E+00  0.00000000E+00  0.00000000E+00
0.00000000E+00  0.00000000E+00  0.00000000E+00
0.00000000E+00  0.00000000E+00  0.00000000E+00
