Mo4N3  (n=3)
1.00000000000000
2.8544626769403085  0.0000000000000000  0.0000000000000000
-1.4272313384701543  2.4720371924287097  0.0000000000000000
0.0000000000000000  0.0000000000000000  35.7417562708291427
Mo  N  H
4  3  2
Selective  dynamics
Direct
-0.0000000000000000  -0.0000000000000000  0.0314721303874644  T  T  T
-0.0000000000000000  -0.0000000000000000  0.1100670142700275  T  T  T
-0.0000000000000000  -0.0000000000000000  0.1904709948147879  T  T  T
-0.0000000000000000  -0.0000000000000000  0.2690658786973510  T  T  T
0.3333333333333357  0.6666666666666643  0.0708599624469563  T  T  T
0.3333333333333357  0.6666666666666643  0.1502690045424037  T  T  T
0.3333333333333357  0.6666666666666643  0.2296780466378432  T  T  T
0.6666666666666643  0.3333333333333357  0.0000000000000000  T  T  T
0.6666666666666643  0.3333333333333357  0.3005380090847996  T  T  T

0.00000000E+00  0.00000000E+00  0.00000000E+00
0.00000000E+00  0.00000000E+00  0.00000000E+00
0.00000000E+00  0.00000000E+00  0.00000000E+00
0.00000000E+00  0.00000000E+00  0.00000000E+00
0.00000000E+00  0.00000000E+00  0.00000000E+00
0.00000000E+00  0.00000000E+00  0.00000000E+00
0.00000000E+00  0.00000000E+00  0.00000000E+00
0.00000000E+00  0.00000000E+00  0.00000000E+00
0.00000000E+00  0.00000000E+00  0.00000000E+00
