Hf4N3  (n=3)
1.00000000000000
3.0783081355051731  -0.0000000000000004  0.0000000000000000
-1.5391540677525863  2.6658930462200878  0.0000000000000000
0.0000000000000000  0.0000000000000000  35.7904224617673350
Hf  N  H
4  3  2
Selective  dynamics
Direct
-0.0000000000000000  -0.0000000000000000  0.0287913921069211  T  T  T
-0.0000000000000000  -0.0000000000000000  0.1099199802869781  T  T  T
-0.0000000000000000  -0.0000000000000000  0.1915691254449912  T  T  T
-0.0000000000000000  -0.0000000000000000  0.2726977136250481  T  T  T
0.3333333333333357  0.6666666666666643  0.0691330296373990  T  T  T
0.3333333333333357  0.6666666666666643  0.1507445528659807  T  T  T
0.3333333333333357  0.6666666666666643  0.2323560760945624  T  T  T
0.6666666666666643  0.3333333333333357  0.0000000000000000  T  T  T
0.6666666666666643  0.3333333333333357  0.3014891057319614  T  T  T

0.00000000E+00  0.00000000E+00  0.00000000E+00
0.00000000E+00  0.00000000E+00  0.00000000E+00
0.00000000E+00  0.00000000E+00  0.00000000E+00
0.00000000E+00  0.00000000E+00  0.00000000E+00
0.00000000E+00  0.00000000E+00  0.00000000E+00
0.00000000E+00  0.00000000E+00  0.00000000E+00
0.00000000E+00  0.00000000E+00  0.00000000E+00
0.00000000E+00  0.00000000E+00  0.00000000E+00
0.00000000E+00  0.00000000E+00  0.00000000E+00
