Ti4C3  (n=3)
1.00000000000000
3.0582036858364043  0.0000000000000001  0.0000000000000000
-1.5291018429182022  2.6484820819751662  0.0000000000000000
0.0000000000000000  0.0000000000000000  34.8064744303164204
Ti  C  H
4  3  2
Selective  dynamics
Direct
0.0000000000000000  0.0000000000000000  0.0287012968767772  T  T  T
0.0000000000000000  0.0000000000000000  0.1035371152027082  T  T  T
0.0000000000000000  0.0000000000000000  0.1782057096831982  T  T  T
0.0000000000000000  0.0000000000000000  0.2530415280091293  T  T  T
0.3333333333333357  0.6666666666666643  0.0612012880834922  T  T  T
0.3333333333333357  0.6666666666666643  0.1408714124429533  T  T  T
0.3333333333333357  0.6666666666666643  0.2205415368024061  T  T  T
0.6666666666666643  0.3333333333333357  0.0000000000000000  T  T  T
0.6666666666666643  0.3333333333333357  0.2817428248859064  T  T  T

0.00000000E+00  0.00000000E+00  0.00000000E+00
0.00000000E+00  0.00000000E+00  0.00000000E+00
0.00000000E+00  0.00000000E+00  0.00000000E+00
0.00000000E+00  0.00000000E+00  0.00000000E+00
0.00000000E+00  0.00000000E+00  0.00000000E+00
0.00000000E+00  0.00000000E+00  0.00000000E+00
0.00000000E+00  0.00000000E+00  0.00000000E+00
0.00000000E+00  0.00000000E+00  0.00000000E+00
0.00000000E+00  0.00000000E+00  0.00000000E+00
