Zr4N3  (n=3)
1.00000000000000
3.1381357053093399  0.0000000000000005  0.0000000000000000
-1.5690678526546700  2.7177052416085616  0.0000000000000000
0.0000000000000000  0.0000000000000000  35.9153810627596570
Zr  N  H
4  3  2
Selective  dynamics
Direct
0.0000000000000000  0.0000000000000000  0.0293630634822078  T  T  T
0.0000000000000000  0.0000000000000000  0.1108202507773982  T  T  T
0.0000000000000000  0.0000000000000000  0.1930991492057314  T  T  T
0.0000000000000000  0.0000000000000000  0.2745563365009218  T  T  T
0.3333333333333357  0.6666666666666643  0.0698493565167431  T  T  T
0.3333333333333357  0.6666666666666643  0.1519596999915649  T  T  T
0.3333333333333357  0.6666666666666643  0.2340700434663864  T  T  T
0.6666666666666643  0.3333333333333357  0.0000000000000000  T  T  T
0.6666666666666643  0.3333333333333357  0.3039193999831376  T  T  T

0.00000000E+00  0.00000000E+00  0.00000000E+00
0.00000000E+00  0.00000000E+00  0.00000000E+00
0.00000000E+00  0.00000000E+00  0.00000000E+00
0.00000000E+00  0.00000000E+00  0.00000000E+00
0.00000000E+00  0.00000000E+00  0.00000000E+00
0.00000000E+00  0.00000000E+00  0.00000000E+00
0.00000000E+00  0.00000000E+00  0.00000000E+00
0.00000000E+00  0.00000000E+00  0.00000000E+00
0.00000000E+00  0.00000000E+00  0.00000000E+00
