Cr4N3  (n=3)
1.00000000000000
2.6635146508976222  0.0000000000000000  0.0000000000000000
-1.3317573254488111  2.3066713510302601  0.0000000000000000
0.0000000000000000  0.0000000000000000  34.7865223007893007
Cr  N  H
4  3  2
Selective  dynamics
Direct
0.0000000000000000  0.0000000000000000  0.0291597963662627  T  T  T
0.0000000000000000  0.0000000000000000  0.1032795376888441  T  T  T
0.0000000000000000  0.0000000000000000  0.1780513241940422  T  T  T
0.0000000000000000  0.0000000000000000  0.2521710655166236  T  T  T
0.3333333333333357  0.6666666666666643  0.0649820197549509  T  T  T
0.3333333333333357  0.6666666666666643  0.1406654309414432  T  T  T
0.3333333333333357  0.6666666666666643  0.2163488421279277  T  T  T
0.6666666666666643  0.3333333333333357  0.0000000000000000  T  T  T
0.6666666666666643  0.3333333333333357  0.2813308618828864  T  T  T

0.00000000E+00  0.00000000E+00  0.00000000E+00
0.00000000E+00  0.00000000E+00  0.00000000E+00
0.00000000E+00  0.00000000E+00  0.00000000E+00
0.00000000E+00  0.00000000E+00  0.00000000E+00
0.00000000E+00  0.00000000E+00  0.00000000E+00
0.00000000E+00  0.00000000E+00  0.00000000E+00
0.00000000E+00  0.00000000E+00  0.00000000E+00
0.00000000E+00  0.00000000E+00  0.00000000E+00
0.00000000E+00  0.00000000E+00  0.00000000E+00
