Zr4C3  (n=3)
1.00000000000000
3.3137944885697181  0.0000000000000000  0.0000000000000000
-1.6568972442848595  2.8698302111265428  0.0000000000000000
0.0000000000000000  0.0000000000000000  35.6756552812537748
Zr  C  H
4  3  2
Selective  dynamics
Direct
0.0000000000000000  0.0000000000000000  0.0298715349011820  T  T  T
0.0000000000000000  0.0000000000000000  0.1099748973555804  T  T  T
0.0000000000000000  0.0000000000000000  0.1892671262902597  T  T  T
0.0000000000000000  0.0000000000000000  0.2693704887446579  T  T  T
0.3333333333333357  0.6666666666666643  0.0641157275082903  T  T  T
0.3333333333333357  0.6666666666666643  0.1496210118229160  T  T  T
0.3333333333333357  0.6666666666666643  0.2351262961375416  T  T  T
0.6666666666666643  0.3333333333333357  0.0000000000000000  T  T  T
0.6666666666666643  0.3333333333333357  0.2992420236458400  T  T  T

0.00000000E+00  0.00000000E+00  0.00000000E+00
0.00000000E+00  0.00000000E+00  0.00000000E+00
0.00000000E+00  0.00000000E+00  0.00000000E+00
0.00000000E+00  0.00000000E+00  0.00000000E+00
0.00000000E+00  0.00000000E+00  0.00000000E+00
0.00000000E+00  0.00000000E+00  0.00000000E+00
0.00000000E+00  0.00000000E+00  0.00000000E+00
0.00000000E+00  0.00000000E+00  0.00000000E+00
0.00000000E+00  0.00000000E+00  0.00000000E+00
