Ti4N3  (n=3)
1.00000000000000
2.8933366684799431  0.0000000000000000  0.0000000000000000
-1.4466683342399715  2.5057030566402445  0.0000000000000000
0.0000000000000000  0.0000000000000000  35.0393424483578144
Ti  N  H
4  3  2
Selective  dynamics
Direct
-0.0000000000000000  0.0000000000000000  0.0285472666255617  T  T  T
-0.0000000000000000  0.0000000000000000  0.1046580110711413  T  T  T
-0.0000000000000000  0.0000000000000000  0.1818582802420914  T  T  T
-0.0000000000000000  0.0000000000000000  0.2579690246876709  T  T  T
0.3333333333333357  0.6666666666666643  0.0653394225393620  T  T  T
0.3333333333333357  0.6666666666666643  0.1432581456566163  T  T  T
0.3333333333333357  0.6666666666666643  0.2211768687738546  T  T  T
0.6666666666666643  0.3333333333333357  0.0000000000000000  T  T  T
0.6666666666666643  0.3333333333333357  0.2865162913132328  T  T  T

0.00000000E+00  0.00000000E+00  0.00000000E+00
0.00000000E+00  0.00000000E+00  0.00000000E+00
0.00000000E+00  0.00000000E+00  0.00000000E+00
0.00000000E+00  0.00000000E+00  0.00000000E+00
0.00000000E+00  0.00000000E+00  0.00000000E+00
0.00000000E+00  0.00000000E+00  0.00000000E+00
0.00000000E+00  0.00000000E+00  0.00000000E+00
0.00000000E+00  0.00000000E+00  0.00000000E+00
0.00000000E+00  0.00000000E+00  0.00000000E+00
