Sc4N3  (n=3)
1.00000000000000
3.1417194326319953  0.0000000000000001  0.0000000000000000
-1.5708597163159976  2.7208088404293473  0.0000000000000000
0.0000000000000000  0.0000000000000000  35.3790215944166988
Sc  N  H
4  3  2
Selective  dynamics
Direct
-0.0000000000000000  0.0000000000000000  0.0306009628166151  T  T  T
-0.0000000000000000  0.0000000000000000  0.1081844591014621  T  T  T
-0.0000000000000000  0.0000000000000000  0.1851820933544332  T  T  T
-0.0000000000000000  0.0000000000000000  0.2627655896392802  T  T  T
0.3333333333333357  0.6666666666666643  0.0640740800440224  T  T  T
0.3333333333333357  0.6666666666666643  0.1466832762279437  T  T  T
0.3333333333333357  0.6666666666666643  0.2292924724118648  T  T  T
0.6666666666666643  0.3333333333333357  0.0000000000000000  T  T  T
0.6666666666666643  0.3333333333333357  0.2933665524558953  T  T  T

0.00000000E+00  0.00000000E+00  0.00000000E+00
0.00000000E+00  0.00000000E+00  0.00000000E+00
0.00000000E+00  0.00000000E+00  0.00000000E+00
0.00000000E+00  0.00000000E+00  0.00000000E+00
0.00000000E+00  0.00000000E+00  0.00000000E+00
0.00000000E+00  0.00000000E+00  0.00000000E+00
0.00000000E+00  0.00000000E+00  0.00000000E+00
0.00000000E+00  0.00000000E+00  0.00000000E+00
0.00000000E+00  0.00000000E+00  0.00000000E+00
