Sc4C3  (n=3)
1.00000000000000
3.2852455605451936  0.0000000000000000  0.0000000000000000
-1.6426227802725968  2.8451061134297304  0.0000000000000000
0.0000000000000000  0.0000000000000000  35.4090871388499622
Sc  C  H
4  3  2
Selective  dynamics
Direct
-0.0000000000000000  -0.0000000000000000  0.0278786425298688  T  T  T
-0.0000000000000000  -0.0000000000000000  0.1057158510541601  T  T  T
-0.0000000000000000  -0.0000000000000000  0.1882506976465370  T  T  T
0.0000000000000000  -0.0000000000000000  0.2660879061708282  T  T  T
0.3333333333333357  0.6666666666666643  0.0646541279500056  T  T  T
0.3333333333333357  0.6666666666666643  0.1469832743503444  T  T  T
0.3333333333333357  0.6666666666666643  0.2293124207506752  T  T  T
0.6666666666666643  0.3333333333333357  0.0000000000000000  T  T  T
0.6666666666666643  0.3333333333333357  0.2939665487006971  T  T  T

0.00000000E+00  0.00000000E+00  0.00000000E+00
0.00000000E+00  0.00000000E+00  0.00000000E+00
0.00000000E+00  0.00000000E+00  0.00000000E+00
0.00000000E+00  0.00000000E+00  0.00000000E+00
0.00000000E+00  0.00000000E+00  0.00000000E+00
0.00000000E+00  0.00000000E+00  0.00000000E+00
0.00000000E+00  0.00000000E+00  0.00000000E+00
0.00000000E+00  0.00000000E+00  0.00000000E+00
0.00000000E+00  0.00000000E+00  0.00000000E+00
