Nb4C3  (n=3)
1.00000000000000
3.0446979585215010  0.0000000000000001  0.0000000000000000
-1.5223489792607503  2.6367857791258786  0.0000000000000000
0.0000000000000000  0.0000000000000000  35.6459162167817993
Nb  C  H
4  3  2
Selective  dynamics
Direct
0.0000000000000000  0.0000000000000000  0.0282786061729527  T  T  T
0.0000000000000000  0.0000000000000000  0.1087567130799364  T  T  T
0.0000000000000000  0.0000000000000000  0.1899006745444496  T  T  T
0.0000000000000000  0.0000000000000000  0.2703787814514333  T  T  T
0.3333333333333357  0.6666666666666643  0.0673614498757809  T  T  T
0.3333333333333357  0.6666666666666643  0.1493286938121891  T  T  T
0.3333333333333357  0.6666666666666643  0.2312959377485972  T  T  T
0.6666666666666643  0.3333333333333357  0.0000000000000000  T  T  T
0.6666666666666643  0.3333333333333357  0.2986573876243862  T  T  T

0.00000000E+00  0.00000000E+00  0.00000000E+00
0.00000000E+00  0.00000000E+00  0.00000000E+00
0.00000000E+00  0.00000000E+00  0.00000000E+00
0.00000000E+00  0.00000000E+00  0.00000000E+00
0.00000000E+00  0.00000000E+00  0.00000000E+00
0.00000000E+00  0.00000000E+00  0.00000000E+00
0.00000000E+00  0.00000000E+00  0.00000000E+00
0.00000000E+00  0.00000000E+00  0.00000000E+00
0.00000000E+00  0.00000000E+00  0.00000000E+00
