Ta4N3  (n=3)
1.00000000000000
2.9204979261638733  0.0000000000000000  0.0000000000000000
-1.4602489630819366  2.5292253958596347  0.0000000000000000
0.0000000000000000  0.0000000000000000  35.9449840659250484
Ta  N  H
4  3  2
Selective  dynamics
Direct
0.0000000000000000  -0.0000000000000000  0.0305086514202091  T  T  T
0.0000000000000000  -0.0000000000000000  0.1116728257099902  T  T  T
0.0000000000000000  -0.0000000000000000  0.1928198413573000  T  T  T
0.0000000000000000  -0.0000000000000000  0.2739840156470811  T  T  T
0.3333333333333357  0.6666666666666643  0.0716390927119716  T  T  T
0.3333333333333357  0.6666666666666643  0.1522463335336451  T  T  T
0.3333333333333357  0.6666666666666643  0.2328535743553188  T  T  T
0.6666666666666643  0.3333333333333357  0.0000000000000000  T  T  T
0.6666666666666643  0.3333333333333357  0.3044926670672981  T  T  T

0.00000000E+00  0.00000000E+00  0.00000000E+00
0.00000000E+00  0.00000000E+00  0.00000000E+00
0.00000000E+00  0.00000000E+00  0.00000000E+00
0.00000000E+00  0.00000000E+00  0.00000000E+00
0.00000000E+00  0.00000000E+00  0.00000000E+00
0.00000000E+00  0.00000000E+00  0.00000000E+00
0.00000000E+00  0.00000000E+00  0.00000000E+00
0.00000000E+00  0.00000000E+00  0.00000000E+00
0.00000000E+00  0.00000000E+00  0.00000000E+00
