Ta3N2  (n=2)
1.00000000000000
2.9056271028673222  0.0000000000000001  0.0000000000000000
-1.4528135514336611  2.5163468851195350  0.0000000000000000
0.0000000000000000  0.0000000000000000  35.7527676313984415
Ta  N  O  H
3  2  2  2
Selective  dynamics
Direct
-0.0000000000000000  0.0000000000000000  0.0679896285668806  T  T  T
-0.0000000000000000  0.0000000000000000  0.1503767168776464  T  T  T
-0.0000000000000000  0.0000000000000000  0.2327638051884199  T  T  T
0.3333333333333357  0.6666666666666643  0.1102236516763434  T  T  T
0.3333333333333357  0.6666666666666643  0.1905297820789493  T  T  T
0.6666666666666643  0.3333333333333357  0.0275946671562981  T  T  T
0.6666666666666643  0.3333333333333357  0.2731587665990025  T  T  T
0.6666666666666643  0.3333333333333357  0.0000000000000000  T  T  T
0.6666666666666643  0.3333333333333357  0.3007534337553005  T  T  T

0.00000000E+00  0.00000000E+00  0.00000000E+00
0.00000000E+00  0.00000000E+00  0.00000000E+00
0.00000000E+00  0.00000000E+00  0.00000000E+00
0.00000000E+00  0.00000000E+00  0.00000000E+00
0.00000000E+00  0.00000000E+00  0.00000000E+00
0.00000000E+00  0.00000000E+00  0.00000000E+00
0.00000000E+00  0.00000000E+00  0.00000000E+00
0.00000000E+00  0.00000000E+00  0.00000000E+00
0.00000000E+00  0.00000000E+00  0.00000000E+00
