Ti3C2  (n=2)
1.00000000000000
3.0548602515006800  0.0000000000000000  0.0000000000000000
-1.5274301257503400  2.6455865829287375  0.0000000000000000
0.0000000000000000  0.0000000000000000  34.6090276802524386
Ti  C  O  H
3  2  2  2
Selective  dynamics
Direct
-0.0000000000000000  0.0000000000000000  0.0642789596812067  T  T  T
-0.0000000000000000  0.0000000000000000  0.1388225605328875  T  T  T
-0.0000000000000000  0.0000000000000000  0.2133661613845683  T  T  T
0.3333333333333357  0.6666666666666643  0.0981970004859955  T  T  T
0.3333333333333357  0.6666666666666643  0.1794481205797715  T  T  T
0.6666666666666643  0.3333333333333357  0.0281748509894293  T  T  T
0.6666666666666643  0.3333333333333357  0.2494702700763454  T  T  T
0.6666666666666643  0.3333333333333357  0.0000000000000000  T  T  T
0.6666666666666643  0.3333333333333357  0.2776451210657748  T  T  T

0.00000000E+00  0.00000000E+00  0.00000000E+00
0.00000000E+00  0.00000000E+00  0.00000000E+00
0.00000000E+00  0.00000000E+00  0.00000000E+00
0.00000000E+00  0.00000000E+00  0.00000000E+00
0.00000000E+00  0.00000000E+00  0.00000000E+00
0.00000000E+00  0.00000000E+00  0.00000000E+00
0.00000000E+00  0.00000000E+00  0.00000000E+00
0.00000000E+00  0.00000000E+00  0.00000000E+00
0.00000000E+00  0.00000000E+00  0.00000000E+00
