Zr3N2  (n=2)
1.00000000000000
3.1220528057817298  0.0000000000000003  0.0000000000000000
-1.5610264028908651  2.7037770419834155  0.0000000000000000
0.0000000000000000  0.0000000000000000  35.6697486606930525
Zr  N  O  H
3  2  2  2
Selective  dynamics
Direct
0.0000000000000000  0.0000000000000000  0.0671311193497721  T  T  T
0.0000000000000000  0.0000000000000000  0.1495629919093109  T  T  T
0.0000000000000000  0.0000000000000000  0.2319948644688573  T  T  T
0.3333333333333357  0.6666666666666643  0.1075937932310334  T  T  T
0.3333333333333357  0.6666666666666643  0.1915321905875883  T  T  T
0.6666666666666643  0.3333333333333357  0.0274864229533069  T  T  T
0.6666666666666643  0.3333333333333357  0.2716395608653225  T  T  T
0.6666666666666643  0.3333333333333357  0.0000000000000000  T  T  T
0.6666666666666643  0.3333333333333357  0.2991259838186295  T  T  T

0.00000000E+00  0.00000000E+00  0.00000000E+00
0.00000000E+00  0.00000000E+00  0.00000000E+00
0.00000000E+00  0.00000000E+00  0.00000000E+00
0.00000000E+00  0.00000000E+00  0.00000000E+00
0.00000000E+00  0.00000000E+00  0.00000000E+00
0.00000000E+00  0.00000000E+00  0.00000000E+00
0.00000000E+00  0.00000000E+00  0.00000000E+00
0.00000000E+00  0.00000000E+00  0.00000000E+00
0.00000000E+00  0.00000000E+00  0.00000000E+00
