Zr3C2  (n=2)
1.00000000000000
3.3063279030974830  0.0000000000000002  0.0000000000000000
-1.6531639515487415  2.8633639578140531  0.0000000000000000
0.0000000000000000  0.0000000000000000  35.2654665785695940
Zr  C  O  H
3  2  2  2
Selective  dynamics
Direct
0.0000000000000000  -0.0000000000000000  0.0656638855013398  T  T  T
-0.0000000000000000  -0.0000000000000000  0.1455455942387491  T  T  T
-0.0000000000000000  -0.0000000000000000  0.2254273029761663  T  T  T
0.3333333333333357  0.6666666666666643  0.1012692970554420  T  T  T
0.3333333333333357  0.6666666666666643  0.1898218914220562  T  T  T
0.6666666666666643  0.3333333333333357  0.0277068606991472  T  T  T
0.6666666666666643  0.3333333333333357  0.2633843277783510  T  T  T
0.6666666666666643  0.3333333333333357  0.0000000000000000  T  T  T
0.6666666666666643  0.3333333333333357  0.2910911884775061  T  T  T

0.00000000E+00  0.00000000E+00  0.00000000E+00
0.00000000E+00  0.00000000E+00  0.00000000E+00
0.00000000E+00  0.00000000E+00  0.00000000E+00
0.00000000E+00  0.00000000E+00  0.00000000E+00
0.00000000E+00  0.00000000E+00  0.00000000E+00
0.00000000E+00  0.00000000E+00  0.00000000E+00
0.00000000E+00  0.00000000E+00  0.00000000E+00
0.00000000E+00  0.00000000E+00  0.00000000E+00
0.00000000E+00  0.00000000E+00  0.00000000E+00
