Cr3C2  (n=2)
1.00000000000000
2.7312340433382514  -0.0000000000000001  0.0000000000000000
-1.3656170216691255  2.3653180651786885  0.0000000000000000
0.0000000000000000  0.0000000000000000  34.6658386674983348
Cr  C  O  H
3  2  2  2
Selective  dynamics
Direct
0.0000000000000000  -0.0000000000000000  0.0650444159769319  T  T  T
0.0000000000000000  -0.0000000000000000  0.1394144644848985  T  T  T
0.0000000000000000  -0.0000000000000000  0.2137845129928727  T  T  T
0.3333333333333357  0.6666666666666643  0.1018966566195443  T  T  T
0.3333333333333357  0.6666666666666643  0.1769322723502452  T  T  T
0.6666666666666643  0.3333333333333357  0.0282815549506661  T  T  T
0.6666666666666643  0.3333333333333357  0.2505473740191310  T  T  T
0.6666666666666643  0.3333333333333357  0.0000000000000000  T  T  T
0.6666666666666643  0.3333333333333357  0.2788289289697971  T  T  T

0.00000000E+00  0.00000000E+00  0.00000000E+00
0.00000000E+00  0.00000000E+00  0.00000000E+00
0.00000000E+00  0.00000000E+00  0.00000000E+00
0.00000000E+00  0.00000000E+00  0.00000000E+00
0.00000000E+00  0.00000000E+00  0.00000000E+00
0.00000000E+00  0.00000000E+00  0.00000000E+00
0.00000000E+00  0.00000000E+00  0.00000000E+00
0.00000000E+00  0.00000000E+00  0.00000000E+00
0.00000000E+00  0.00000000E+00  0.00000000E+00
