Hf3C2  (n=2)
1.00000000000000
3.2558819213713299  0.0000000000000000  0.0000000000000000
-1.6279409606856647  2.8196764561169831  0.0000000000000000
0.0000000000000000  0.0000000000000000  35.1374817216095181
Hf  C  O  H
3  2  2  2
Selective  dynamics
Direct
-0.0000000000000000  0.0000000000000000  0.0653403758931894  T  T  T
-0.0000000000000000  0.0000000000000000  0.1442545285676334  T  T  T
-0.0000000000000000  0.0000000000000000  0.2231686812420852  T  T  T
0.3333333333333357  0.6666666666666643  0.1002669517961760  T  T  T
0.3333333333333357  0.6666666666666643  0.1882421053390910  T  T  T
0.6666666666666643  0.3333333333333357  0.0278542472342550  T  T  T
0.6666666666666643  0.3333333333333357  0.2606548099010196  T  T  T
0.6666666666666643  0.3333333333333357  0.0000000000000000  T  T  T
0.6666666666666643  0.3333333333333357  0.2885090571352748  T  T  T

0.00000000E+00  0.00000000E+00  0.00000000E+00
0.00000000E+00  0.00000000E+00  0.00000000E+00
0.00000000E+00  0.00000000E+00  0.00000000E+00
0.00000000E+00  0.00000000E+00  0.00000000E+00
0.00000000E+00  0.00000000E+00  0.00000000E+00
0.00000000E+00  0.00000000E+00  0.00000000E+00
0.00000000E+00  0.00000000E+00  0.00000000E+00
0.00000000E+00  0.00000000E+00  0.00000000E+00
0.00000000E+00  0.00000000E+00  0.00000000E+00
