Nb3N2  (n=2)
1.00000000000000
2.9328320682661668  0.0000000000000000  0.0000000000000000
-1.4664160341330836  2.5399070763124185  0.0000000000000000
0.0000000000000000  0.0000000000000000  35.7133695951951822
Nb  N  O  H
3  2  2  2
Selective  dynamics
Direct
-0.0000000000000000  0.0000000000000000  0.0678217804147902  T  T  T
-0.0000000000000000  0.0000000000000000  0.1499910218026061  T  T  T
-0.0000000000000000  0.0000000000000000  0.2321602631904298  T  T  T
0.3333333333333357  0.6666666666666643  0.1099465306087108  T  T  T
0.3333333333333357  0.6666666666666643  0.1900355129965014  T  T  T
0.6666666666666643  0.3333333333333357  0.0274407989026637  T  T  T
0.6666666666666643  0.3333333333333357  0.2725412447025564  T  T  T
0.6666666666666643  0.3333333333333357  0.0000000000000000  T  T  T
0.6666666666666643  0.3333333333333357  0.2999820436052200  T  T  T

0.00000000E+00  0.00000000E+00  0.00000000E+00
0.00000000E+00  0.00000000E+00  0.00000000E+00
0.00000000E+00  0.00000000E+00  0.00000000E+00
0.00000000E+00  0.00000000E+00  0.00000000E+00
0.00000000E+00  0.00000000E+00  0.00000000E+00
0.00000000E+00  0.00000000E+00  0.00000000E+00
0.00000000E+00  0.00000000E+00  0.00000000E+00
0.00000000E+00  0.00000000E+00  0.00000000E+00
0.00000000E+00  0.00000000E+00  0.00000000E+00
