Sc3N2  (n=2)
1.00000000000000
3.1507910848336000  0.0000000000000000  0.0000000000000000
-1.5753955424168005  2.7286651216712050  0.0000000000000000
0.0000000000000000  0.0000000000000000  34.8968137780803218
Sc  N  O  H
3  2  2  2
Selective  dynamics
Direct
0.0000000000000000  0.0000000000000000  0.0638465025874212  T  T  T
0.0000000000000000  0.0000000000000000  0.1418011088493204  T  T  T
0.0000000000000000  0.0000000000000000  0.2197557151112274  T  T  T
0.3333333333333357  0.6666666666666643  0.0992756261705923  T  T  T
0.3333333333333357  0.6666666666666643  0.1843265915280561  T  T  T
0.6666666666666643  0.3333333333333357  0.0278908157036581  T  T  T
0.6666666666666643  0.3333333333333357  0.2557114019949980  T  T  T
0.6666666666666643  0.3333333333333357  0.0000000000000000  T  T  T
0.6666666666666643  0.3333333333333357  0.2836022176986482  T  T  T

0.00000000E+00  0.00000000E+00  0.00000000E+00
0.00000000E+00  0.00000000E+00  0.00000000E+00
0.00000000E+00  0.00000000E+00  0.00000000E+00
0.00000000E+00  0.00000000E+00  0.00000000E+00
0.00000000E+00  0.00000000E+00  0.00000000E+00
0.00000000E+00  0.00000000E+00  0.00000000E+00
0.00000000E+00  0.00000000E+00  0.00000000E+00
0.00000000E+00  0.00000000E+00  0.00000000E+00
0.00000000E+00  0.00000000E+00  0.00000000E+00
