Sc3C2  (n=2)
1.00000000000000
3.2213656354759475  0.0000000000000000  0.0000000000000000
-1.6106828177379737  2.7897844754804444  0.0000000000000000
0.0000000000000000  0.0000000000000000  35.2389276807675387
Sc  C  O  H
3  2  2  2
Selective  dynamics
Direct
-0.0000000000000000  -0.0000000000000000  0.0629229586902105  T  T  T
-0.0000000000000000  -0.0000000000000000  0.1452786499850759  T  T  T
-0.0000000000000000  0.0000000000000000  0.2276343412799493  T  T  T
0.3333333333333357  0.6666666666666643  0.1011642846368048  T  T  T
0.3333333333333357  0.6666666666666643  0.1893930153333390  T  T  T
0.6666666666666643  0.3333333333333357  0.0275812222838548  T  T  T
0.6666666666666643  0.3333333333333357  0.2629760776863051  T  T  T
0.6666666666666643  0.3333333333333357  0.0000000000000000  T  T  T
0.6666666666666643  0.3333333333333357  0.2905572999701597  T  T  T

0.00000000E+00  0.00000000E+00  0.00000000E+00
0.00000000E+00  0.00000000E+00  0.00000000E+00
0.00000000E+00  0.00000000E+00  0.00000000E+00
0.00000000E+00  0.00000000E+00  0.00000000E+00
0.00000000E+00  0.00000000E+00  0.00000000E+00
0.00000000E+00  0.00000000E+00  0.00000000E+00
0.00000000E+00  0.00000000E+00  0.00000000E+00
0.00000000E+00  0.00000000E+00  0.00000000E+00
0.00000000E+00  0.00000000E+00  0.00000000E+00
