Ta3C2  (n=2)
1.00000000000000
3.0173961392476163  0.0000000000000001  0.0000000000000000
-1.5086980696238081  2.6131417101647725  0.0000000000000000
0.0000000000000000  0.0000000000000000  35.5151480816101639
Ta  C  O  H
3  2  2  2
Selective  dynamics
Direct
0.0000000000000000  0.0000000000000000  0.0677577862890316  T  T  T
0.0000000000000000  0.0000000000000000  0.1480375086350116  T  T  T
0.0000000000000000  0.0000000000000000  0.2283172309809917  T  T  T
0.3333333333333357  0.6666666666666643  0.1063019396905222  T  T  T
0.3333333333333357  0.6666666666666643  0.1897730775794934  T  T  T
0.6666666666666643  0.3333333333333357  0.0278110642842742  T  T  T
0.6666666666666643  0.3333333333333357  0.2682639529857569  T  T  T
0.6666666666666643  0.3333333333333357  0.0000000000000000  T  T  T
0.6666666666666643  0.3333333333333357  0.2960750172700234  T  T  T

0.00000000E+00  0.00000000E+00  0.00000000E+00
0.00000000E+00  0.00000000E+00  0.00000000E+00
0.00000000E+00  0.00000000E+00  0.00000000E+00
0.00000000E+00  0.00000000E+00  0.00000000E+00
0.00000000E+00  0.00000000E+00  0.00000000E+00
0.00000000E+00  0.00000000E+00  0.00000000E+00
0.00000000E+00  0.00000000E+00  0.00000000E+00
0.00000000E+00  0.00000000E+00  0.00000000E+00
0.00000000E+00  0.00000000E+00  0.00000000E+00
