Cr3N2  (n=2)
1.00000000000000
2.6998938040398865  0.0000000000000000  0.0000000000000000
-1.3499469020199433  2.3381766218022291  0.0000000000000000
0.0000000000000000  0.0000000000000000  34.6347747931075673
Cr  N  O  H
3  2  2  2
Selective  dynamics
Direct
-0.0000000000000000  -0.0000000000000000  0.0652488634729101  T  T  T
-0.0000000000000000  -0.0000000000000000  0.1390910558919660  T  T  T
-0.0000000000000000  -0.0000000000000000  0.2129332483110221  T  T  T
0.3333333333333357  0.6666666666666643  0.1018141966655735  T  T  T
0.3333333333333357  0.6666666666666643  0.1763679151183587  T  T  T
0.6666666666666643  0.3333333333333357  0.0283980589108573  T  T  T
0.6666666666666643  0.3333333333333357  0.2497840528730749  T  T  T
0.6666666666666643  0.3333333333333357  0.0000000000000000  T  T  T
0.6666666666666643  0.3333333333333357  0.2781821117839322  T  T  T

0.00000000E+00  0.00000000E+00  0.00000000E+00
0.00000000E+00  0.00000000E+00  0.00000000E+00
0.00000000E+00  0.00000000E+00  0.00000000E+00
0.00000000E+00  0.00000000E+00  0.00000000E+00
0.00000000E+00  0.00000000E+00  0.00000000E+00
0.00000000E+00  0.00000000E+00  0.00000000E+00
0.00000000E+00  0.00000000E+00  0.00000000E+00
0.00000000E+00  0.00000000E+00  0.00000000E+00
0.00000000E+00  0.00000000E+00  0.00000000E+00
