Mo3C2  (n=2)
1.00000000000000
2.9056417682956468  0.0000000000000001  0.0000000000000000
-1.4528208841478234  2.5163595857595586  0.0000000000000000
0.0000000000000000  0.0000000000000000  35.4544375878190650
Mo  C  O  H
3  2  2  2
Selective  dynamics
Direct
-0.0000000000000000  0.0000000000000000  0.0681266334396790  T  T  T
-0.0000000000000000  0.0000000000000000  0.1474348247934177  T  T  T
-0.0000000000000000  0.0000000000000000  0.2267430161471713  T  T  T
0.3333333333333357  0.6666666666666643  0.1075986982829548  T  T  T
0.3333333333333357  0.6666666666666643  0.1872709513038806  T  T  T
0.6666666666666643  0.3333333333333357  0.0276618949673278  T  T  T
0.6666666666666643  0.3333333333333357  0.2672077546195226  T  T  T
0.6666666666666643  0.3333333333333357  0.0000000000000000  T  T  T
0.6666666666666643  0.3333333333333357  0.2948696495868505  T  T  T

0.00000000E+00  0.00000000E+00  0.00000000E+00
0.00000000E+00  0.00000000E+00  0.00000000E+00
0.00000000E+00  0.00000000E+00  0.00000000E+00
0.00000000E+00  0.00000000E+00  0.00000000E+00
0.00000000E+00  0.00000000E+00  0.00000000E+00
0.00000000E+00  0.00000000E+00  0.00000000E+00
0.00000000E+00  0.00000000E+00  0.00000000E+00
0.00000000E+00  0.00000000E+00  0.00000000E+00
0.00000000E+00  0.00000000E+00  0.00000000E+00
