Nb3C2  (n=2)
1.00000000000000
3.0380808163075486  -0.0000000000000002  0.0000000000000000
-1.5190404081537743  2.6310551660493675  0.0000000000000000
0.0000000000000000  0.0000000000000000  35.5234447823594621
Nb  C  O  H
3  2  2  2
Selective  dynamics
Direct
0.0000000000000000  -0.0000000000000000  0.0676493407668423  T  T  T
0.0000000000000000  0.0000000000000000  0.1481197114586357  T  T  T
0.0000000000000000  -0.0000000000000000  0.2285900821504216  T  T  T
0.3333333333333357  0.6666666666666643  0.1065422026705675  T  T  T
0.3333333333333357  0.6666666666666643  0.1896972202466962  T  T  T
0.6666666666666643  0.3333333333333357  0.0275882424290628  T  T  T
0.6666666666666643  0.3333333333333357  0.2686511804882086  T  T  T
0.6666666666666643  0.3333333333333357  0.0000000000000000  T  T  T
0.6666666666666643  0.3333333333333357  0.2962394229172640  T  T  T

0.00000000E+00  0.00000000E+00  0.00000000E+00
0.00000000E+00  0.00000000E+00  0.00000000E+00
0.00000000E+00  0.00000000E+00  0.00000000E+00
0.00000000E+00  0.00000000E+00  0.00000000E+00
0.00000000E+00  0.00000000E+00  0.00000000E+00
0.00000000E+00  0.00000000E+00  0.00000000E+00
0.00000000E+00  0.00000000E+00  0.00000000E+00
0.00000000E+00  0.00000000E+00  0.00000000E+00
0.00000000E+00  0.00000000E+00  0.00000000E+00
