Mo3N2  (n=2)
1.00000000000000
2.8516695851746805  -0.0000000000000002  0.0000000000000000
-1.4258347925873405  2.4696183041025814  0.0000000000000000
0.0000000000000000  0.0000000000000000  35.5369248619042963
Mo  N  O  H
3  2  2  2
Selective  dynamics
Direct
0.0000000000000000  0.0000000000000000  0.0682754451723781  T  T  T
0.0000000000000000  0.0000000000000000  0.1482531888008038  T  T  T
0.0000000000000000  0.0000000000000000  0.2282309324292371  T  T  T
0.3333333333333357  0.6666666666666643  0.1088186714175347  T  T  T
0.3333333333333357  0.6666666666666643  0.1876877061840729  T  T  T
0.6666666666666643  0.3333333333333357  0.0276573697335411  T  T  T
0.6666666666666643  0.3333333333333357  0.2688490078680741  T  T  T
0.6666666666666643  0.3333333333333357  0.0000000000000000  T  T  T
0.6666666666666643  0.3333333333333357  0.2965063776016229  T  T  T

0.00000000E+00  0.00000000E+00  0.00000000E+00
0.00000000E+00  0.00000000E+00  0.00000000E+00
0.00000000E+00  0.00000000E+00  0.00000000E+00
0.00000000E+00  0.00000000E+00  0.00000000E+00
0.00000000E+00  0.00000000E+00  0.00000000E+00
0.00000000E+00  0.00000000E+00  0.00000000E+00
0.00000000E+00  0.00000000E+00  0.00000000E+00
0.00000000E+00  0.00000000E+00  0.00000000E+00
0.00000000E+00  0.00000000E+00  0.00000000E+00
