Hf3N2  (n=2)
1.00000000000000
3.0649735886181677  0.0000000000000002  0.0000000000000000
-1.5324867943090841  2.6543449899629268  0.0000000000000000
0.0000000000000000  0.0000000000000000  35.5752893148960041
Hf  N  O  H
3  2  2  2
Selective  dynamics
Direct
0.0000000000000000  0.0000000000000000  0.0667821852221002  T  T  T
0.0000000000000000  0.0000000000000000  0.1486325131650816  T  T  T
0.0000000000000000  0.0000000000000000  0.2304828411080709  T  T  T
0.3333333333333357  0.6666666666666643  0.1067630261013441  T  T  T
0.3333333333333357  0.6666666666666643  0.1905020002288270  T  T  T
0.6666666666666643  0.3333333333333357  0.0277211803209332  T  T  T
0.6666666666666643  0.3333333333333357  0.2695438460092379  T  T  T
0.6666666666666643  0.3333333333333357  0.0000000000000000  T  T  T
0.6666666666666643  0.3333333333333357  0.2972650263301708  T  T  T

0.00000000E+00  0.00000000E+00  0.00000000E+00
0.00000000E+00  0.00000000E+00  0.00000000E+00
0.00000000E+00  0.00000000E+00  0.00000000E+00
0.00000000E+00  0.00000000E+00  0.00000000E+00
0.00000000E+00  0.00000000E+00  0.00000000E+00
0.00000000E+00  0.00000000E+00  0.00000000E+00
0.00000000E+00  0.00000000E+00  0.00000000E+00
0.00000000E+00  0.00000000E+00  0.00000000E+00
0.00000000E+00  0.00000000E+00  0.00000000E+00
