Ti3N2  (n=2)
1.00000000000000
2.9113608304920211  0.0000000000000000  0.0000000000000000
-1.4556804152460106  2.5213124388553871  0.0000000000000000
0.0000000000000000  0.0000000000000000  34.8460254152092830
Ti  N  O  H
3  2  2  2
Selective  dynamics
Direct
0.0000000000000000  0.0000000000000000  0.0648919529903949  T  T  T
0.0000000000000000  0.0000000000000000  0.1412790310787035  T  T  T
0.0000000000000000  0.0000000000000000  0.2176661091670197  T  T  T
0.3333333333333357  0.6666666666666643  0.1014726144657234  T  T  T
0.3333333333333357  0.6666666666666643  0.1810854476916838  T  T  T
0.6666666666666643  0.3333333333333357  0.0281497878569517  T  T  T
0.6666666666666643  0.3333333333333357  0.2544082743004554  T  T  T
0.6666666666666643  0.3333333333333357  0.0000000000000000  T  T  T
0.6666666666666643  0.3333333333333357  0.2825580621574069  T  T  T

0.00000000E+00  0.00000000E+00  0.00000000E+00
0.00000000E+00  0.00000000E+00  0.00000000E+00
0.00000000E+00  0.00000000E+00  0.00000000E+00
0.00000000E+00  0.00000000E+00  0.00000000E+00
0.00000000E+00  0.00000000E+00  0.00000000E+00
0.00000000E+00  0.00000000E+00  0.00000000E+00
0.00000000E+00  0.00000000E+00  0.00000000E+00
0.00000000E+00  0.00000000E+00  0.00000000E+00
0.00000000E+00  0.00000000E+00  0.00000000E+00
