Hf2CO2
1.00000000000000
3.3718815230717367  0.0000000000000013  0.0000000000000086
-1.6859407615358615  2.9201350575955067  -0.0000000000000040
0.0000000000000437  -0.0000000000000183  29.3788992332266155
Hf  C  O
2  1  2
Selective  Dynamics
Direct
0.0000000000000004  -0.0000000000000003  0.0273692142657019  T  T  T
0.6666666666666640  0.3333333333333358  0.1216799110423771  T  T  T
0.3333333333333357  0.6666666666666643  0.0745245626540402  T  T  T
0.6666666666666649  0.3333333333333353  0.0000000000000000  T  T  T
-0.0000000000000007  0.0000000000000005  0.1490491253080789  T  T  T

0.00000000E+00  0.00000000E+00  0.00000000E+00
0.00000000E+00  0.00000000E+00  0.00000000E+00
0.00000000E+00  0.00000000E+00  0.00000000E+00
0.00000000E+00  0.00000000E+00  0.00000000E+00
0.00000000E+00  0.00000000E+00  0.00000000E+00
