Zr2C
1.00000000000000
3.3029460070275518  -0.0000000000000007  0.0000000000000003
-1.6514730035137759  2.8604351494974418  -0.0000000000000002
0.0000000000000009  -0.0000000000000019  29.6973271044562352
Zr  C  O
2  1  2
Selective  dynamics
Direct
0.0000000000000000  0.0000000000000000  0.0317478456044298  T  T  T
0.6666666666666643  0.3333333333333357  0.1264255512111839  T  T  T
0.3333333333333357  0.6666666666666643  0.0790866984078069  T  T  T
0.6666666666666643  0.3333333333333357  0.0000000000000000  T  T  T
0.0000000000000000  0.0000000000000000  0.1581733968156137  T  T  T

0.00000000E+00  0.00000000E+00  0.00000000E+00
0.00000000E+00  0.00000000E+00  0.00000000E+00
0.00000000E+00  0.00000000E+00  0.00000000E+00
0.00000000E+00  0.00000000E+00  0.00000000E+00
0.00000000E+00  0.00000000E+00  0.00000000E+00
