Ti2C
1.00000000000000
3.0106628191664271  0.0000000000000000  0.0000000000000000
-1.5053314095832135  2.6073104836733796  0.0000000000000000
0.0000000000000000  -0.0000000000000001  29.4672128886072642
Ti  C  O
2  1  2
Selective  dynamics
Direct
0.0000000000000000  0.0000000000000000  0.0313178277474787  T  T  T
0.6666666666666643  0.3333333333333357  0.1202816094132172  T  T  T
0.3333333333333357  0.6666666666666643  0.0757997185803479  T  T  T
0.6666666666666643  0.3333333333333357  0.0000000000000000  T  T  T
0.0000000000000000  0.0000000000000000  0.1515994371606959  T  T  T

0.00000000E+00  0.00000000E+00  0.00000000E+00
0.00000000E+00  0.00000000E+00  0.00000000E+00
0.00000000E+00  0.00000000E+00  0.00000000E+00
0.00000000E+00  0.00000000E+00  0.00000000E+00
0.00000000E+00  0.00000000E+00  0.00000000E+00
