Cr2C
1.00000000000000
2.8596920627246676  0.0000000000000000  0.0000000000000000
-1.4298460313623338  2.4765659733319474  0.0000000000000000
0.0000000000000000  -0.0000000000000002  29.4774959546313511
Cr  C  O
2  1  2
Selective  dynamics
Direct
0.0000000000000000  0.0000000000000000  0.0324363027833188  T  T  T
0.6666666666666643  0.3333333333333357  0.1194590943536241  T  T  T
0.3333333333333357  0.6666666666666643  0.0759476985684730  T  T  T
0.6666666666666643  0.3333333333333357  0.0000000000000000  T  T  T
0.0000000000000000  0.0000000000000000  0.1518953971369428  T  T  T

0.00000000E+00  0.00000000E+00  0.00000000E+00
0.00000000E+00  0.00000000E+00  0.00000000E+00
0.00000000E+00  0.00000000E+00  0.00000000E+00
0.00000000E+00  0.00000000E+00  0.00000000E+00
0.00000000E+00  0.00000000E+00  0.00000000E+00
