Nb2C
1.00000000000000
3.1318137014242908  0.0000000000000000  0.0000000000000000
-1.5659068507121454  2.7122302254399306  0.0000000000000000
0.0000000000000000  0.0000000000000000  29.7224897857202635
Nb  C  O
2  1  2
Selective  dynamics
Direct
0.0000000000000000  0.0000000000000000  0.0368251021100360  T  T  T
0.6666666666666643  0.3333333333333357  0.1220609743851105  T  T  T
0.3333333333333357  0.6666666666666643  0.0794430382475750  T  T  T
0.6666666666666643  0.3333333333333357  0.0000000000000000  T  T  T
0.0000000000000000  0.0000000000000000  0.1588860764951499  T  T  T

0.00000000E+00  0.00000000E+00  0.00000000E+00
0.00000000E+00  0.00000000E+00  0.00000000E+00
0.00000000E+00  0.00000000E+00  0.00000000E+00
0.00000000E+00  0.00000000E+00  0.00000000E+00
0.00000000E+00  0.00000000E+00  0.00000000E+00
