Mo2C
1.00000000000000
3.0824835202481600  0.0000000000000000  0.0000000000000000
-1.5412417601240800  2.6695090353451016  0.0000000000000000
0.0000000000000000  0.0000000000000000  29.5390646929056686
Mo  C  O
2  1  2
Selective  dynamics
Direct
0.0000000000000000  0.0000000000000000  0.0385238455239680  T  T  T
0.6666666666666643  0.3333333333333357  0.1151392694085742  T  T  T
0.3333333333333357  0.6666666666666643  0.0768315574662695  T  T  T
0.6666666666666643  0.3333333333333357  0.0000000000000000  T  T  T
0.0000000000000000  0.0000000000000000  0.1536631149325391  T  T  T

0.00000000E+00  0.00000000E+00  0.00000000E+00
0.00000000E+00  0.00000000E+00  0.00000000E+00
0.00000000E+00  0.00000000E+00  0.00000000E+00
0.00000000E+00  0.00000000E+00  0.00000000E+00
0.00000000E+00  0.00000000E+00  0.00000000E+00
