Nb2N
1.00000000000000
3.1323908707213421  0.0000000000000000  0.0000000000000000
-1.5661954353606711  2.7127300686860014  0.0000000000000000
0.0000000000000000  0.0000000000000000  29.6177442317374933
Nb  N  O
2  1  2
Selective  dynamics
Direct
0.0000000000000000  0.0000000000000000  0.0367522461341787  T  T  T
0.6666666666666643  0.3333333333333357  0.1191591627701210  T  T  T
0.3333333333333357  0.6666666666666643  0.0779557044521516  T  T  T
0.6666666666666643  0.3333333333333357  0.0000000000000000  T  T  T
0.0000000000000000  0.0000000000000000  0.1559114089043032  T  T  T

0.00000000E+00  0.00000000E+00  0.00000000E+00
0.00000000E+00  0.00000000E+00  0.00000000E+00
0.00000000E+00  0.00000000E+00  0.00000000E+00
0.00000000E+00  0.00000000E+00  0.00000000E+00
0.00000000E+00  0.00000000E+00  0.00000000E+00
