Ti2N
1.00000000000000
2.9781443091026958  0.0000000000000000  0.0000000000000000
-1.4890721545513479  2.5791486278541491  0.0000000000000000
0.0000000000000000  0.0000000000000000  29.4537463018202423
Ti  N  O
2  1  2
Selective  dynamics
Direct
0.0000000000000000  0.0000000000000000  0.0323761814974819  T  T  T
0.6666666666666643  0.3333333333333357  0.1188353573058180  T  T  T
0.3333333333333357  0.6666666666666643  0.0756057694016499  T  T  T
0.6666666666666643  0.3333333333333357  0.0000000000000000  T  T  T
0.0000000000000000  0.0000000000000000  0.1512115388032999  T  T  T

0.00000000E+00  0.00000000E+00  0.00000000E+00
0.00000000E+00  0.00000000E+00  0.00000000E+00
0.00000000E+00  0.00000000E+00  0.00000000E+00
0.00000000E+00  0.00000000E+00  0.00000000E+00
0.00000000E+00  0.00000000E+00  0.00000000E+00
