Hf2N
1.00000000000000
3.1943718663611476  -0.0000000000000005  0.0000000000000000
-1.5971859331805742  2.7664071854762460  0.0000000000000000
-0.0000000000000001  0.0000000000000002  29.6659446459396321
Hf  N  O
2  1  2
Selective  dynamics
Direct
0.0000000000000000  0.0000000000000000  0.0334454072309698  T  T  T
0.6666666666666643  0.3333333333333357  0.1238374536934728  T  T  T
0.3333333333333357  0.6666666666666643  0.0786414304622230  T  T  T
0.6666666666666643  0.3333333333333357  0.0000000000000000  T  T  T
0.0000000000000000  0.0000000000000000  0.1572828609244459  T  T  T

0.00000000E+00  0.00000000E+00  0.00000000E+00
0.00000000E+00  0.00000000E+00  0.00000000E+00
0.00000000E+00  0.00000000E+00  0.00000000E+00
0.00000000E+00  0.00000000E+00  0.00000000E+00
0.00000000E+00  0.00000000E+00  0.00000000E+00
