Ta2C
1.00000000000000
3.1129942581118617  0.0000000000000000  0.0000000000000003
-1.5564971290559309  2.6959321094307285  -0.0000000000000007
0.0000000000000012  -0.0000000000000016  29.6995166368638657
Ta  C  O
2  1  2
Selective  dynamics
Direct
0.0000000000000000  0.0000000000000000  0.0369642164822772  T  T  T
0.6666666666666643  0.3333333333333357  0.1212712421726524  T  T  T
0.3333333333333357  0.6666666666666643  0.0791177293274631  T  T  T
0.6666666666666643  0.3333333333333357  0.0000000000000000  T  T  T
0.0000000000000000  0.0000000000000000  0.1582354586549296  T  T  T

0.00000000E+00  0.00000000E+00  0.00000000E+00
0.00000000E+00  0.00000000E+00  0.00000000E+00
0.00000000E+00  0.00000000E+00  0.00000000E+00
0.00000000E+00  0.00000000E+00  0.00000000E+00
0.00000000E+00  0.00000000E+00  0.00000000E+00
