Sc2C
1.00000000000000
3.2078383030763398  0.0000000000000000  0.0000000000000000
-1.6039191515381699  2.7780694617403272  0.0000000000000000
0.0000000000000000  -0.0000000000000009  29.9184619777868228
Sc  C  O
2  1  2
Selective  dynamics
Direct
0.0000000000000000  0.0000000000000000  0.0255949541813473  T  T  T
0.6666666666666643  0.3333333333333357  0.1388005946753644  T  T  T
0.3333333333333357  0.6666666666666643  0.0821977744283559  T  T  T
0.6666666666666643  0.3333333333333357  0.0000000000000000  T  T  T
0.0000000000000000  0.0000000000000000  0.1643955488567083  T  T  T

0.00000000E+00  0.00000000E+00  0.00000000E+00
0.00000000E+00  0.00000000E+00  0.00000000E+00
0.00000000E+00  0.00000000E+00  0.00000000E+00
0.00000000E+00  0.00000000E+00  0.00000000E+00
0.00000000E+00  0.00000000E+00  0.00000000E+00
