Cr2NO2
1.00000000000000
2.9256481517811128  0.0000000000000000  0.0000000000000001
-1.4628240758905564  2.5336856220253061  -0.0000000000000001
0.0000000000000001  0.0000000000000019  29.3053447479303273
Cr  N  O
2  1  2
Selective  Dynamics
Direct
0.0000000000000000  0.0000000000000000  0.0299758956031689  T  T  T
0.6666666666666643  0.3333333333333357  0.1169373990522161  T  T  T
0.3333333333333357  0.6666666666666643  0.0734566473276925  T  T  T
0.6666666666666643  0.3333333333333357  0.0000000000000000  T  T  T
0.0000000000000000  0.0000000000000000  0.1469132946553849  T  T  T

0.00000000E+00  0.00000000E+00  0.00000000E+00
0.00000000E+00  0.00000000E+00  0.00000000E+00
0.00000000E+00  0.00000000E+00  0.00000000E+00
0.00000000E+00  0.00000000E+00  0.00000000E+00
0.00000000E+00  0.00000000E+00  0.00000000E+00
