Ta2N
1.00000000000000
3.1202994061751701  0.0000000000000000  0.0000000000000000
-1.5601497030875850  2.7022585532361028  0.0000000000000000
0.0000000000000000  0.0000000000000000  29.5678545295165378
Ta  N  O
2  1  2
Selective  dynamics
Direct
0.0000000000000000  0.0000000000000000  0.0367176562316262  T  T  T
0.6666666666666643  0.3333333333333357  0.1177695259532263  T  T  T
0.3333333333333357  0.6666666666666643  0.0772435910924246  T  T  T
0.6666666666666643  0.3333333333333357  0.0000000000000000  T  T  T
0.0000000000000000  0.0000000000000000  0.1544871821848491  T  T  T

0.00000000E+00  0.00000000E+00  0.00000000E+00
0.00000000E+00  0.00000000E+00  0.00000000E+00
0.00000000E+00  0.00000000E+00  0.00000000E+00
0.00000000E+00  0.00000000E+00  0.00000000E+00
0.00000000E+00  0.00000000E+00  0.00000000E+00
