Zr2N
1.00000000000000
3.2477807911593883  0.0000000000000003  -0.0000000000000001
-1.6238903955796942  2.8126606711249509  0.0000000000000002
-0.0000000000000002  0.0000000000000005  29.7404594465152101
Zr  N  O
2  1  2
Selective  dynamics
Direct
0.0000000000000000  0.0000000000000000  0.0336706279258812  T  T  T
0.6666666666666643  0.3333333333333357  0.1257236630412938  T  T  T
0.3333333333333357  0.6666666666666643  0.0796971454835875  T  T  T
0.6666666666666643  0.3333333333333357  0.0000000000000000  T  T  T
0.0000000000000000  0.0000000000000000  0.1593942909671715  T  T  T

0.00000000E+00  0.00000000E+00  0.00000000E+00
0.00000000E+00  0.00000000E+00  0.00000000E+00
0.00000000E+00  0.00000000E+00  0.00000000E+00
0.00000000E+00  0.00000000E+00  0.00000000E+00
0.00000000E+00  0.00000000E+00  0.00000000E+00
