Mo2N
1.00000000000000
2.8373794437836564  -0.0000000000000001  0.0000000000000001
-1.4186897218918280  2.4572426785659869  -0.0000000000000004
-0.0000000000000003  -0.0000000000000022  30.4115423695818308
Mo  N  O
2  1  2
Selective  dynamics
Direct
0.0000000000000000  0.0000000000000000  0.0407646884508468  T  T  T
0.6666666666666643  0.3333333333333357  0.1371790114712772  T  T  T
0.3333333333333357  0.6666666666666643  0.0889718499610620  T  T  T
0.6666666666666643  0.3333333333333357  0.0000000000000000  T  T  T
0.0000000000000000  0.0000000000000000  0.1779436999221241  T  T  T

0.00000000E+00  0.00000000E+00  0.00000000E+00
0.00000000E+00  0.00000000E+00  0.00000000E+00
0.00000000E+00  0.00000000E+00  0.00000000E+00
0.00000000E+00  0.00000000E+00  0.00000000E+00
0.00000000E+00  0.00000000E+00  0.00000000E+00
