Sc2N
1.00000000000000
3.2182953527396823  0.0000000000000000  0.0000000000000002
-1.6091476763698414  2.7871255324091777  0.0000000000000000
0.0000000000000004  0.0000000000000005  29.4639632051174694
Sc  N  O
2  1  2
Selective  dynamics
Direct
0.0000000000000000  0.0000000000000000  0.0273242047102451  T  T  T
0.6666666666666643  0.3333333333333357  0.1241816593868883  T  T  T
0.3333333333333357  0.6666666666666643  0.0757529320485667  T  T  T
0.6666666666666643  0.3333333333333357  0.0000000000000000  T  T  T
0.0000000000000000  0.0000000000000000  0.1515058640971335  T  T  T

0.00000000E+00  0.00000000E+00  0.00000000E+00
0.00000000E+00  0.00000000E+00  0.00000000E+00
0.00000000E+00  0.00000000E+00  0.00000000E+00
0.00000000E+00  0.00000000E+00  0.00000000E+00
0.00000000E+00  0.00000000E+00  0.00000000E+00
