Sc4C3  (n=3)
1.00000000000000
3.4357410878227381  0.0000000000000001  0.0000000000000000
-1.7178705439113691  2.9754390663980885  0.0000000000000000
-0.0000000000000000  -0.0000000000000000  36.9035836855095809
Sc  C  Br
4  3  2
Selective  dynamics
Direct
-0.0000000000000000  0.0000000000000000  0.0519466168846829  T  T  T
-0.0000000000000000  0.0000000000000000  0.1249393314278120  T  T  T
-0.0000000000000000  0.0000000000000000  0.1976196857926102  T  T  T
0.0000000000000000  0.0000000000000000  0.2706124003357392  T  T  T
0.3333333333333357  0.6666666666666643  0.0872910085455053  T  T  T
0.3333333333333357  0.6666666666666643  0.1612795086102075  T  T  T
0.3333333333333357  0.6666666666666643  0.2352680086749026  T  T  T
0.3333333333333357  0.6666666666666643  0.0000000000000000  T  T  T
0.3333333333333357  0.6666666666666643  0.3225590172204224  T  T  T

0.00000000E+00  0.00000000E+00  0.00000000E+00
0.00000000E+00  0.00000000E+00  0.00000000E+00
0.00000000E+00  0.00000000E+00  0.00000000E+00
0.00000000E+00  0.00000000E+00  0.00000000E+00
0.00000000E+00  0.00000000E+00  0.00000000E+00
0.00000000E+00  0.00000000E+00  0.00000000E+00
0.00000000E+00  0.00000000E+00  0.00000000E+00
0.00000000E+00  0.00000000E+00  0.00000000E+00
0.00000000E+00  0.00000000E+00  0.00000000E+00
