Ta4N3  (n=3)
1.00000000000000
3.0446082726379968  -0.0000000000000001  0.0000000000000000
-1.5223041363189984  2.6367081093554972  0.0000000000000000
0.0000000000000000  0.0000000000000000  37.6088657505450925
Ta  N  Br
4  3  2
Selective  dynamics
Direct
-0.0000000000000000  0.0000000000000000  0.0531722324232757  T  T  T
-0.0000000000000000  -0.0000000000000000  0.1293971597669898  T  T  T
-0.0000000000000000  0.0000000000000000  0.2058659623430429  T  T  T
-0.0000000000000000  -0.0000000000000000  0.2820908896867570  T  T  T
0.3333333333333357  0.6666666666666643  0.0915509931788361  T  T  T
0.3333333333333357  0.6666666666666643  0.1676315610550164  T  T  T
0.3333333333333357  0.6666666666666643  0.2437121289311967  T  T  T
0.3333333333333357  0.6666666666666643  0.0000000000000000  T  T  T
0.3333333333333357  0.6666666666666643  0.3352631221100398  T  T  T

0.00000000E+00  0.00000000E+00  0.00000000E+00
0.00000000E+00  0.00000000E+00  0.00000000E+00
0.00000000E+00  0.00000000E+00  0.00000000E+00
0.00000000E+00  0.00000000E+00  0.00000000E+00
0.00000000E+00  0.00000000E+00  0.00000000E+00
0.00000000E+00  0.00000000E+00  0.00000000E+00
0.00000000E+00  0.00000000E+00  0.00000000E+00
0.00000000E+00  0.00000000E+00  0.00000000E+00
0.00000000E+00  0.00000000E+00  0.00000000E+00
