Zr4N3  (n=3)
1.00000000000000
3.2399459268827835  0.0000000000000019  0.0000000000000000
-1.6199729634413909  2.8058754819231004  0.0000000000000000
0.0000000000000000  0.0000000000000000  37.6913685386369792
Zr  N  Br
4  3  2
Selective  dynamics
Direct
0.0000000000000000  0.0000000000000000  0.0525085306484885  T  T  T
0.0000000000000000  0.0000000000000000  0.1295552543026669  T  T  T
0.0000000000000000  0.0000000000000000  0.2071629130312400  T  T  T
0.0000000000000000  0.0000000000000000  0.2842096366854183  T  T  T
0.3333333333333357  0.6666666666666643  0.0904335213223423  T  T  T
0.3333333333333357  0.6666666666666643  0.1683590836669534  T  T  T
0.3333333333333357  0.6666666666666643  0.2462846460115646  T  T  T
0.3333333333333357  0.6666666666666643  0.0000000000000000  T  T  T
0.3333333333333357  0.6666666666666643  0.3367181673339139  T  T  T

0.00000000E+00  0.00000000E+00  0.00000000E+00
0.00000000E+00  0.00000000E+00  0.00000000E+00
0.00000000E+00  0.00000000E+00  0.00000000E+00
0.00000000E+00  0.00000000E+00  0.00000000E+00
0.00000000E+00  0.00000000E+00  0.00000000E+00
0.00000000E+00  0.00000000E+00  0.00000000E+00
0.00000000E+00  0.00000000E+00  0.00000000E+00
0.00000000E+00  0.00000000E+00  0.00000000E+00
0.00000000E+00  0.00000000E+00  0.00000000E+00
