Sc4N3  (n=3)
1.00000000000000
3.2439751136623420  0.0000000000000000  0.0000000000000000
-1.6219875568311710  2.8093648597572476  0.0000000000000000
0.0000000000000000  0.0000000000000000  37.1782952953512620
Sc  N  Br
4  3  2
Selective  dynamics
Direct
-0.0000000000000000  0.0000000000000000  0.0529521834172061  T  T  T
-0.0000000000000000  0.0000000000000000  0.1271930882386980  T  T  T
-0.0000000000000000  0.0000000000000000  0.2003715620123324  T  T  T
0.0000000000000000  0.0000000000000000  0.2746124668338243  T  T  T
0.3333333333333357  0.6666666666666643  0.0852008660778958  T  T  T
0.3333333333333357  0.6666666666666643  0.1637823251255116  T  T  T
0.3333333333333357  0.6666666666666643  0.2423637841731274  T  T  T
0.3333333333333357  0.6666666666666643  0.0000000000000000  T  T  T
0.3333333333333357  0.6666666666666643  0.3275646502510304  T  T  T

0.00000000E+00  0.00000000E+00  0.00000000E+00
0.00000000E+00  0.00000000E+00  0.00000000E+00
0.00000000E+00  0.00000000E+00  0.00000000E+00
0.00000000E+00  0.00000000E+00  0.00000000E+00
0.00000000E+00  0.00000000E+00  0.00000000E+00
0.00000000E+00  0.00000000E+00  0.00000000E+00
0.00000000E+00  0.00000000E+00  0.00000000E+00
0.00000000E+00  0.00000000E+00  0.00000000E+00
0.00000000E+00  0.00000000E+00  0.00000000E+00
