Ti4C3  (n=3)
1.00000000000000
3.1663040835725060  0.0000000000000001  0.0000000000000000
-1.5831520417862532  2.7420997735272610  0.0000000000000000
-0.0000000000000000  0.0000000000000000  36.6290316506370459
Ti  C  Br
4  3  2
Selective  dynamics
Direct
0.0000000000000000  0.0000000000000000  0.0522684125552853  T  T  T
0.0000000000000000  0.0000000000000000  0.1236442352553938  T  T  T
0.0000000000000000  0.0000000000000000  0.1938370392034355  T  T  T
-0.0000000000000000  -0.0000000000000000  0.2652128619035439  T  T  T
0.3333333333333357  0.6666666666666643  0.0833384904557561  T  T  T
0.3333333333333357  0.6666666666666643  0.1587406372294146  T  T  T
0.3333333333333357  0.6666666666666643  0.2341427840030658  T  T  T
0.3333333333333357  0.6666666666666643  0.0000000000000000  T  T  T
0.3333333333333357  0.6666666666666643  0.3174812744588293  T  T  T

0.00000000E+00  0.00000000E+00  0.00000000E+00
0.00000000E+00  0.00000000E+00  0.00000000E+00
0.00000000E+00  0.00000000E+00  0.00000000E+00
0.00000000E+00  0.00000000E+00  0.00000000E+00
0.00000000E+00  0.00000000E+00  0.00000000E+00
0.00000000E+00  0.00000000E+00  0.00000000E+00
0.00000000E+00  0.00000000E+00  0.00000000E+00
0.00000000E+00  0.00000000E+00  0.00000000E+00
0.00000000E+00  0.00000000E+00  0.00000000E+00
