Mo4C3  (n=3)
1.00000000000000
3.0183824833152126  0.0000000000000006  0.0000000000000000
-1.5091912416576065  2.6139959095670093  -0.0000000000000000
0.0000000000000000  0.0000000000000000  37.3625884940392297
Mo  C  Br
4  3  2
Selective  dynamics
Direct
0.0000000000000000  0.0000000000000000  0.0539849453213227  T  T  T
0.0000000000000000  0.0000000000000000  0.1280891535397348  T  T  T
0.0000000000000000  0.0000000000000000  0.2027923242254243  T  T  T
-0.0000000000000000  0.0000000000000000  0.2768965324438364  T  T  T
0.3333333333333357  0.6666666666666643  0.0896107386567149  T  T  T
0.3333333333333357  0.6666666666666643  0.1654407388825760  T  T  T
0.3333333333333357  0.6666666666666643  0.2412707391084372  T  T  T
0.3333333333333357  0.6666666666666643  0.0000000000000000  T  T  T
0.3333333333333357  0.6666666666666643  0.3308814777651590  T  T  T

0.00000000E+00  0.00000000E+00  0.00000000E+00
0.00000000E+00  0.00000000E+00  0.00000000E+00
0.00000000E+00  0.00000000E+00  0.00000000E+00
0.00000000E+00  0.00000000E+00  0.00000000E+00
0.00000000E+00  0.00000000E+00  0.00000000E+00
0.00000000E+00  0.00000000E+00  0.00000000E+00
0.00000000E+00  0.00000000E+00  0.00000000E+00
0.00000000E+00  0.00000000E+00  0.00000000E+00
0.00000000E+00  0.00000000E+00  0.00000000E+00
