Nb4N3  (n=3)
1.00000000000000
3.0763408621514832  0.0000000000000000  0.0000000000000000
-1.5381704310757416  2.6641893385258433  0.0000000000000000
0.0000000000000000  0.0000000000000000  37.5333791688144345
Nb  N  Br
4  3  2
Selective  dynamics
Direct
0.0000000000000000  -0.0000000000000000  0.0524879089010000  T  T  T
0.0000000000000000  -0.0000000000000000  0.1287475443426328  T  T  T
0.0000000000000000  -0.0000000000000000  0.2051786687074332  T  T  T
0.0000000000000000  -0.0000000000000000  0.2814383041490662  T  T  T
0.3333333333333357  0.6666666666666643  0.0905632179259611  T  T  T
0.3333333333333357  0.6666666666666643  0.1669631065250295  T  T  T
0.3333333333333357  0.6666666666666643  0.2433629951240980  T  T  T
0.3333333333333357  0.6666666666666643  0.0000000000000000  T  T  T
0.3333333333333357  0.6666666666666643  0.3339262130500660  T  T  T

0.00000000E+00  0.00000000E+00  0.00000000E+00
0.00000000E+00  0.00000000E+00  0.00000000E+00
0.00000000E+00  0.00000000E+00  0.00000000E+00
0.00000000E+00  0.00000000E+00  0.00000000E+00
0.00000000E+00  0.00000000E+00  0.00000000E+00
0.00000000E+00  0.00000000E+00  0.00000000E+00
0.00000000E+00  0.00000000E+00  0.00000000E+00
0.00000000E+00  0.00000000E+00  0.00000000E+00
0.00000000E+00  0.00000000E+00  0.00000000E+00
