Hf4C3  (n=3)
1.00000000000000
3.3200774786883382  0.0000000000000005  0.0000000000000000
-1.6600387393441689  2.8752714444917924  0.0000000000000000
0.0000000000000000  0.0000000000000000  37.5104628771486119
Hf  C  Br
4  3  2
Selective  dynamics
Direct
0.0000000000000000  0.0000000000000000  0.0539643576020261  T  T  T
0.0000000000000000  0.0000000000000000  0.1297623205434680  T  T  T
0.0000000000000000  0.0000000000000000  0.2037569676114638  T  T  T
-0.0000000000000000  0.0000000000000000  0.2795549305529132  T  T  T
0.3333333333333357  0.6666666666666643  0.0863553365894819  T  T  T
0.3333333333333357  0.6666666666666643  0.1667596440774660  T  T  T
0.3333333333333357  0.6666666666666643  0.2471639515654427  T  T  T
0.3333333333333357  0.6666666666666643  0.0000000000000000  T  T  T
0.3333333333333357  0.6666666666666643  0.3335192881549321  T  T  T

0.00000000E+00  0.00000000E+00  0.00000000E+00
0.00000000E+00  0.00000000E+00  0.00000000E+00
0.00000000E+00  0.00000000E+00  0.00000000E+00
0.00000000E+00  0.00000000E+00  0.00000000E+00
0.00000000E+00  0.00000000E+00  0.00000000E+00
0.00000000E+00  0.00000000E+00  0.00000000E+00
0.00000000E+00  0.00000000E+00  0.00000000E+00
0.00000000E+00  0.00000000E+00  0.00000000E+00
0.00000000E+00  0.00000000E+00  0.00000000E+00
