Mo4N3  (n=3)
1.00000000000000
2.9932665519791786  0.0000000000000002  0.0000000000000000
-1.4966332759895893  2.5922448747181877  0.0000000000000000
0.0000000000000000  0.0000000000000000  37.3865540417266189
Mo  N  Br
4  3  2
Selective  dynamics
Direct
-0.0000000000000000  -0.0000000000000000  0.0554083679544564  T  T  T
-0.0000000000000000  -0.0000000000000000  0.1276698715445964  T  T  T
-0.0000000000000000  -0.0000000000000000  0.2036405249124403  T  T  T
-0.0000000000000000  -0.0000000000000000  0.2759020285025806  T  T  T
0.3333333333333357  0.6666666666666643  0.0912085723593231  T  T  T
0.3333333333333357  0.6666666666666643  0.1656551982285149  T  T  T
0.3333333333333357  0.6666666666666643  0.2401018240976998  T  T  T
0.3333333333333357  0.6666666666666643  0.0000000000000000  T  T  T
0.3333333333333357  0.6666666666666643  0.3313103964570299  T  T  T

0.00000000E+00  0.00000000E+00  0.00000000E+00
0.00000000E+00  0.00000000E+00  0.00000000E+00
0.00000000E+00  0.00000000E+00  0.00000000E+00
0.00000000E+00  0.00000000E+00  0.00000000E+00
0.00000000E+00  0.00000000E+00  0.00000000E+00
0.00000000E+00  0.00000000E+00  0.00000000E+00
0.00000000E+00  0.00000000E+00  0.00000000E+00
0.00000000E+00  0.00000000E+00  0.00000000E+00
0.00000000E+00  0.00000000E+00  0.00000000E+00
