Ta4C3  (n=3)
1.00000000000000
3.1407387660932202  0.0000000000000003  -0.0000000000000000
-1.5703693830466101  2.7199595599154396  0.0000000000000000
-0.0000000000000000  0.0000000000000000  37.3800860626710829
Ta  C  Br
4  3  2
Selective  dynamics
Direct
0.0000000000000000  0.0000000000000000  0.0524362782569646  T  T  T
0.0000000000000000  0.0000000000000000  0.1275631661972975  T  T  T
0.0000000000000000  0.0000000000000000  0.2036315250592921  T  T  T
0.0000000000000000  0.0000000000000000  0.2787584129996248  T  T  T
0.3333333333333357  0.6666666666666643  0.0874543067270318  T  T  T
0.3333333333333357  0.6666666666666643  0.1655973456282947  T  T  T
0.3333333333333357  0.6666666666666643  0.2437403845295504  T  T  T
0.3333333333333357  0.6666666666666643  0.0000000000000000  T  T  T
0.3333333333333357  0.6666666666666643  0.3311946912565893  T  T  T

0.00000000E+00  0.00000000E+00  0.00000000E+00
0.00000000E+00  0.00000000E+00  0.00000000E+00
0.00000000E+00  0.00000000E+00  0.00000000E+00
0.00000000E+00  0.00000000E+00  0.00000000E+00
0.00000000E+00  0.00000000E+00  0.00000000E+00
0.00000000E+00  0.00000000E+00  0.00000000E+00
0.00000000E+00  0.00000000E+00  0.00000000E+00
0.00000000E+00  0.00000000E+00  0.00000000E+00
0.00000000E+00  0.00000000E+00  0.00000000E+00
