Zr4C3  (n=3)
1.00000000000000
3.3684096360660911  0.0000000000000000  -0.0000000000000000
-1.6842048180330456  2.9171283224762052  0.0000000000000000
-0.0000000000000000  -0.0000000000000000  37.6436106166939553
Zr  C  Br
4  3  2
Selective  dynamics
Direct
-0.0000000000000000  -0.0000000000000000  0.0539948266723169  T  T  T
-0.0000000000000000  -0.0000000000000000  0.1305494370553455  T  T  T
-0.0000000000000000  -0.0000000000000000  0.2053272339005178  T  T  T
-0.0000000000000000  -0.0000000000000000  0.2818818442835465  T  T  T
0.3333333333333357  0.6666666666666643  0.0868295284809942  T  T  T
0.3333333333333357  0.6666666666666643  0.1679383354779280  T  T  T
0.3333333333333357  0.6666666666666643  0.2490471424748617  T  T  T
0.3333333333333357  0.6666666666666643  0.0000000000000000  T  T  T
0.3333333333333357  0.6666666666666643  0.3358766709558632  T  T  T

0.00000000E+00  0.00000000E+00  0.00000000E+00
0.00000000E+00  0.00000000E+00  0.00000000E+00
0.00000000E+00  0.00000000E+00  0.00000000E+00
0.00000000E+00  0.00000000E+00  0.00000000E+00
0.00000000E+00  0.00000000E+00  0.00000000E+00
0.00000000E+00  0.00000000E+00  0.00000000E+00
0.00000000E+00  0.00000000E+00  0.00000000E+00
0.00000000E+00  0.00000000E+00  0.00000000E+00
0.00000000E+00  0.00000000E+00  0.00000000E+00
