Nb4C3  (n=3)
1.00000000000000
3.1625835158765692  0.0000000000000000  0.0000000000000000
-1.5812917579382841  2.7388776679937643  0.0000000000000000
0.0000000000000000  0.0000000000000000  37.3836344486660010
Nb  C  Br
4  3  2
Selective  dynamics
Direct
0.0000000000000000  0.0000000000000000  0.0522602459419565  T  T  T
0.0000000000000000  0.0000000000000000  0.1275084973069176  T  T  T
0.0000000000000000  0.0000000000000000  0.2037496757225351  T  T  T
0.0000000000000000  0.0000000000000000  0.2789979270874961  T  T  T
0.3333333333333357  0.6666666666666643  0.0872963452443295  T  T  T
0.3333333333333357  0.6666666666666643  0.1656290865147228  T  T  T
0.3333333333333357  0.6666666666666643  0.2439618277851160  T  T  T
0.3333333333333357  0.6666666666666643  0.0000000000000000  T  T  T
0.3333333333333357  0.6666666666666643  0.3312581730294524  T  T  T

0.00000000E+00  0.00000000E+00  0.00000000E+00
0.00000000E+00  0.00000000E+00  0.00000000E+00
0.00000000E+00  0.00000000E+00  0.00000000E+00
0.00000000E+00  0.00000000E+00  0.00000000E+00
0.00000000E+00  0.00000000E+00  0.00000000E+00
0.00000000E+00  0.00000000E+00  0.00000000E+00
0.00000000E+00  0.00000000E+00  0.00000000E+00
0.00000000E+00  0.00000000E+00  0.00000000E+00
0.00000000E+00  0.00000000E+00  0.00000000E+00
