Cr4N3  (n=3)
1.00000000000000
2.8586006783442142  0.0000000000000000  0.0000000000000000
-1.4293003391721071  2.4756208067295704  0.0000000000000000
0.0000000000000000  0.0000000000000000  36.3949284390253496
Cr  N  Br
4  3  2
Selective  dynamics
Direct
-0.0000000000000000  -0.0000000000000000  0.0531464080913872  T  T  T
0.0000000000000000  -0.0000000000000000  0.1215029831306207  T  T  T
0.0000000000000000  -0.0000000000000000  0.1915881240030552  T  T  T
0.0000000000000000  -0.0000000000000000  0.2599446990422888  T  T  T
0.3333333333333357  0.6666666666666643  0.0854554627739355  T  T  T
0.3333333333333357  0.6666666666666643  0.1565455535668379  T  T  T
0.3333333333333357  0.6666666666666643  0.2276356443597336  T  T  T
0.3333333333333357  0.6666666666666643  0.0000000000000000  T  T  T
0.3333333333333357  0.6666666666666643  0.3130911071336759  T  T  T

0.00000000E+00  0.00000000E+00  0.00000000E+00
0.00000000E+00  0.00000000E+00  0.00000000E+00
0.00000000E+00  0.00000000E+00  0.00000000E+00
0.00000000E+00  0.00000000E+00  0.00000000E+00
0.00000000E+00  0.00000000E+00  0.00000000E+00
0.00000000E+00  0.00000000E+00  0.00000000E+00
0.00000000E+00  0.00000000E+00  0.00000000E+00
0.00000000E+00  0.00000000E+00  0.00000000E+00
0.00000000E+00  0.00000000E+00  0.00000000E+00
