Cr4C3  (n=3)
1.00000000000000
2.8807132023830069  0.0000000000000000  0.0000000000000000
-1.4403566011915032  2.4947708142356060  0.0000000000000000
0.0000000000000000  0.0000000000000000  36.3296065760901925
Cr  C  Br
4  3  2
Selective  dynamics
Direct
0.0000000000000000  0.0000000000000000  0.0516282445900784  T  T  T
0.0000000000000000  0.0000000000000000  0.1209637809295646  T  T  T
0.0000000000000000  0.0000000000000000  0.1908922407523802  T  T  T
0.0000000000000000  0.0000000000000000  0.2602277770918799  T  T  T
0.3333333333333357  0.6666666666666643  0.0846204405807379  T  T  T
0.3333333333333357  0.6666666666666643  0.1559280108409792  T  T  T
0.3333333333333357  0.6666666666666643  0.2272355811012136  T  T  T
0.3333333333333357  0.6666666666666643  0.0000000000000000  T  T  T
0.3333333333333357  0.6666666666666643  0.3118560216819581  T  T  T

0.00000000E+00  0.00000000E+00  0.00000000E+00
0.00000000E+00  0.00000000E+00  0.00000000E+00
0.00000000E+00  0.00000000E+00  0.00000000E+00
0.00000000E+00  0.00000000E+00  0.00000000E+00
0.00000000E+00  0.00000000E+00  0.00000000E+00
0.00000000E+00  0.00000000E+00  0.00000000E+00
0.00000000E+00  0.00000000E+00  0.00000000E+00
0.00000000E+00  0.00000000E+00  0.00000000E+00
0.00000000E+00  0.00000000E+00  0.00000000E+00
