Hf4N3  (n=3)
1.00000000000000
3.1864932819328637  -0.0000000000000005  0.0000000000000000
-1.5932466409664323  2.7595841327882242  0.0000000000000000
0.0000000000000000  0.0000000000000000  37.5980627186379692
Hf  N  Br
4  3  2
Selective  dynamics
Direct
0.0000000000000000  -0.0000000000000000  0.0521769042938407  T  T  T
0.0000000000000000  -0.0000000000000000  0.1289194347565180  T  T  T
0.0000000000000000  -0.0000000000000000  0.2061526888503500  T  T  T
0.0000000000000000  -0.0000000000000000  0.2828952193130272  T  T  T
0.3333333333333357  0.6666666666666643  0.0904750820633111  T  T  T
0.3333333333333357  0.6666666666666643  0.1675360618034305  T  T  T
0.3333333333333357  0.6666666666666643  0.2445970415435498  T  T  T
0.3333333333333357  0.6666666666666643  0.0000000000000000  T  T  T
0.3333333333333357  0.6666666666666643  0.3350721236068609  T  T  T

0.00000000E+00  0.00000000E+00  0.00000000E+00
0.00000000E+00  0.00000000E+00  0.00000000E+00
0.00000000E+00  0.00000000E+00  0.00000000E+00
0.00000000E+00  0.00000000E+00  0.00000000E+00
0.00000000E+00  0.00000000E+00  0.00000000E+00
0.00000000E+00  0.00000000E+00  0.00000000E+00
0.00000000E+00  0.00000000E+00  0.00000000E+00
0.00000000E+00  0.00000000E+00  0.00000000E+00
0.00000000E+00  0.00000000E+00  0.00000000E+00
