Ti4N3  (n=3)
1.00000000000000
3.0514473401298972  0.0000000000000002  0.0000000000000000
-1.5257236700649481  2.6426309151686991  0.0000000000000000
0.0000000000000000  0.0000000000000000  36.6627806729356536
Ti  N  Br
4  3  2
Selective  dynamics
Direct
-0.0000000000000000  -0.0000000000000000  0.0509977134451125  T  T  T
-0.0000000000000000  -0.0000000000000000  0.1227733004861988  T  T  T
-0.0000000000000000  -0.0000000000000000  0.1953362498225446  T  T  T
-0.0000000000000000  -0.0000000000000000  0.2671118368636308  T  T  T
0.3333333333333357  0.6666666666666643  0.0848626422907278  T  T  T
0.3333333333333357  0.6666666666666643  0.1590547751543717  T  T  T
0.3333333333333357  0.6666666666666643  0.2332469080180016  T  T  T
0.3333333333333357  0.6666666666666643  0.0000000000000000  T  T  T
0.3333333333333357  0.6666666666666643  0.3181095503087434  T  T  T

0.00000000E+00  0.00000000E+00  0.00000000E+00
0.00000000E+00  0.00000000E+00  0.00000000E+00
0.00000000E+00  0.00000000E+00  0.00000000E+00
0.00000000E+00  0.00000000E+00  0.00000000E+00
0.00000000E+00  0.00000000E+00  0.00000000E+00
0.00000000E+00  0.00000000E+00  0.00000000E+00
0.00000000E+00  0.00000000E+00  0.00000000E+00
0.00000000E+00  0.00000000E+00  0.00000000E+00
0.00000000E+00  0.00000000E+00  0.00000000E+00
