Sc2N
1.00000000000000
3.3292645449535643  -0.0000000000000003  0.0000000000000005
-1.6646322724767824  2.8832276720741374  0.0000000000000001
0.0000000000000030  0.0000000000000028  30.8865993187176144
Sc  N  S
2  1  2
Selective  dynamics
Direct
0.0000000000000000  0.0000000000000000  0.0538729288539218  T  T  T
0.6666666666666643  0.3333333333333357  0.1367145572585514  T  T  T
0.3333333333333357  0.6666666666666643  0.0952937430562366  T  T  T
0.6666666666666643  0.3333333333333357  0.0000000000000000  T  T  T
-0.0000000000000000  -0.0000000000000000  0.1905874861124731  T  T  T

0.00000000E+00  0.00000000E+00  0.00000000E+00
0.00000000E+00  0.00000000E+00  0.00000000E+00
0.00000000E+00  0.00000000E+00  0.00000000E+00
0.00000000E+00  0.00000000E+00  0.00000000E+00
0.00000000E+00  0.00000000E+00  0.00000000E+00
