Zr2C  (n=1)
1.00000000000000
3.4898570436362952  -0.0000000000000018  0.0000000000000006
-1.7449285218181487  3.0223048556928074  -0.0000000000000003
0.0000000000000050  -0.0000000000000022  30.8032984205209033
Zr  C  S
2  1  2
Selective  dynamics
Direct
0.0000000000000000  -0.0000000000000000  0.0505136690372375  T  T  T
0.6666666666666643  0.3333333333333357  0.1378849349465096  T  T  T
0.3333333333333357  0.6666666666666643  0.0941993019918736  T  T  T
0.6666666666666643  0.3333333333333357  0.0000000000000000  T  T  T
-0.0000000000000000  0.0000000000000000  0.1883986039837471  T  T  T

0.00000000E+00  0.00000000E+00  0.00000000E+00
0.00000000E+00  0.00000000E+00  0.00000000E+00
0.00000000E+00  0.00000000E+00  0.00000000E+00
0.00000000E+00  0.00000000E+00  0.00000000E+00
0.00000000E+00  0.00000000E+00  0.00000000E+00
