Zr2N  (n=1)
1.00000000000000
3.4391388590072962  0.0000000000000013  -0.0000000000000003
-1.7195694295036470  2.9783816193620352  0.0000000000000006
-0.0000000000000023  0.0000000000000045  30.7668259027500071
Zr  N  S
2  1  2
Selective  dynamics
Direct
0.0000000000000000  0.0000000000000000  0.0514506727607539  T  T  T
0.6666666666666643  0.3333333333333357  0.1359858187700402  T  T  T
0.3333333333333357  0.6666666666666643  0.0937182457653935  T  T  T
0.6666666666666643  0.3333333333333357  0.0000000000000000  T  T  T
-0.0000000000000000  -0.0000000000000000  0.1874364915307872  T  T  T

0.00000000E+00  0.00000000E+00  0.00000000E+00
0.00000000E+00  0.00000000E+00  0.00000000E+00
0.00000000E+00  0.00000000E+00  0.00000000E+00
0.00000000E+00  0.00000000E+00  0.00000000E+00
0.00000000E+00  0.00000000E+00  0.00000000E+00
