Nb2C  (n=1)
1.00000000000000
3.2845264446625011  0.0000000000000000  -0.0000000000000000
-1.6422632223312505  2.8444833408049068  0.0000000000000000
0.0000000000000000  0.0000000000000001  30.6993790585364827
Nb  C  S
2  1  2
Selective  dynamics
Direct
0.0000000000000000  0.0000000000000000  0.0536909260950296  T  T  T
0.6666666666666643  0.3333333333333357  0.1319603552442154  T  T  T
0.3333333333333357  0.6666666666666643  0.0928256406696188  T  T  T
0.6666666666666643  0.3333333333333357  0.0000000000000000  T  T  T
-0.0000000000000000  -0.0000000000000000  0.1856512813392450  T  T  T

0.00000000E+00  0.00000000E+00  0.00000000E+00
0.00000000E+00  0.00000000E+00  0.00000000E+00
0.00000000E+00  0.00000000E+00  0.00000000E+00
0.00000000E+00  0.00000000E+00  0.00000000E+00
0.00000000E+00  0.00000000E+00  0.00000000E+00
