Hf2C  (n=1)
1.00000000000000
3.4414277492938781  0.0000000000000017  0.0000000000000000
-1.7207138746469377  2.9803638564927901  -0.0000000000000004
0.0000000000000002  -0.0000000000000073  30.7323066490941699
Hf  C  S
2  1  2
Selective  dynamics
Direct
-0.0000000000000000  -0.0000000000000000  0.0502103335743583  T  T  T
0.6666666666666643  0.3333333333333357  0.1363134674063710  T  T  T
0.3333333333333357  0.6666666666666643  0.0932619004903646  T  T  T
0.6666666666666643  0.3333333333333357  0.0000000000000000  T  T  T
-0.0000000000000000  -0.0000000000000000  0.1865238009807223  T  T  T

0.00000000E+00  0.00000000E+00  0.00000000E+00
0.00000000E+00  0.00000000E+00  0.00000000E+00
0.00000000E+00  0.00000000E+00  0.00000000E+00
0.00000000E+00  0.00000000E+00  0.00000000E+00
0.00000000E+00  0.00000000E+00  0.00000000E+00
