Nb2N  (n=1)
1.00000000000000
3.3154017281192738  0.0000000000000000  0.0000000000000000
-1.6577008640596369  2.8712221205687940  0.0000000000000000
0.0000000000000000  0.0000000000000001  30.5158756519457697
Nb  N  S
2  1  2
Selective  dynamics
Direct
0.0000000000000000  0.0000000000000000  0.0528475151570377  T  T  T
0.6666666666666643  0.3333333333333357  0.1279067818802838  T  T  T
0.3333333333333357  0.6666666666666643  0.0903771485186607  T  T  T
0.6666666666666643  0.3333333333333357  0.0000000000000000  T  T  T
-0.0000000000000000  -0.0000000000000000  0.1807542970373213  T  T  T

0.00000000E+00  0.00000000E+00  0.00000000E+00
0.00000000E+00  0.00000000E+00  0.00000000E+00
0.00000000E+00  0.00000000E+00  0.00000000E+00
0.00000000E+00  0.00000000E+00  0.00000000E+00
0.00000000E+00  0.00000000E+00  0.00000000E+00
