Ta2C  (n=1)
1.00000000000000
3.2844944362551165  -0.0000000000000001  0.0000000000000007
-1.6422472181275585  2.8444556206602831  -0.0000000000000019
0.0000000000000065  -0.0000000000000146  30.6210656419380811
Ta  C  S
2  1  2
Selective  dynamics
Direct
-0.0000000000000000  -0.0000000000000000  0.0530165199646500  T  T  T
0.6666666666666643  0.3333333333333357  0.1305520634304218  T  T  T
0.3333333333333357  0.6666666666666643  0.0917842916975359  T  T  T
0.6666666666666643  0.3333333333333357  0.0000000000000000  T  T  T
-0.0000000000000000  -0.0000000000000000  0.1835685833950718  T  T  T

0.00000000E+00  0.00000000E+00  0.00000000E+00
0.00000000E+00  0.00000000E+00  0.00000000E+00
0.00000000E+00  0.00000000E+00  0.00000000E+00
0.00000000E+00  0.00000000E+00  0.00000000E+00
0.00000000E+00  0.00000000E+00  0.00000000E+00
