Cr2N  (n=1)
1.00000000000000
3.0475678513955313  0.0000000000000002  0.0000000000000000
-1.5237839256977654  2.6392711792535910  0.0000000000000000
0.0000000000000009  -0.0000000000000009  30.1673971848959752
Cr  N  S
2  1  2
Selective  dynamics
Direct
0.0000000000000000  0.0000000000000000  0.0504763999472595  T  T  T
0.6666666666666643  0.3333333333333357  0.1208143863683514  T  T  T
0.3333333333333357  0.6666666666666643  0.0856453931578021  T  T  T
0.6666666666666643  0.3333333333333357  0.0000000000000000  T  T  T
-0.0000000000000000  -0.0000000000000000  0.1712907863156041  T  T  T

0.00000000E+00  0.00000000E+00  0.00000000E+00
0.00000000E+00  0.00000000E+00  0.00000000E+00
0.00000000E+00  0.00000000E+00  0.00000000E+00
0.00000000E+00  0.00000000E+00  0.00000000E+00
0.00000000E+00  0.00000000E+00  0.00000000E+00
