Ti2N  (n=1)
1.00000000000000
3.1646128828134636  0.0000000000000000  0.0000000000000000
-1.5823064414067318  2.7406351498292185  0.0000000000000000
0.0000000000000000  0.0000000000000000  30.4581527919203410
Ti  N  S
2  1  2
Selective  dynamics
Direct
0.0000000000000000  0.0000000000000000  0.0511149490719934  T  T  T
0.6666666666666643  0.3333333333333357  0.1280867520032022  T  T  T
0.3333333333333357  0.6666666666666643  0.0896008505375978  T  T  T
0.6666666666666643  0.3333333333333357  0.0000000000000000  T  T  T
0.0000000000000000  0.0000000000000000  0.1792017010751956  T  T  T

0.00000000E+00  0.00000000E+00  0.00000000E+00
0.00000000E+00  0.00000000E+00  0.00000000E+00
0.00000000E+00  0.00000000E+00  0.00000000E+00
0.00000000E+00  0.00000000E+00  0.00000000E+00
0.00000000E+00  0.00000000E+00  0.00000000E+00
