Mo2N  (n=1)
1.00000000000000
3.0464522166821228  0.0000000000000004  0.0000000000000002
-1.5232261083410608  2.6383050113106319  -0.0000000000000009
0.0000000000000013  -0.0000000000000083  30.9985082582249163
Mo  N  S
2  1  2
Selective  dynamics
Direct
-0.0000000000000000  -0.0000000000000000  0.0527526137397386  T  T  T
0.6666666666666643  0.3333333333333357  0.1407569644714493  T  T  T
0.3333333333333357  0.6666666666666643  0.0967547891055939  T  T  T
0.6666666666666643  0.3333333333333357  0.0000000000000000  T  T  T
0.0000000000000000  -0.0000000000000000  0.1935095782111811  T  T  T

0.00000000E+00  0.00000000E+00  0.00000000E+00
0.00000000E+00  0.00000000E+00  0.00000000E+00
0.00000000E+00  0.00000000E+00  0.00000000E+00
0.00000000E+00  0.00000000E+00  0.00000000E+00
0.00000000E+00  0.00000000E+00  0.00000000E+00
