Ti2C  (n=1)
1.00000000000000
3.1933532550839101  -0.0000000000000000  -0.0000000000000000
-1.5966766275419551  2.7655250423580160  0.0000000000000000
0.0000000000000000  -0.0000000000000000  30.5391345573102484
Ti  C  S
2  1  2
Selective  dynamics
Direct
0.0000000000000000  0.0000000000000000  0.0508397245617103  T  T  T
0.6666666666666643  0.3333333333333357  0.1305385180638432  T  T  T
0.3333333333333357  0.6666666666666643  0.0906891213127768  T  T  T
0.6666666666666643  0.3333333333333357  0.0000000000000000  T  T  T
0.0000000000000000  0.0000000000000000  0.1813782426255537  T  T  T

0.00000000E+00  0.00000000E+00  0.00000000E+00
0.00000000E+00  0.00000000E+00  0.00000000E+00
0.00000000E+00  0.00000000E+00  0.00000000E+00
0.00000000E+00  0.00000000E+00  0.00000000E+00
0.00000000E+00  0.00000000E+00  0.00000000E+00
