Ta2N  (n=1)
1.00000000000000
3.3102799490569104  0.0000000000000000  0.0000000000000000
-1.6551399745284552  2.8667865298055348  0.0000000000000000
0.0000000000000000  0.0000000000000001  30.4526015700408692
Ta  N  S
2  1  2
Selective  dynamics
Direct
-0.0000000000000000  0.0000000000000000  0.0522409711742275  T  T  T
0.6666666666666643  0.3333333333333357  0.1268111061170970  T  T  T
0.3333333333333357  0.6666666666666643  0.0895260386456622  T  T  T
0.6666666666666643  0.3333333333333357  0.0000000000000000  T  T  T
0.0000000000000000  0.0000000000000000  0.1790520772913245  T  T  T

0.00000000E+00  0.00000000E+00  0.00000000E+00
0.00000000E+00  0.00000000E+00  0.00000000E+00
0.00000000E+00  0.00000000E+00  0.00000000E+00
0.00000000E+00  0.00000000E+00  0.00000000E+00
0.00000000E+00  0.00000000E+00  0.00000000E+00
