Cr2C  (n=1)
1.00000000000000
3.0367101175333318  0.0000000000000000  0.0000000000000000
-1.5183550587666657  2.6298681057429194  0.0000000000000000
-0.0000000000000002  -0.0000000000000003  30.1599449020028629
Cr  C  S
2  1  2
Selective  dynamics
Direct
0.0000000000000000  -0.0000000000000000  0.0508315995083217  T  T  T
0.6666666666666643  0.3333333333333357  0.1202544193411424  T  T  T
0.3333333333333357  0.6666666666666643  0.0855430094247355  T  T  T
0.6666666666666643  0.3333333333333357  0.0000000000000000  T  T  T
0.0000000000000000  0.0000000000000000  0.1710860188494642  T  T  T

0.00000000E+00  0.00000000E+00  0.00000000E+00
0.00000000E+00  0.00000000E+00  0.00000000E+00
0.00000000E+00  0.00000000E+00  0.00000000E+00
0.00000000E+00  0.00000000E+00  0.00000000E+00
0.00000000E+00  0.00000000E+00  0.00000000E+00
