Hf2N  (n=1)
1.00000000000000
3.3919686790496453  -0.0000000000000014  -0.0000000000000000
-1.6959843395248237  2.9375310451991483  0.0000000000000000
-0.0000000000000003  -0.0000000000000000  30.6866039808250619
Hf  N  S
2  1  2
Selective  dynamics
Direct
-0.0000000000000000  0.0000000000000000  0.0508871441922045  T  T  T
0.6666666666666643  0.3333333333333357  0.1344251172877113  T  T  T
0.3333333333333357  0.6666666666666643  0.0926561307399579  T  T  T
0.6666666666666643  0.3333333333333357  0.0000000000000000  T  T  T
0.0000000000000000  0.0000000000000000  0.1853122614799088  T  T  T

0.00000000E+00  0.00000000E+00  0.00000000E+00
0.00000000E+00  0.00000000E+00  0.00000000E+00
0.00000000E+00  0.00000000E+00  0.00000000E+00
0.00000000E+00  0.00000000E+00  0.00000000E+00
0.00000000E+00  0.00000000E+00  0.00000000E+00
