Mo2C  (n=1)
1.00000000000000
3.2470617843029808  0.0000000000000001  0.0000000000000000
-1.6235308921514904  2.8120379930599655  0.0000000000000000
0.0000000000000000  -0.0000000000000001  30.4236726176958285
Mo  C  S
2  1  2
Selective  dynamics
Direct
0.0000000000000000  -0.0000000000000000  0.0534795394966497  T  T  T
0.6666666666666643  0.3333333333333357  0.1247919231847219  T  T  T
0.3333333333333357  0.6666666666666643  0.0891357313406857  T  T  T
0.6666666666666643  0.3333333333333357  0.0000000000000000  T  T  T
0.0000000000000000  0.0000000000000000  0.1782714626813716  T  T  T

0.00000000E+00  0.00000000E+00  0.00000000E+00
0.00000000E+00  0.00000000E+00  0.00000000E+00
0.00000000E+00  0.00000000E+00  0.00000000E+00
0.00000000E+00  0.00000000E+00  0.00000000E+00
0.00000000E+00  0.00000000E+00  0.00000000E+00
