Sc2C  (n=1)
1.00000000000000
3.4821595794961815  0.0000000000000003  -0.0000000000000001
-1.7410797897480903  3.0156386561438442  0.0000000000000000
-0.0000000000000008  0.0000000000000013  30.6913472809697012
Sc  C  S
2  1  2
Selective  dynamics
Direct
-0.0000000000000000  -0.0000000000000000  0.0481185970216288  T  T  T
0.6666666666666643  0.3333333333333357  0.1373195731853417  T  T  T
0.3333333333333357  0.6666666666666643  0.0927190851034889  T  T  T
0.6666666666666643  0.3333333333333357  0.0000000000000000  T  T  T
0.0000000000000000  0.0000000000000000  0.1854381702069706  T  T  T

0.00000000E+00  0.00000000E+00  0.00000000E+00
0.00000000E+00  0.00000000E+00  0.00000000E+00
0.00000000E+00  0.00000000E+00  0.00000000E+00
0.00000000E+00  0.00000000E+00  0.00000000E+00
0.00000000E+00  0.00000000E+00  0.00000000E+00
