Mo2N  (n=1)
1.00000000000000
2.7921724287866772  -0.0000000000000001  0.0000000000000001
-1.3960862143933384  2.4180922551131250  -0.0000000000000002
0.0000000000000000  -0.0000000000000015  30.2505342391827909
Mo  N  H
2  1  2
Selective  dynamics
Direct
-0.0000000000000000  -0.0000000000000000  0.0390357154088810  T  T  T
0.6666666666666643  0.3333333333333357  0.1355756987441406  T  T  T
0.3333333333333357  0.6666666666666643  0.0871512885840226  T  T  T
0.3333333333333357  0.6666666666666643  0.0000000000000000  T  T  T
-0.0000000000000000  -0.0000000000000000  0.1735683144525065  T  T  T

0.00000000E+00  0.00000000E+00  0.00000000E+00
0.00000000E+00  0.00000000E+00  0.00000000E+00
0.00000000E+00  0.00000000E+00  0.00000000E+00
0.00000000E+00  0.00000000E+00  0.00000000E+00
0.00000000E+00  0.00000000E+00  0.00000000E+00
