Mo2C  (n=1)
1.00000000000000
2.9811876439805656  0.0000000000000001  -0.0000000000000000
-1.4905938219902828  2.5817842331840435  0.0000000000000000
0.0000000000000001  -0.0000000000000000  29.6643472515133269
Mo  C  H
2  1  2
Selective  dynamics
Direct
-0.0000000000000000  0.0000000000000000  0.0391669860614911  T  T  T
0.6666666666666643  0.3333333333333357  0.1210875707828037  T  T  T
0.3333333333333357  0.6666666666666643  0.0801115813943237  T  T  T
0.3333333333333357  0.6666666666666643  0.0000000000000000  T  T  T
-0.0000000000000000  0.0000000000000000  0.1572374814778833  T  T  T

0.00000000E+00  0.00000000E+00  0.00000000E+00
0.00000000E+00  0.00000000E+00  0.00000000E+00
0.00000000E+00  0.00000000E+00  0.00000000E+00
0.00000000E+00  0.00000000E+00  0.00000000E+00
0.00000000E+00  0.00000000E+00  0.00000000E+00
