Hf2N  (n=1)
1.00000000000000
3.1308520116697056  -0.0000000000000002  0.0000000000000000
-1.5654260058348528  2.7113973776496345  0.0000000000000000
-0.0000000000000001  0.0000000000000002  29.8077101543880545
Hf  N  H
2  1  2
Selective  dynamics
Direct
0.0000000000000000  0.0000000000000000  0.0394034175957250  T  T  T
0.6666666666666643  0.3333333333333357  0.1265903687302194  T  T  T
0.3333333333333357  0.6666666666666643  0.0838612718980156  T  T  T
0.3333333333333357  0.6666666666666643  0.0000000000000000  T  T  T
0.0000000000000000  0.0000000000000000  0.1612908247391925  T  T  T

0.00000000E+00  0.00000000E+00  0.00000000E+00
0.00000000E+00  0.00000000E+00  0.00000000E+00
0.00000000E+00  0.00000000E+00  0.00000000E+00
0.00000000E+00  0.00000000E+00  0.00000000E+00
0.00000000E+00  0.00000000E+00  0.00000000E+00
