Zr2N  (n=1)
1.00000000000000
3.1980208264730958  0.0000000000000004  -0.0000000000000001
-1.5990104132365477  2.7695672776185738  0.0000000000000002
0.0000000000000000  0.0000000000000005  29.8619305296012314
Zr  N  H
2  1  2
Selective  dynamics
Direct
-0.0000000000000000  -0.0000000000000000  0.0398763774631964  T  T  T
0.6666666666666643  0.3333333333333357  0.1275641359213603  T  T  T
0.3333333333333357  0.6666666666666643  0.0843065900828780  T  T  T
0.3333333333333357  0.6666666666666643  0.0000000000000000  T  T  T
-0.0000000000000000  0.0000000000000000  0.1628136708971895  T  T  T

0.00000000E+00  0.00000000E+00  0.00000000E+00
0.00000000E+00  0.00000000E+00  0.00000000E+00
0.00000000E+00  0.00000000E+00  0.00000000E+00
0.00000000E+00  0.00000000E+00  0.00000000E+00
0.00000000E+00  0.00000000E+00  0.00000000E+00
