Ta2C  (n=1)
1.00000000000000
3.0261258782817806  0.0000000000000000  0.0000000000000002
-1.5130629391408903  2.6207018856935846  -0.0000000000000006
0.0000000000000010  -0.0000000000000012  29.8204164226456427
Ta  C  H
2  1  2
Selective  dynamics
Direct
-0.0000000000000000  -0.0000000000000000  0.0396789200655373  T  T  T
0.6666666666666643  0.3333333333333357  0.1267460253110039  T  T  T
0.3333333333333357  0.6666666666666643  0.0830895660175891  T  T  T
0.3333333333333357  0.6666666666666643  0.0000000000000000  T  T  T
-0.0000000000000000  -0.0000000000000000  0.1616481927792603  T  T  T

0.00000000E+00  0.00000000E+00  0.00000000E+00
0.00000000E+00  0.00000000E+00  0.00000000E+00
0.00000000E+00  0.00000000E+00  0.00000000E+00
0.00000000E+00  0.00000000E+00  0.00000000E+00
0.00000000E+00  0.00000000E+00  0.00000000E+00
