Nb2N  (n=1)
1.00000000000000
2.9841522028507095  0.0000000000000000  0.0000000000000000
-1.4920761014253550  2.5843516164759528  0.0000000000000000
0.0000000000000000  0.0000000000000000  29.9404944977602341
Nb  N  H
2  1  2
Selective  dynamics
Direct
0.0000000000000000  -0.0000000000000000  0.0388392684803688  T  T  T
0.6666666666666643  0.3333333333333357  0.1293716812892301  T  T  T
0.3333333333333357  0.6666666666666643  0.0840193203179463  T  T  T
0.3333333333333357  0.6666666666666643  0.0000000000000000  T  T  T
-0.0000000000000000  -0.0000000000000000  0.1650104509172292  T  T  T

0.00000000E+00  0.00000000E+00  0.00000000E+00
0.00000000E+00  0.00000000E+00  0.00000000E+00
0.00000000E+00  0.00000000E+00  0.00000000E+00
0.00000000E+00  0.00000000E+00  0.00000000E+00
0.00000000E+00  0.00000000E+00  0.00000000E+00
