Zr2C  (n=1)
1.00000000000000
3.2818512519429879  -0.0000000000000007  0.0000000000000003
-1.6409256259714939  2.8421665556974669  0.0000000000000000
0.0000000000000008  -0.0000000000000014  29.7737040603411529
Zr  C  H
2  1  2
Selective  dynamics
Direct
-0.0000000000000000  0.0000000000000000  0.0387599411882902  T  T  T
0.6666666666666643  0.3333333333333357  0.1249770924020742  T  T  T
0.3333333333333357  0.6666666666666643  0.0835237068589500  T  T  T
0.3333333333333357  0.6666666666666643  0.0000000000000000  T  T  T
-0.0000000000000000  0.0000000000000000  0.1603328914221247  T  T  T

0.00000000E+00  0.00000000E+00  0.00000000E+00
0.00000000E+00  0.00000000E+00  0.00000000E+00
0.00000000E+00  0.00000000E+00  0.00000000E+00
0.00000000E+00  0.00000000E+00  0.00000000E+00
0.00000000E+00  0.00000000E+00  0.00000000E+00
