Ti2N  (n=1)
1.00000000000000
2.9285427230040959  0.0000000000000000  0.0000000000000000
-1.4642713615020480  2.5361923942212687  0.0000000000000000
0.0000000000000000  -0.0000000000000002  29.5416436742986193
Ti  N  H
2  1  2
Selective  dynamics
Direct
0.0000000000000000  -0.0000000000000000  0.0385429357687242  T  T  T
0.6666666666666643  0.3333333333333357  0.1194159982721876  T  T  T
0.3333333333333357  0.6666666666666643  0.0798036596510081  T  T  T
0.3333333333333357  0.6666666666666643  0.0000000000000000  T  T  T
0.0000000000000000  0.0000000000000000  0.1537370000251500  T  T  T

0.00000000E+00  0.00000000E+00  0.00000000E+00
0.00000000E+00  0.00000000E+00  0.00000000E+00
0.00000000E+00  0.00000000E+00  0.00000000E+00
0.00000000E+00  0.00000000E+00  0.00000000E+00
0.00000000E+00  0.00000000E+00  0.00000000E+00
