Cr2C  (n=1)
1.00000000000000
2.7426698091853243  0.0000000000000000  0.0000000000000000
-1.3713349045926622  2.3752217289539654  0.0000000000000000
0.0000000000000000  -0.0000000000000002  29.3909244003280747
Cr  C  H
2  1  2
Selective  dynamics
Direct
0.0000000000000000  -0.0000000000000000  0.0367705254562121  T  T  T
0.6666666666666643  0.3333333333333357  0.1160200074861841  T  T  T
0.3333333333333357  0.6666666666666643  0.0766527964229742  T  T  T
0.3333333333333357  0.6666666666666643  0.0000000000000000  T  T  T
-0.0000000000000000  -0.0000000000000000  0.1493972881056800  T  T  T

0.00000000E+00  0.00000000E+00  0.00000000E+00
0.00000000E+00  0.00000000E+00  0.00000000E+00
0.00000000E+00  0.00000000E+00  0.00000000E+00
0.00000000E+00  0.00000000E+00  0.00000000E+00
0.00000000E+00  0.00000000E+00  0.00000000E+00
