Cr2N  (n=1)
1.00000000000000
2.6481690040273023  0.0000000000000000  0.0000000000000000
-1.3240845020136511  2.2933816310295438  0.0000000000000000
0.0000000000000000  0.0000000000000000  29.6299224012989555
Cr  N  H
2  1  2
Selective  dynamics
Direct
0.0000000000000000  -0.0000000000000000  0.0364473298457633  T  T  T
0.6666666666666643  0.3333333333333357  0.1222818832873126  T  T  T
0.3333333333333357  0.6666666666666643  0.0795752796393136  T  T  T
0.3333333333333357  0.6666666666666643  0.0000000000000000  T  T  T
0.0000000000000000  -0.0000000000000000  0.1562583370483610  T  T  T

0.00000000E+00  0.00000000E+00  0.00000000E+00
0.00000000E+00  0.00000000E+00  0.00000000E+00
0.00000000E+00  0.00000000E+00  0.00000000E+00
0.00000000E+00  0.00000000E+00  0.00000000E+00
0.00000000E+00  0.00000000E+00  0.00000000E+00
