Ti2C  (n=1)
1.00000000000000
3.0072795992662944  0.0000000000000000  0.0000000000000000
-1.5036397996331472  2.6043805292865376  0.0000000000000000
-0.0000000000000001  0.0000000000000004  29.4513437166172949
Ti  C  H
2  1  2
Selective  dynamics
Direct
-0.0000000000000000  -0.0000000000000000  0.0371967539544721  T  T  T
0.6666666666666643  0.3333333333333357  0.1170405281525368  T  T  T
0.3333333333333357  0.6666666666666643  0.0786817804435881  T  T  T
0.3333333333333357  0.6666666666666643  0.0000000000000000  T  T  T
-0.0000000000000000  -0.0000000000000000  0.1511422962377679  T  T  T

0.00000000E+00  0.00000000E+00  0.00000000E+00
0.00000000E+00  0.00000000E+00  0.00000000E+00
0.00000000E+00  0.00000000E+00  0.00000000E+00
0.00000000E+00  0.00000000E+00  0.00000000E+00
0.00000000E+00  0.00000000E+00  0.00000000E+00
