Hf2C  (n=1)
1.00000000000000
3.2284520619603652  0.0000000000000004  0.0000000000000001
-1.6142260309801821  2.7959215006237859  -0.0000000000000000
0.0000000000000008  -0.0000000000000027  29.7085314365622679
Hf  C  H
2  1  2
Selective  dynamics
Direct
0.0000000000000000  0.0000000000000000  0.0386058025723297  T  T  T
0.6666666666666643  0.3333333333333357  0.1232528691097651  T  T  T
0.3333333333333357  0.6666666666666643  0.0828134275642031  T  T  T
0.3333333333333357  0.6666666666666643  0.0000000000000000  T  T  T
-0.0000000000000000  0.0000000000000000  0.1584908849034349  T  T  T

0.00000000E+00  0.00000000E+00  0.00000000E+00
0.00000000E+00  0.00000000E+00  0.00000000E+00
0.00000000E+00  0.00000000E+00  0.00000000E+00
0.00000000E+00  0.00000000E+00  0.00000000E+00
0.00000000E+00  0.00000000E+00  0.00000000E+00
