Sc2N
1.00000000000000
3.1566346145612312  0.0000000000000000  0.0000000000000002
-1.5783173072806158  2.7337257667217298  0.0000000000000000
-0.0000000000000002  0.0000000000000007  29.7172896070783992
Sc  N  H
2  1  2
Selective  dynamics
Direct
-0.0000000000000000  -0.0000000000000000  0.0386021050684933  T  T  T
0.6666666666666643  0.3333333333333357  0.1233459812207137  T  T  T
0.3333333333333357  0.6666666666666643  0.0832101215029662  T  T  T
0.3333333333333357  0.6666666666666643  0.0000000000000000  T  T  T
-0.0000000000000000  -0.0000000000000000  0.1587388913810896  T  T  T

0.00000000E+00  0.00000000E+00  0.00000000E+00
0.00000000E+00  0.00000000E+00  0.00000000E+00
0.00000000E+00  0.00000000E+00  0.00000000E+00
0.00000000E+00  0.00000000E+00  0.00000000E+00
0.00000000E+00  0.00000000E+00  0.00000000E+00
