Ta2N  (n=1)
1.00000000000000
2.9473381096993450  0.0000000000000000  0.0000000000000000
-1.4736690548496725  2.5524696765833959  0.0000000000000000
-0.0000000000000001  -0.0000000000000003  29.9665844233181389
Ta  N  H
2  1  2
Selective  dynamics
Direct
0.0000000000000000  0.0000000000000000  0.0383505963857386  T  T  T
0.6666666666666643  0.3333333333333357  0.1302603959432042  T  T  T
0.3333333333333357  0.6666666666666643  0.0843522133819391  T  T  T
0.3333333333333357  0.6666666666666643  0.0000000000000000  T  T  T
0.0000000000000000  0.0000000000000000  0.1657374211607997  T  T  T

0.00000000E+00  0.00000000E+00  0.00000000E+00
0.00000000E+00  0.00000000E+00  0.00000000E+00
0.00000000E+00  0.00000000E+00  0.00000000E+00
0.00000000E+00  0.00000000E+00  0.00000000E+00
0.00000000E+00  0.00000000E+00  0.00000000E+00
