Nb2C  (n=1)
1.00000000000000
3.0823425431944269  0.0000000000000000  0.0000000000000000
-1.5411712715972135  2.6693869456378385  0.0000000000000000
0.0000000000000002  -0.0000000000000002  29.7163125607022671
Nb  C  H
2  1  2
Selective  dynamics
Direct
0.0000000000000000  0.0000000000000000  0.0392570910392088  T  T  T
0.6666666666666643  0.3333333333333357  0.1238966481868345  T  T  T
0.3333333333333357  0.6666666666666643  0.0815964542121386  T  T  T
0.3333333333333357  0.6666666666666643  0.0000000000000000  T  T  T
0.0000000000000000  0.0000000000000000  0.1587112314513497  T  T  T

0.00000000E+00  0.00000000E+00  0.00000000E+00
0.00000000E+00  0.00000000E+00  0.00000000E+00
0.00000000E+00  0.00000000E+00  0.00000000E+00
0.00000000E+00  0.00000000E+00  0.00000000E+00
0.00000000E+00  0.00000000E+00  0.00000000E+00
