Sc2C  (n=1)
1.00000000000000
3.2547763004840369  0.0000000000000000  0.0000000000000000
-1.6273881502420184  2.8187189599338121  0.0000000000000000
-0.0000000000000001  0.0000000000000001  29.7384875305981886
Sc  C  H
2  1  2
Selective  dynamics
Direct
-0.0000000000000000  0.0000000000000000  0.0390911293278625  T  T  T
0.6666666666666643  0.3333333333333357  0.1249469924665860  T  T  T
0.3333333333333357  0.6666666666666643  0.0829869213021618  T  T  T
0.3333333333333357  0.6666666666666643  0.0000000000000000  T  T  T
-0.0000000000000000  0.0000000000000000  0.1593385516234717  T  T  T

0.00000000E+00  0.00000000E+00  0.00000000E+00
0.00000000E+00  0.00000000E+00  0.00000000E+00
0.00000000E+00  0.00000000E+00  0.00000000E+00
0.00000000E+00  0.00000000E+00  0.00000000E+00
0.00000000E+00  0.00000000E+00  0.00000000E+00
