Zr3C2  (n=2)
1.00000000000000
3.2491039561818464  0.0000000000000001  0.0000000000000000
-1.6245519780909232  2.8138065659936236  0.0000000000000000
0.0000000000000000  0.0000000000000000  35.5242339972820105
Zr  C  O  H
3  2  2  2
Selective  dynamics
Direct
-0.0000000000000000  -0.0000000000000000  0.0674228588184004  T  T  T
-0.0000000000000000  -0.0000000000000000  0.1481275289157107  T  T  T
-0.0000000000000000  -0.0000000000000000  0.2288321990130291  T  T  T
0.3333333333333357  0.6666666666666643  0.1041821660996112  T  T  T
0.3333333333333357  0.6666666666666643  0.1920728917318102  T  T  T
0.3333333333333357  0.6666666666666643  0.0274215637121675  T  T  T
0.3333333333333357  0.6666666666666643  0.2688334941192539  T  T  T
0.3333333333333357  0.6666666666666643  0.0000000000000000  T  T  T
0.3333333333333357  0.6666666666666643  0.2962550578314295  T  T  T

0.00000000E+00  0.00000000E+00  0.00000000E+00
0.00000000E+00  0.00000000E+00  0.00000000E+00
0.00000000E+00  0.00000000E+00  0.00000000E+00
0.00000000E+00  0.00000000E+00  0.00000000E+00
0.00000000E+00  0.00000000E+00  0.00000000E+00
0.00000000E+00  0.00000000E+00  0.00000000E+00
0.00000000E+00  0.00000000E+00  0.00000000E+00
0.00000000E+00  0.00000000E+00  0.00000000E+00
0.00000000E+00  0.00000000E+00  0.00000000E+00
