Cr3C2  (n=2)
1.00000000000000
2.7167125791434263  0.0000000000000001  0.0000000000000000
-1.3583562895717132  2.3527421082846631  0.0000000000000000
0.0000000000000000  0.0000000000000000  34.6796010403227015
Cr  C  O  H
3  2  2  2
Selective  dynamics
Direct
0.0000000000000000  -0.0000000000000000  0.0649319721495622  T  T  T
-0.0000000000000000  -0.0000000000000000  0.1395575604959818  T  T  T
-0.0000000000000000  -0.0000000000000000  0.2141831488424087  T  T  T
0.3333333333333357  0.6666666666666643  0.1016518754925999  T  T  T
0.3333333333333357  0.6666666666666643  0.1774632454993566  T  T  T
0.3333333333333357  0.6666666666666643  0.0284544749717727  T  T  T
0.3333333333333357  0.6666666666666643  0.2506606460201911  T  T  T
0.3333333333333357  0.6666666666666643  0.0000000000000000  T  T  T
0.3333333333333357  0.6666666666666643  0.2791151209919638  T  T  T

0.00000000E+00  0.00000000E+00  0.00000000E+00
0.00000000E+00  0.00000000E+00  0.00000000E+00
0.00000000E+00  0.00000000E+00  0.00000000E+00
0.00000000E+00  0.00000000E+00  0.00000000E+00
0.00000000E+00  0.00000000E+00  0.00000000E+00
0.00000000E+00  0.00000000E+00  0.00000000E+00
0.00000000E+00  0.00000000E+00  0.00000000E+00
0.00000000E+00  0.00000000E+00  0.00000000E+00
0.00000000E+00  0.00000000E+00  0.00000000E+00
