Nb3N2  (n=2)
1.00000000000000
2.9657145653904031  0.0000000000000000  0.0000000000000000
-1.4828572826952016  2.5683841542121471  0.0000000000000000
0.0000000000000000  0.0000000000000000  35.5347635215578705
Nb  N  O  H
3  2  2  2
Selective  dynamics
Direct
0.0000000000000000  -0.0000000000000000  0.0668401292034614  T  T  T
0.0000000000000000  -0.0000000000000000  0.1482317944112174  T  T  T
0.0000000000000000  -0.0000000000000000  0.2296234596189811  T  T  T
0.3333333333333357  0.6666666666666643  0.1071563777346097  T  T  T
0.3333333333333357  0.6666666666666643  0.1893072110878251  T  T  T
0.3333333333333357  0.6666666666666643  0.0278761988333512  T  T  T
0.3333333333333357  0.6666666666666643  0.2685873899890913  T  T  T
0.3333333333333357  0.6666666666666643  0.0000000000000000  T  T  T
0.3333333333333357  0.6666666666666643  0.2964635888224428  T  T  T

0.00000000E+00  0.00000000E+00  0.00000000E+00
0.00000000E+00  0.00000000E+00  0.00000000E+00
0.00000000E+00  0.00000000E+00  0.00000000E+00
0.00000000E+00  0.00000000E+00  0.00000000E+00
0.00000000E+00  0.00000000E+00  0.00000000E+00
0.00000000E+00  0.00000000E+00  0.00000000E+00
0.00000000E+00  0.00000000E+00  0.00000000E+00
0.00000000E+00  0.00000000E+00  0.00000000E+00
0.00000000E+00  0.00000000E+00  0.00000000E+00
