Zr3N2  (n=2)
1.00000000000000
3.1386816389069954  0.0000000000000001  0.0000000000000000
-1.5693408194534975  2.7181780340068404  0.0000000000000000
0.0000000000000000  0.0000000000000000  35.5867734735519221
Zr  N  O  H
3  2  2  2
Selective  dynamics
Direct
-0.0000000000000000  0.0000000000000000  0.0667435957692266  T  T  T
-0.0000000000000000  0.0000000000000000  0.1487459024828387  T  T  T
-0.0000000000000000  0.0000000000000000  0.2307482091964584  T  T  T
0.3333333333333357  0.6666666666666643  0.1066020554777486  T  T  T
0.3333333333333357  0.6666666666666643  0.1908897494879211  T  T  T
0.3333333333333357  0.6666666666666643  0.0273323962448455  T  T  T
0.3333333333333357  0.6666666666666643  0.2701594087208396  T  T  T
0.3333333333333357  0.6666666666666643  0.0000000000000000  T  T  T
0.3333333333333357  0.6666666666666643  0.2974918049656851  T  T  T

0.00000000E+00  0.00000000E+00  0.00000000E+00
0.00000000E+00  0.00000000E+00  0.00000000E+00
0.00000000E+00  0.00000000E+00  0.00000000E+00
0.00000000E+00  0.00000000E+00  0.00000000E+00
0.00000000E+00  0.00000000E+00  0.00000000E+00
0.00000000E+00  0.00000000E+00  0.00000000E+00
0.00000000E+00  0.00000000E+00  0.00000000E+00
0.00000000E+00  0.00000000E+00  0.00000000E+00
0.00000000E+00  0.00000000E+00  0.00000000E+00
