Ti3C2  (n=2)
1.00000000000000
3.0065783473761578  -0.0000000000000001  0.0000000000000000
-1.5032891736880789  2.6037732274027494  0.0000000000000000
0.0000000000000000  0.0000000000000000  34.8695350536260946
Ti  C  O  H
3  2  2  2
Selective  dynamics
Direct
0.0000000000000000  -0.0000000000000000  0.0658539115580759  T  T  T
0.0000000000000000  -0.0000000000000000  0.1415208869066891  T  T  T
0.0000000000000000  0.0000000000000000  0.2171878622553023  T  T  T
0.3333333333333357  0.6666666666666643  0.1010173698192628  T  T  T
0.3333333333333357  0.6666666666666643  0.1820244039941074  T  T  T
0.3333333333333357  0.6666666666666643  0.0279706638845142  T  T  T
0.3333333333333357  0.6666666666666643  0.2550711099288557  T  T  T
0.3333333333333357  0.6666666666666643  0.0000000000000000  T  T  T
0.3333333333333357  0.6666666666666643  0.2830417738133781  T  T  T

0.00000000E+00  0.00000000E+00  0.00000000E+00
0.00000000E+00  0.00000000E+00  0.00000000E+00
0.00000000E+00  0.00000000E+00  0.00000000E+00
0.00000000E+00  0.00000000E+00  0.00000000E+00
0.00000000E+00  0.00000000E+00  0.00000000E+00
0.00000000E+00  0.00000000E+00  0.00000000E+00
0.00000000E+00  0.00000000E+00  0.00000000E+00
0.00000000E+00  0.00000000E+00  0.00000000E+00
0.00000000E+00  0.00000000E+00  0.00000000E+00
