Ta3C2  (n=2)
1.00000000000000
3.0280549791957889  0.0000000000000000  0.0000000000000000
-1.5140274895978945  2.6223725362980206  0.0000000000000000
0.0000000000000000  0.0000000000000000  35.4006817647243821
Ta  C  O  H
3  2  2  2
Selective  dynamics
Direct
0.0000000000000000  0.0000000000000000  0.0666817836663711  T  T  T
0.0000000000000000  0.0000000000000000  0.1468994556919569  T  T  T
0.0000000000000000  0.0000000000000000  0.2271171277175426  T  T  T
0.3333333333333357  0.6666666666666643  0.1047966168778209  T  T  T
0.3333333333333357  0.6666666666666643  0.1890022945060853  T  T  T
0.3333333333333357  0.6666666666666643  0.0275218134046852  T  T  T
0.3333333333333357  0.6666666666666643  0.2662770979792364  T  T  T
0.3333333333333357  0.6666666666666643  0.0000000000000000  T  T  T
0.3333333333333357  0.6666666666666643  0.2937989113839136  T  T  T

0.00000000E+00  0.00000000E+00  0.00000000E+00
0.00000000E+00  0.00000000E+00  0.00000000E+00
0.00000000E+00  0.00000000E+00  0.00000000E+00
0.00000000E+00  0.00000000E+00  0.00000000E+00
0.00000000E+00  0.00000000E+00  0.00000000E+00
0.00000000E+00  0.00000000E+00  0.00000000E+00
0.00000000E+00  0.00000000E+00  0.00000000E+00
0.00000000E+00  0.00000000E+00  0.00000000E+00
0.00000000E+00  0.00000000E+00  0.00000000E+00
