Sc3N2  (n=2)
1.00000000000000
3.1117990458421398  0.0000000000000000  0.0000000000000000
-1.5558995229210697  2.6948970253296216  0.0000000000000000
0.0000000000000000  0.0000000000000000  35.1119175572109157
Sc  N  O  H
3  2  2  2
Selective  dynamics
Direct
0.0000000000000000  0.0000000000000000  0.0654768133340606  T  T  T
0.0000000000000000  0.0000000000000000  0.1439955186260354  T  T  T
0.0000000000000000  0.0000000000000000  0.2225142239180181  T  T  T
0.3333333333333357  0.6666666666666643  0.1023502925499277  T  T  T
0.3333333333333357  0.6666666666666643  0.1856407447021510  T  T  T
0.3333333333333357  0.6666666666666643  0.0277641811695567  T  T  T
0.3333333333333357  0.6666666666666643  0.2602268560825299  T  T  T
0.3333333333333357  0.6666666666666643  0.0000000000000000  T  T  T
0.3333333333333357  0.6666666666666643  0.2879910372520864  T  T  T

0.00000000E+00  0.00000000E+00  0.00000000E+00
0.00000000E+00  0.00000000E+00  0.00000000E+00
0.00000000E+00  0.00000000E+00  0.00000000E+00
0.00000000E+00  0.00000000E+00  0.00000000E+00
0.00000000E+00  0.00000000E+00  0.00000000E+00
0.00000000E+00  0.00000000E+00  0.00000000E+00
0.00000000E+00  0.00000000E+00  0.00000000E+00
0.00000000E+00  0.00000000E+00  0.00000000E+00
0.00000000E+00  0.00000000E+00  0.00000000E+00
