Hf3N2  (n=2)
1.00000000000000
3.0838510117109705  0.0000000000000000  0.0000000000000000
-1.5419255058554850  2.6706933178294565  0.0000000000000000
0.0000000000000000  0.0000000000000000  35.4918972430299036
Hf  N  O  H
3  2  2  2
Selective  dynamics
Direct
0.0000000000000000  0.0000000000000000  0.0663937363722449  T  T  T
0.0000000000000000  0.0000000000000000  0.1478069370480058  T  T  T
0.0000000000000000  0.0000000000000000  0.2292201377237744  T  T  T
0.3333333333333357  0.6666666666666643  0.1058245986237500  T  T  T
0.3333333333333357  0.6666666666666643  0.1897892754722694  T  T  T
0.3333333333333357  0.6666666666666643  0.0275145884718863  T  T  T
0.3333333333333357  0.6666666666666643  0.2680992856241330  T  T  T
0.3333333333333357  0.6666666666666643  0.0000000000000000  T  T  T
0.3333333333333357  0.6666666666666643  0.2956138740960195  T  T  T

0.00000000E+00  0.00000000E+00  0.00000000E+00
0.00000000E+00  0.00000000E+00  0.00000000E+00
0.00000000E+00  0.00000000E+00  0.00000000E+00
0.00000000E+00  0.00000000E+00  0.00000000E+00
0.00000000E+00  0.00000000E+00  0.00000000E+00
0.00000000E+00  0.00000000E+00  0.00000000E+00
0.00000000E+00  0.00000000E+00  0.00000000E+00
0.00000000E+00  0.00000000E+00  0.00000000E+00
0.00000000E+00  0.00000000E+00  0.00000000E+00
