Hf3C2  (n=2)
1.00000000000000
3.1980780870367873  0.0000000000000000  0.0000000000000000
-1.5990390435183939  2.7696168670037906  0.0000000000000000
0.0000000000000000  0.0000000000000000  35.4245881516855547
Hf  C  O  H
3  2  2  2
Selective  dynamics
Direct
0.0000000000000000  -0.0000000000000000  0.0674121069148614  T  T  T
0.0000000000000000  -0.0000000000000000  0.1471377466273981  T  T  T
0.0000000000000000  -0.0000000000000000  0.2268633863399429  T  T  T
0.3333333333333357  0.6666666666666643  0.1038109485904488  T  T  T
0.3333333333333357  0.6666666666666643  0.1904645446643475  T  T  T
0.3333333333333357  0.6666666666666643  0.0275474384326065  T  T  T
0.3333333333333357  0.6666666666666643  0.2667280548221977  T  T  T
0.3333333333333357  0.6666666666666643  0.0000000000000000  T  T  T
0.3333333333333357  0.6666666666666643  0.2942754932548042  T  T  T

0.00000000E+00  0.00000000E+00  0.00000000E+00
0.00000000E+00  0.00000000E+00  0.00000000E+00
0.00000000E+00  0.00000000E+00  0.00000000E+00
0.00000000E+00  0.00000000E+00  0.00000000E+00
0.00000000E+00  0.00000000E+00  0.00000000E+00
0.00000000E+00  0.00000000E+00  0.00000000E+00
0.00000000E+00  0.00000000E+00  0.00000000E+00
0.00000000E+00  0.00000000E+00  0.00000000E+00
0.00000000E+00  0.00000000E+00  0.00000000E+00
