Ta3N2  (n=2)
1.00000000000000
2.9443578414529701  -0.0000000000000003  0.0000000000000000
-1.4721789207264855  2.5498886887248462  0.0000000000000000
0.0000000000000000  0.0000000000000000  35.5302815962199290
Ta  N  O  H
3  2  2  2
Selective  dynamics
Direct
-0.0000000000000000  0.0000000000000000  0.0667971922026449  T  T  T
-0.0000000000000000  0.0000000000000000  0.1481874210270745  T  T  T
-0.0000000000000000  0.0000000000000000  0.2295776498515119  T  T  T
0.3333333333333357  0.6666666666666643  0.1070423654287961  T  T  T
0.3333333333333357  0.6666666666666643  0.1893324766253530  T  T  T
0.3333333333333357  0.6666666666666643  0.0281701336578500  T  T  T
0.3333333333333357  0.6666666666666643  0.2682047083963067  T  T  T
0.3333333333333357  0.6666666666666643  0.0000000000000000  T  T  T
0.3333333333333357  0.6666666666666643  0.2963748420541719  T  T  T

0.00000000E+00  0.00000000E+00  0.00000000E+00
0.00000000E+00  0.00000000E+00  0.00000000E+00
0.00000000E+00  0.00000000E+00  0.00000000E+00
0.00000000E+00  0.00000000E+00  0.00000000E+00
0.00000000E+00  0.00000000E+00  0.00000000E+00
0.00000000E+00  0.00000000E+00  0.00000000E+00
0.00000000E+00  0.00000000E+00  0.00000000E+00
0.00000000E+00  0.00000000E+00  0.00000000E+00
0.00000000E+00  0.00000000E+00  0.00000000E+00
