Cr3N2  (n=2)
1.00000000000000
2.7179875255441570  0.0000000000000003  0.0000000000000000
-1.3589937627720787  2.3538462442832961  0.0000000000000000
0.0000000000000000  0.0000000000000000  34.6878379235264021
Cr  N  O  H
3  2  2  2
Selective  dynamics
Direct
-0.0000000000000000  -0.0000000000000000  0.0662342523142479  T  T  T
-0.0000000000000000  -0.0000000000000000  0.1396431502142721  T  T  T
-0.0000000000000000  0.0000000000000000  0.2130520481142963  T  T  T
0.3333333333333357  0.6666666666666643  0.1016337658243851  T  T  T
0.3333333333333357  0.6666666666666643  0.1776525346041591  T  T  T
0.3333333333333357  0.6666666666666643  0.0283186912616233  T  T  T
0.3333333333333357  0.6666666666666643  0.2509676091669208  T  T  T
0.3333333333333357  0.6666666666666643  0.0000000000000000  T  T  T
0.3333333333333357  0.6666666666666643  0.2792863004285374  T  T  T

0.00000000E+00  0.00000000E+00  0.00000000E+00
0.00000000E+00  0.00000000E+00  0.00000000E+00
0.00000000E+00  0.00000000E+00  0.00000000E+00
0.00000000E+00  0.00000000E+00  0.00000000E+00
0.00000000E+00  0.00000000E+00  0.00000000E+00
0.00000000E+00  0.00000000E+00  0.00000000E+00
0.00000000E+00  0.00000000E+00  0.00000000E+00
0.00000000E+00  0.00000000E+00  0.00000000E+00
0.00000000E+00  0.00000000E+00  0.00000000E+00
