Mo3N2  (n=2)
1.00000000000000
2.8522100778649850  0.0000000000000000  0.0000000000000000
-1.4261050389324925  2.4700863845086314  0.0000000000000000
0.0000000000000000  0.0000000000000000  35.6882408284304802
Mo  N  O  H
3  2  2  2
Selective  dynamics
Direct
-0.0000000000000000  -0.0000000000000000  0.0701110224450647  T  T  T
-0.0000000000000000  -0.0000000000000000  0.1497445738473552  T  T  T
-0.0000000000000000  -0.0000000000000000  0.2293781252496533  T  T  T
0.3333333333333357  0.6666666666666643  0.1086396875640727  T  T  T
0.3333333333333357  0.6666666666666643  0.1908494601306377  T  T  T
0.3333333333333357  0.6666666666666643  0.0277620011717214  T  T  T
0.3333333333333357  0.6666666666666643  0.2717271465229965  T  T  T
0.3333333333333357  0.6666666666666643  0.0000000000000000  T  T  T
0.3333333333333357  0.6666666666666643  0.2994891476947181  T  T  T

0.00000000E+00  0.00000000E+00  0.00000000E+00
0.00000000E+00  0.00000000E+00  0.00000000E+00
0.00000000E+00  0.00000000E+00  0.00000000E+00
0.00000000E+00  0.00000000E+00  0.00000000E+00
0.00000000E+00  0.00000000E+00  0.00000000E+00
0.00000000E+00  0.00000000E+00  0.00000000E+00
0.00000000E+00  0.00000000E+00  0.00000000E+00
0.00000000E+00  0.00000000E+00  0.00000000E+00
0.00000000E+00  0.00000000E+00  0.00000000E+00
