Sc3C2  (n=2)
1.00000000000000
3.1807897132298928  0.0000000000000000  0.0000000000000000
-1.5903948566149464  2.7546446959065345  0.0000000000000000
0.0000000000000000  0.0000000000000000  35.4851932302832438
Sc  C  O  H
3  2  2  2
Selective  dynamics
Direct
-0.0000000000000000  -0.0000000000000000  0.0649066301776633  T  T  T
-0.0000000000000000  -0.0000000000000000  0.1477403992453795  T  T  T
-0.0000000000000000  -0.0000000000000000  0.2305741683131038  T  T  T
0.3333333333333357  0.6666666666666643  0.1040515994381985  T  T  T
0.3333333333333357  0.6666666666666643  0.1914291990525521  T  T  T
0.3333333333333357  0.6666666666666643  0.0274801958881643  T  T  T
0.3333333333333357  0.6666666666666643  0.2680006026026029  T  T  T
0.3333333333333357  0.6666666666666643  0.0000000000000000  T  T  T
0.3333333333333357  0.6666666666666643  0.2954807984907669  T  T  T

0.00000000E+00  0.00000000E+00  0.00000000E+00
0.00000000E+00  0.00000000E+00  0.00000000E+00
0.00000000E+00  0.00000000E+00  0.00000000E+00
0.00000000E+00  0.00000000E+00  0.00000000E+00
0.00000000E+00  0.00000000E+00  0.00000000E+00
0.00000000E+00  0.00000000E+00  0.00000000E+00
0.00000000E+00  0.00000000E+00  0.00000000E+00
0.00000000E+00  0.00000000E+00  0.00000000E+00
0.00000000E+00  0.00000000E+00  0.00000000E+00
