Ti3N2  (n=2)
1.00000000000000
2.9049525464691577  -0.0000000000000001  0.0000000000000000
-1.4524762732345788  2.5157627020952558  0.0000000000000000
0.0000000000000000  0.0000000000000000  34.8896735796399398
Ti  N  O  H
3  2  2  2
Selective  dynamics
Direct
0.0000000000000000  0.0000000000000000  0.0651260593111172  T  T  T
0.0000000000000000  0.0000000000000000  0.1417278031716971  T  T  T
0.0000000000000000  0.0000000000000000  0.2183295470322846  T  T  T
0.3333333333333357  0.6666666666666643  0.1019679885095187  T  T  T
0.3333333333333357  0.6666666666666643  0.1814876178338754  T  T  T
0.3333333333333357  0.6666666666666643  0.0278764223619682  T  T  T
0.3333333333333357  0.6666666666666643  0.2555791839814260  T  T  T
0.3333333333333357  0.6666666666666643  0.0000000000000000  T  T  T
0.3333333333333357  0.6666666666666643  0.2834556063433941  T  T  T

0.00000000E+00  0.00000000E+00  0.00000000E+00
0.00000000E+00  0.00000000E+00  0.00000000E+00
0.00000000E+00  0.00000000E+00  0.00000000E+00
0.00000000E+00  0.00000000E+00  0.00000000E+00
0.00000000E+00  0.00000000E+00  0.00000000E+00
0.00000000E+00  0.00000000E+00  0.00000000E+00
0.00000000E+00  0.00000000E+00  0.00000000E+00
0.00000000E+00  0.00000000E+00  0.00000000E+00
0.00000000E+00  0.00000000E+00  0.00000000E+00
