Nb3C2  (n=2)
1.00000000000000
3.0466406789289628  -0.0000000000000001  0.0000000000000000
-1.5233203394644814  2.6384682244940802  0.0000000000000000
0.0000000000000000  0.0000000000000000  35.4190679576483376
Nb  C  O  H
3  2  2  2
Selective  dynamics
Direct
0.0000000000000000  0.0000000000000000  0.0665438724011899  T  T  T
0.0000000000000000  0.0000000000000000  0.1470827517272193  T  T  T
0.0000000000000000  0.0000000000000000  0.2276216310532412  T  T  T
0.3333333333333357  0.6666666666666643  0.1048684243700221  T  T  T
0.3333333333333357  0.6666666666666643  0.1892970790844089  T  T  T
0.3333333333333357  0.6666666666666643  0.0274441742971412  T  T  T
0.3333333333333357  0.6666666666666643  0.2667213291572975  T  T  T
0.3333333333333357  0.6666666666666643  0.0000000000000000  T  T  T
0.3333333333333357  0.6666666666666643  0.2941655034544312  T  T  T

0.00000000E+00  0.00000000E+00  0.00000000E+00
0.00000000E+00  0.00000000E+00  0.00000000E+00
0.00000000E+00  0.00000000E+00  0.00000000E+00
0.00000000E+00  0.00000000E+00  0.00000000E+00
0.00000000E+00  0.00000000E+00  0.00000000E+00
0.00000000E+00  0.00000000E+00  0.00000000E+00
0.00000000E+00  0.00000000E+00  0.00000000E+00
0.00000000E+00  0.00000000E+00  0.00000000E+00
0.00000000E+00  0.00000000E+00  0.00000000E+00
