Mo3C2  (n=2)
1.00000000000000
2.9143568537166393  0.0000000000000000  0.0000000000000000
-1.4571784268583197  2.5239070711724039  0.0000000000000000
0.0000000000000000  0.0000000000000000  35.4028631232969673
Mo  C  O  H
3  2  2  2
Selective  dynamics
Direct
-0.0000000000000000  -0.0000000000000000  0.0676306405498985  T  T  T
-0.0000000000000000  -0.0000000000000000  0.1469212120933066  T  T  T
-0.0000000000000000  -0.0000000000000000  0.2262117836367298  T  T  T
0.3333333333333357  0.6666666666666643  0.1064632873681661  T  T  T
0.3333333333333357  0.6666666666666643  0.1873791368184468  T  T  T
0.3333333333333357  0.6666666666666643  0.0280297234544647  T  T  T
0.3333333333333357  0.6666666666666643  0.2658127007321633  T  T  T
0.3333333333333357  0.6666666666666643  0.0000000000000000  T  T  T
0.3333333333333357  0.6666666666666643  0.2938424241866283  T  T  T

0.00000000E+00  0.00000000E+00  0.00000000E+00
0.00000000E+00  0.00000000E+00  0.00000000E+00
0.00000000E+00  0.00000000E+00  0.00000000E+00
0.00000000E+00  0.00000000E+00  0.00000000E+00
0.00000000E+00  0.00000000E+00  0.00000000E+00
0.00000000E+00  0.00000000E+00  0.00000000E+00
0.00000000E+00  0.00000000E+00  0.00000000E+00
0.00000000E+00  0.00000000E+00  0.00000000E+00
0.00000000E+00  0.00000000E+00  0.00000000E+00
