Ti2C  (n=1)
1.00000000000000
3.4274541610624860  0.0000000000000000  0.0000000000000000
-1.7137270805312430  2.9682623739462262  0.0000000000000000
0.0000000000000000  0.0000000000000000  31.5495283879307280
Ti  C  I
2  1  2
Selective  dynamics
Direct
0.0000000000000000  -0.0000000000000000  0.0642982584178300  T  T  T
0.0000000000000000  -0.0000000000000000  0.1432968697057257  T  T  T
0.3333333333333357  0.6666666666666643  0.1037975640617817  T  T  T
0.3333333333333357  0.6666666666666643  0.0000000000000000  T  T  T
0.3333333333333357  0.6666666666666643  0.2075951281235713  T  T  T

0.00000000E+00  0.00000000E+00  0.00000000E+00
0.00000000E+00  0.00000000E+00  0.00000000E+00
0.00000000E+00  0.00000000E+00  0.00000000E+00
0.00000000E+00  0.00000000E+00  0.00000000E+00
0.00000000E+00  0.00000000E+00  0.00000000E+00
