Cr2C  (n=1)
1.00000000000000
3.3405085247109763  -0.0000000000000002  0.0000000000000000
-1.6702542623554888  2.8929652436107536  0.0000000000000000
0.0000000000000000  0.0000000000000000  31.2618855684094434
Cr  C  I
2  1  2
Selective  dynamics
Direct
-0.0000000000000000  -0.0000000000000000  0.0636784934782170  T  T  T
0.0000000000000000  0.0000000000000000  0.1366256613913453  T  T  T
0.3333333333333357  0.6666666666666643  0.1001520774347847  T  T  T
0.3333333333333357  0.6666666666666643  0.0000000000000000  T  T  T
0.3333333333333357  0.6666666666666643  0.2003041548695694  T  T  T

0.00000000E+00  0.00000000E+00  0.00000000E+00
0.00000000E+00  0.00000000E+00  0.00000000E+00
0.00000000E+00  0.00000000E+00  0.00000000E+00
0.00000000E+00  0.00000000E+00  0.00000000E+00
0.00000000E+00  0.00000000E+00  0.00000000E+00
