Hf2C  (n=1)
1.00000000000000
3.5027121332189228  0.0000000000000000  0.0000000000000000
-1.7513560666094616  3.0334376896373567  0.0000000000000000
0.0000000000000000  0.0000000000000000  32.0131887881569455
Hf  C  I
2  1  2
Selective  dynamics
Direct
-0.0000000000000000  0.0000000000000000  0.0661437217334421  T  T  T
-0.0000000000000000  0.0000000000000000  0.1529281375107525  T  T  T
0.3333333333333357  0.6666666666666643  0.1095359296220973  T  T  T
0.3333333333333357  0.6666666666666643  0.0000000000000000  T  T  T
0.3333333333333357  0.6666666666666643  0.2190718592441945  T  T  T

0.00000000E+00  0.00000000E+00  0.00000000E+00
0.00000000E+00  0.00000000E+00  0.00000000E+00
0.00000000E+00  0.00000000E+00  0.00000000E+00
0.00000000E+00  0.00000000E+00  0.00000000E+00
0.00000000E+00  0.00000000E+00  0.00000000E+00
