Cr2N  (n=1)
1.00000000000000
3.3584589203459232  0.0000000000000000  0.0000000000000000
-1.6792294601729616  2.9085107426835708  0.0000000000000000
0.0000000000000000  0.0000000000000000  31.2044142392863613
Cr  N  I
2  1  2
Selective  dynamics
Direct
0.0000000000000000  -0.0000000000000000  0.0654771800539094  T  T  T
0.0000000000000000  -0.0000000000000000  0.1333541196368621  T  T  T
0.3333333333333357  0.6666666666666643  0.0994156498453857  T  T  T
0.3333333333333357  0.6666666666666643  0.0000000000000000  T  T  T
0.3333333333333357  0.6666666666666643  0.1988312996907663  T  T  T

0.00000000E+00  0.00000000E+00  0.00000000E+00
0.00000000E+00  0.00000000E+00  0.00000000E+00
0.00000000E+00  0.00000000E+00  0.00000000E+00
0.00000000E+00  0.00000000E+00  0.00000000E+00
0.00000000E+00  0.00000000E+00  0.00000000E+00
