Mo2C  (n=1)
1.00000000000000
3.2840194746195968  -0.0000000000000000  0.0000000000000000
-1.6420097373097984  2.8440442916002469  -0.0000000000000000
0.0000000000000000  0.0000000000000000  31.7415070870373448
Mo  C  I
2  1  2
Selective  dynamics
Direct
0.0000000000000000  0.0000000000000000  0.0667493646620575  T  T  T
0.0000000000000000  0.0000000000000000  0.1456383795163127  T  T  T
0.3333333333333357  0.6666666666666643  0.1061938720891851  T  T  T
0.3333333333333357  0.6666666666666643  0.0000000000000000  T  T  T
0.3333333333333357  0.6666666666666643  0.2123877441783618  T  T  T

0.00000000E+00  0.00000000E+00  0.00000000E+00
0.00000000E+00  0.00000000E+00  0.00000000E+00
0.00000000E+00  0.00000000E+00  0.00000000E+00
0.00000000E+00  0.00000000E+00  0.00000000E+00
0.00000000E+00  0.00000000E+00  0.00000000E+00
