Nb2N  (n=1)
1.00000000000000
3.3413735807473048  0.0000000000000000  0.0000000000000000
-1.6706867903736524  2.8937144045199026  0.0000000000000000
0.0000000000000000  0.0000000000000000  31.8876777928371880
Nb  N  I
2  1  2
Selective  dynamics
Direct
-0.0000000000000000  -0.0000000000000000  0.0661761575169322  T  T  T
-0.0000000000000000  -0.0000000000000000  0.1498219417358249  T  T  T
0.3333333333333357  0.6666666666666643  0.1079990496263761  T  T  T
0.3333333333333357  0.6666666666666643  0.0000000000000000  T  T  T
0.3333333333333357  0.6666666666666643  0.2159980992527572  T  T  T

0.00000000E+00  0.00000000E+00  0.00000000E+00
0.00000000E+00  0.00000000E+00  0.00000000E+00
0.00000000E+00  0.00000000E+00  0.00000000E+00
0.00000000E+00  0.00000000E+00  0.00000000E+00
0.00000000E+00  0.00000000E+00  0.00000000E+00
