Ta2C  (n=1)
1.00000000000000
3.3533103234735715  -0.0000000000000012  0.0000000000000000
-1.6766551617367864  2.9040519269919738  0.0000000000000000
0.0000000000000000  0.0000000000000000  31.8410891611988660
Ta  C  I
2  1  2
Selective  dynamics
Direct
0.0000000000000000  0.0000000000000000  0.0643970495311212  T  T  T
0.0000000000000000  0.0000000000000000  0.1504539289189290  T  T  T
0.3333333333333357  0.6666666666666643  0.1074254892250252  T  T  T
0.3333333333333357  0.6666666666666643  0.0000000000000000  T  T  T
0.3333333333333357  0.6666666666666643  0.2148509784500502  T  T  T

0.00000000E+00  0.00000000E+00  0.00000000E+00
0.00000000E+00  0.00000000E+00  0.00000000E+00
0.00000000E+00  0.00000000E+00  0.00000000E+00
0.00000000E+00  0.00000000E+00  0.00000000E+00
0.00000000E+00  0.00000000E+00  0.00000000E+00
