Zr2C  (n=1)
1.00000000000000
3.5515450512578326  -0.0000000000000001  0.0000000000000000
-1.7757725256289159  3.0757282372461230  0.0000000000000000
0.0000000000000000  0.0000000000000000  32.0769930460204975
Zr  C  I
2  1  2
Selective  dynamics
Direct
-0.0000000000000000  -0.0000000000000000  0.0665400446073319  T  T  T
-0.0000000000000000  -0.0000000000000000  0.1540851566347842  T  T  T
0.3333333333333357  0.6666666666666643  0.1103126006210581  T  T  T
0.3333333333333357  0.6666666666666643  0.0000000000000000  T  T  T
0.3333333333333357  0.6666666666666643  0.2206252012421245  T  T  T

0.00000000E+00  0.00000000E+00  0.00000000E+00
0.00000000E+00  0.00000000E+00  0.00000000E+00
0.00000000E+00  0.00000000E+00  0.00000000E+00
0.00000000E+00  0.00000000E+00  0.00000000E+00
0.00000000E+00  0.00000000E+00  0.00000000E+00
