Mo2N  (n=1)
1.00000000000000
3.3137516965181697  0.0000000000000000  0.0000000000000000
-1.6568758482590848  2.8697931510968813  0.0000000000000000
0.0000000000000000  0.0000000000000000  31.6925047294588893
Mo  N  I
2  1  2
Selective  dynamics
Direct
-0.0000000000000000  -0.0000000000000000  0.0669095629677258  T  T  T
-0.0000000000000000  0.0000000000000000  0.1442603898835569  T  T  T
0.3333333333333357  0.6666666666666643  0.1055849764256375  T  T  T
0.3333333333333357  0.6666666666666643  0.0000000000000000  T  T  T
0.3333333333333357  0.6666666666666643  0.2111699528512828  T  T  T

0.00000000E+00  0.00000000E+00  0.00000000E+00
0.00000000E+00  0.00000000E+00  0.00000000E+00
0.00000000E+00  0.00000000E+00  0.00000000E+00
0.00000000E+00  0.00000000E+00  0.00000000E+00
0.00000000E+00  0.00000000E+00  0.00000000E+00
