Sc2C  (n=1)
1.00000000000000
3.5917744196485186  0.0000000000000000  0.0000000000000000
-1.7958872098242593  3.1105678922013458  0.0000000000000000
0.0000000000000000  0.0000000000000000  31.9528052499250421
Sc  C  I
2  1  2
Selective  dynamics
Direct
0.0000000000000000  0.0000000000000000  0.0664253842572419  T  T  T
0.0000000000000000  0.0000000000000000  0.1511706983258783  T  T  T
0.3333333333333357  0.6666666666666643  0.1087980412915601  T  T  T
0.3333333333333357  0.6666666666666643  0.0000000000000000  T  T  T
0.3333333333333357  0.6666666666666643  0.2175960825831201  T  T  T

0.00000000E+00  0.00000000E+00  0.00000000E+00
0.00000000E+00  0.00000000E+00  0.00000000E+00
0.00000000E+00  0.00000000E+00  0.00000000E+00
0.00000000E+00  0.00000000E+00  0.00000000E+00
0.00000000E+00  0.00000000E+00  0.00000000E+00
