Sc2N  (n=1)
1.00000000000000
3.5411475833696424  0.0000000000000000  0.0000000000000000
-1.7705737916848212  3.0667237661197455  0.0000000000000000
0.0000000000000000  0.0000000000000000  31.8488640029414540
Sc  N  I
2  1  2
Selective  dynamics
Direct
0.0000000000000000  0.0000000000000000  0.0655851045868191  T  T  T
0.0000000000000000  0.0000000000000000  0.1494575419047142  T  T  T
0.3333333333333357  0.6666666666666643  0.1075213232457634  T  T  T
0.3333333333333357  0.6666666666666643  0.0000000000000000  T  T  T
0.3333333333333357  0.6666666666666643  0.2150426464915332  T  T  T

0.00000000E+00  0.00000000E+00  0.00000000E+00
0.00000000E+00  0.00000000E+00  0.00000000E+00
0.00000000E+00  0.00000000E+00  0.00000000E+00
0.00000000E+00  0.00000000E+00  0.00000000E+00
0.00000000E+00  0.00000000E+00  0.00000000E+00
