Ta2N  (n=1)
1.00000000000000
3.3103363811962212  0.0000000000000001  0.0000000000000000
-1.6551681905981106  2.8668354014040363  0.0000000000000000
0.0000000000000000  0.0000000000000000  31.9165166060965255
Ta  N  I
2  1  2
Selective  dynamics
Direct
-0.0000000000000000  -0.0000000000000000  0.0664376852912476  T  T  T
-0.0000000000000000  -0.0000000000000000  0.1502688147149331  T  T  T
0.3333333333333357  0.6666666666666643  0.1083532500030904  T  T  T
0.3333333333333357  0.6666666666666643  0.0000000000000000  T  T  T
0.3333333333333357  0.6666666666666643  0.2167065000061870  T  T  T

0.00000000E+00  0.00000000E+00  0.00000000E+00
0.00000000E+00  0.00000000E+00  0.00000000E+00
0.00000000E+00  0.00000000E+00  0.00000000E+00
0.00000000E+00  0.00000000E+00  0.00000000E+00
0.00000000E+00  0.00000000E+00  0.00000000E+00
