Ti2N  (n=1)
1.00000000000000
3.3399908905816722  -0.0000000000000001  -0.0000000000000000
-1.6699954452908363  2.8925169598361409  0.0000000000000000
0.0000000000000000  0.0000000000000000  31.5273935755209251
Ti  N  I
2  1  2
Selective  dynamics
Direct
-0.0000000000000000  -0.0000000000000000  0.0630780065376785  T  T  T
0.0000000000000000  -0.0000000000000000  0.1439607884672165  T  T  T
0.3333333333333357  0.6666666666666643  0.1035193975024476  T  T  T
0.3333333333333357  0.6666666666666643  0.0000000000000000  T  T  T
0.3333333333333357  0.6666666666666643  0.2070387950048951  T  T  T

0.00000000E+00  0.00000000E+00  0.00000000E+00
0.00000000E+00  0.00000000E+00  0.00000000E+00
0.00000000E+00  0.00000000E+00  0.00000000E+00
0.00000000E+00  0.00000000E+00  0.00000000E+00
0.00000000E+00  0.00000000E+00  0.00000000E+00
