Nb2C  (n=1)
1.00000000000000
3.3803623623555348  -0.0000000000000000  -0.0000000000000000
-1.6901811811777674  2.9274796798980462  -0.0000000000000000
0.0000000000000000  -0.0000000000000000  31.8502682933318475
Nb  C  I
2  1  2
Selective  dynamics
Direct
-0.0000000000000000  -0.0000000000000000  0.0641763051977567  T  T  T
-0.0000000000000000  -0.0000000000000000  0.1509009503607471  T  T  T
0.3333333333333357  0.6666666666666643  0.1075386277792562  T  T  T
0.3333333333333357  0.6666666666666643  0.0000000000000000  T  T  T
0.3333333333333357  0.6666666666666643  0.2150772555585039  T  T  T

0.00000000E+00  0.00000000E+00  0.00000000E+00
0.00000000E+00  0.00000000E+00  0.00000000E+00
0.00000000E+00  0.00000000E+00  0.00000000E+00
0.00000000E+00  0.00000000E+00  0.00000000E+00
0.00000000E+00  0.00000000E+00  0.00000000E+00
