Hf2N  (n=1)
1.00000000000000
2.9764052893948083  0.0000000000000000  0.0000000000000000
-1.4882026446974042  2.5776425926689330  0.0000000000000000
0.0000000000000000  0.0000000000000000  30.8690217574901133
Hf  N  F
2  1  2
Selective  dynamics
Direct
-0.0000000000000000  -0.0000000000000000  0.0470699543794935  T  T  T
-0.0000000000000000  -0.0000000000000000  0.1430566328378694  T  T  T
0.3333333333333357  0.6666666666666643  0.0950632936086775  T  T  T
0.6666666666666643  0.3333333333333357  0.0000000000000000  T  T  T
0.6666666666666643  0.3333333333333357  0.1901265872173628  T  T  T

0.00000000E+00  0.00000000E+00  0.00000000E+00
0.00000000E+00  0.00000000E+00  0.00000000E+00
0.00000000E+00  0.00000000E+00  0.00000000E+00
0.00000000E+00  0.00000000E+00  0.00000000E+00
0.00000000E+00  0.00000000E+00  0.00000000E+00
