Ti2C  (n=1)
1.00000000000000
3.0153648894660430  0.0000000000000000  0.0000000000000000
-1.5076824447330215  2.6113825960210710  0.0000000000000000
0.0000000000000000  0.0000000000000000  29.9461538995947834
Ti  C  F
2  1  2
Selective  dynamics
Direct
0.0000000000000000  -0.0000000000000000  0.0410022543474259  T  T  T
0.0000000000000000  -0.0000000000000000  0.1241659978487918  T  T  T
0.3333333333333357  0.6666666666666643  0.0825841260981049  T  T  T
0.6666666666666643  0.3333333333333357  0.0000000000000000  T  T  T
0.6666666666666643  0.3333333333333357  0.1651682521962098  T  T  T

0.00000000E+00  0.00000000E+00  0.00000000E+00
0.00000000E+00  0.00000000E+00  0.00000000E+00
0.00000000E+00  0.00000000E+00  0.00000000E+00
0.00000000E+00  0.00000000E+00  0.00000000E+00
0.00000000E+00  0.00000000E+00  0.00000000E+00
