Nb2C  (n=1)
1.00000000000000
2.9388256862637592  0.0000000000000000  0.0000000000000000
-1.4694128431318798  2.5450977016989302  0.0000000000000000
0.0000000000000000  0.0000000000000000  30.8520222391925607
Nb  C  F
2  1  2
Selective  dynamics
Direct
0.0000000000000000  0.0000000000000000  0.0477987485200104  T  T  T
0.0000000000000000  0.0000000000000000  0.1418815970282466  T  T  T
0.3333333333333357  0.6666666666666643  0.0948401727741286  T  T  T
0.6666666666666643  0.3333333333333357  0.0000000000000000  T  T  T
0.6666666666666643  0.3333333333333357  0.1896803455482572  T  T  T

0.00000000E+00  0.00000000E+00  0.00000000E+00
0.00000000E+00  0.00000000E+00  0.00000000E+00
0.00000000E+00  0.00000000E+00  0.00000000E+00
0.00000000E+00  0.00000000E+00  0.00000000E+00
0.00000000E+00  0.00000000E+00  0.00000000E+00
