Zr2N  (n=1)
1.00000000000000
3.0423647832892646  0.0000000000000000  0.0000000000000000
-1.5211823916446323  2.6347651900351430  0.0000000000000000
0.0000000000000000  0.0000000000000000  30.8734004850820121
Zr  N  F
2  1  2
Selective  dynamics
Direct
-0.0000000000000000  0.0000000000000000  0.0468220621689802  T  T  T
-0.0000000000000000  0.0000000000000000  0.1434193881668850  T  T  T
0.3333333333333357  0.6666666666666643  0.0951207251679366  T  T  T
0.6666666666666643  0.3333333333333357  0.0000000000000000  T  T  T
0.6666666666666643  0.3333333333333357  0.1902414503358654  T  T  T

0.00000000E+00  0.00000000E+00  0.00000000E+00
0.00000000E+00  0.00000000E+00  0.00000000E+00
0.00000000E+00  0.00000000E+00  0.00000000E+00
0.00000000E+00  0.00000000E+00  0.00000000E+00
0.00000000E+00  0.00000000E+00  0.00000000E+00
