Sc2N  (n=1)
1.00000000000000
3.1333356585717866  0.0000000000000000  0.0000000000000000
-1.5666678292858933  2.7135482789935907  0.0000000000000000
0.0000000000000000  0.0000000000000000  30.0392240687580703
Sc  N  F
2  1  2
Selective  dynamics
Direct
0.0000000000000000  0.0000000000000000  0.0398600789092756  T  T  T
0.0000000000000000  0.0000000000000000  0.1278947225204675  T  T  T
0.3333333333333357  0.6666666666666643  0.0838774007148679  T  T  T
0.6666666666666643  0.3333333333333357  0.0000000000000000  T  T  T
0.6666666666666643  0.3333333333333357  0.1677548014297431  T  T  T

0.00000000E+00  0.00000000E+00  0.00000000E+00
0.00000000E+00  0.00000000E+00  0.00000000E+00
0.00000000E+00  0.00000000E+00  0.00000000E+00
0.00000000E+00  0.00000000E+00  0.00000000E+00
0.00000000E+00  0.00000000E+00  0.00000000E+00
