Mo2C  (n=1)
1.00000000000000
2.8845374049816961  0.0000000000000000  0.0000000000000000
-1.4422687024908480  2.4980826709388428  0.0000000000000000
0.0000000000000000  0.0000000000000000  30.6796587760706778
Mo  C  F
2  1  2
Selective  dynamics
Direct
-0.0000000000000000  -0.0000000000000000  0.0491662155884687  T  T  T
-0.0000000000000000  -0.0000000000000000  0.1359616183788665  T  T  T
0.3333333333333357  0.6666666666666643  0.0925639169836677  T  T  T
0.6666666666666643  0.3333333333333357  0.0000000000000000  T  T  T
0.6666666666666643  0.3333333333333357  0.1851278339673276  T  T  T

0.00000000E+00  0.00000000E+00  0.00000000E+00
0.00000000E+00  0.00000000E+00  0.00000000E+00
0.00000000E+00  0.00000000E+00  0.00000000E+00
0.00000000E+00  0.00000000E+00  0.00000000E+00
0.00000000E+00  0.00000000E+00  0.00000000E+00
