Zr2C  (n=1)
1.00000000000000
3.2574755420901975  0.0000000000000000  0.0000000000000000
-1.6287377710450988  2.8210565718088270  0.0000000000000000
0.0000000000000000  0.0000000000000000  30.3959480518941021
Zr  C  F
2  1  2
Selective  dynamics
Direct
0.0000000000000000  0.0000000000000000  0.0434612836866618  T  T  T
0.0000000000000000  0.0000000000000000  0.1340606689986684  T  T  T
0.3333333333333357  0.6666666666666643  0.0887609763426651  T  T  T
0.6666666666666643  0.3333333333333357  0.0000000000000000  T  T  T
0.6666666666666643  0.3333333333333357  0.1775219526853304  T  T  T

0.00000000E+00  0.00000000E+00  0.00000000E+00
0.00000000E+00  0.00000000E+00  0.00000000E+00
0.00000000E+00  0.00000000E+00  0.00000000E+00
0.00000000E+00  0.00000000E+00  0.00000000E+00
0.00000000E+00  0.00000000E+00  0.00000000E+00
