Ti2N  (n=1)
1.00000000000000
2.8315125773375187  0.0000000000000000  0.0000000000000000
-1.4157562886687594  2.4521618231489484  0.0000000000000000
0.0000000000000000  0.0000000000000000  30.3295853552506038
Ti  N  F
2  1  2
Selective  dynamics
Direct
-0.0000000000000000  -0.0000000000000000  0.0435905724318009  T  T  T
-0.0000000000000000  -0.0000000000000000  0.1321317558765360  T  T  T
0.3333333333333357  0.6666666666666643  0.0878611641541685  T  T  T
0.6666666666666643  0.3333333333333357  0.0000000000000000  T  T  T
0.6666666666666643  0.3333333333333357  0.1757223283083214  T  T  T

0.00000000E+00  0.00000000E+00  0.00000000E+00
0.00000000E+00  0.00000000E+00  0.00000000E+00
0.00000000E+00  0.00000000E+00  0.00000000E+00
0.00000000E+00  0.00000000E+00  0.00000000E+00
0.00000000E+00  0.00000000E+00  0.00000000E+00
