Cr2N  (n=1)
1.00000000000000
2.6788512345357929  0.0000000000000001  0.0000000000000000
-1.3394256172678962  2.3199532221310393  0.0000000000000000
0.0000000000000000  0.0000000000000000  30.1502204748989087
Cr  N  F
2  1  2
Selective  dynamics
Direct
0.0000000000000000  -0.0000000000000000  0.0449363175360961  T  T  T
0.0000000000000000  -0.0000000000000000  0.1258823495839807  T  T  T
0.3333333333333357  0.6666666666666643  0.0854093335600384  T  T  T
0.6666666666666643  0.3333333333333357  0.0000000000000000  T  T  T
0.6666666666666643  0.3333333333333357  0.1708186671200843  T  T  T

0.00000000E+00  0.00000000E+00  0.00000000E+00
0.00000000E+00  0.00000000E+00  0.00000000E+00
0.00000000E+00  0.00000000E+00  0.00000000E+00
0.00000000E+00  0.00000000E+00  0.00000000E+00
0.00000000E+00  0.00000000E+00  0.00000000E+00
