Cr2C  (n=1)
1.00000000000000
2.6971871886719132  0.0000000000000002  0.0000000000000000
-1.3485935943359566  2.3358326242071374  0.0000000000000000
0.0000000000000000  0.0000000000000000  30.1737477385750452
Cr  C  F
2  1  2
Selective  dynamics
Direct
-0.0000000000000000  0.0000000000000000  0.0446989109390872  T  T  T
-0.0000000000000000  0.0000000000000000  0.1267662906460896  T  T  T
0.3333333333333357  0.6666666666666643  0.0857326007925883  T  T  T
0.6666666666666643  0.3333333333333357  0.0000000000000000  T  T  T
0.6666666666666643  0.3333333333333357  0.1714652015851769  T  T  T

0.00000000E+00  0.00000000E+00  0.00000000E+00
0.00000000E+00  0.00000000E+00  0.00000000E+00
0.00000000E+00  0.00000000E+00  0.00000000E+00
0.00000000E+00  0.00000000E+00  0.00000000E+00
0.00000000E+00  0.00000000E+00  0.00000000E+00
