Nb2N  (n=1)
1.00000000000000
2.8504305547339803  0.0000000000000000  0.0000000000000000
-1.4252152773669899  2.4685452721601164  0.0000000000000000
0.0000000000000000  0.0000000000000000  31.0223401911662471
Nb  N  F
2  1  2
Selective  dynamics
Direct
0.0000000000000000  0.0000000000000000  0.0487716134573680  T  T  T
0.0000000000000000  0.0000000000000000  0.1453575255455345  T  T  T
0.3333333333333357  0.6666666666666643  0.0970645695014552  T  T  T
0.6666666666666643  0.3333333333333357  0.0000000000000000  T  T  T
0.6666666666666643  0.3333333333333357  0.1941291390029027  T  T  T

0.00000000E+00  0.00000000E+00  0.00000000E+00
0.00000000E+00  0.00000000E+00  0.00000000E+00
0.00000000E+00  0.00000000E+00  0.00000000E+00
0.00000000E+00  0.00000000E+00  0.00000000E+00
0.00000000E+00  0.00000000E+00  0.00000000E+00
