Hf2C  (n=1)
1.00000000000000
3.1570773604160558  0.0000000000000001  0.0000000000000000
-1.5785386802080279  2.7341091959652624  0.0000000000000000
0.0000000000000000  0.0000000000000000  30.4824255829468420
Hf  C  F
2  1  2
Selective  dynamics
Direct
-0.0000000000000000  -0.0000000000000000  0.0444214257353331  T  T  T
-0.0000000000000000  -0.0000000000000000  0.1354338672113654  T  T  T
0.3333333333333357  0.6666666666666643  0.0899276464733530  T  T  T
0.6666666666666643  0.3333333333333357  0.0000000000000000  T  T  T
0.6666666666666643  0.3333333333333357  0.1798552929466986  T  T  T

0.00000000E+00  0.00000000E+00  0.00000000E+00
0.00000000E+00  0.00000000E+00  0.00000000E+00
0.00000000E+00  0.00000000E+00  0.00000000E+00
0.00000000E+00  0.00000000E+00  0.00000000E+00
0.00000000E+00  0.00000000E+00  0.00000000E+00
