Ta2C  (n=1)
1.00000000000000
2.9171785734141373  -0.0000000000000007  0.0000000000000000
-1.4585892867070684  2.5263507520117905  0.0000000000000000
0.0000000000000000  0.0000000000000000  30.8863163077727165
Ta  C  F
2  1  2
Selective  dynamics
Direct
-0.0000000000000000  -0.0000000000000000  0.0485179577850374  T  T  T
-0.0000000000000000  -0.0000000000000000  0.1420621116903049  T  T  T
0.3333333333333357  0.6666666666666643  0.0952900347376710  T  T  T
0.6666666666666643  0.3333333333333357  0.0000000000000000  T  T  T
0.6666666666666643  0.3333333333333357  0.1905800694753422  T  T  T

0.00000000E+00  0.00000000E+00  0.00000000E+00
0.00000000E+00  0.00000000E+00  0.00000000E+00
0.00000000E+00  0.00000000E+00  0.00000000E+00
0.00000000E+00  0.00000000E+00  0.00000000E+00
0.00000000E+00  0.00000000E+00  0.00000000E+00
