Sc2C  (n=1)
1.00000000000000
3.2156081292012342  -0.0000000000000001  0.0000000000000000
-1.6078040646006171  2.7847983286049689  0.0000000000000000
0.0000000000000000  0.0000000000000000  30.0204768623534655
Sc  C  F
2  1  2
Selective  dynamics
Direct
0.0000000000000000  0.0000000000000000  0.0383341816252003  T  T  T
0.0000000000000000  0.0000000000000000  0.1289008987958412  T  T  T
0.3333333333333357  0.6666666666666643  0.0836175402105168  T  T  T
0.6666666666666643  0.3333333333333357  0.0000000000000000  T  T  T
0.6666666666666643  0.3333333333333357  0.1672350804210338  T  T  T

0.00000000E+00  0.00000000E+00  0.00000000E+00
0.00000000E+00  0.00000000E+00  0.00000000E+00
0.00000000E+00  0.00000000E+00  0.00000000E+00
0.00000000E+00  0.00000000E+00  0.00000000E+00
0.00000000E+00  0.00000000E+00  0.00000000E+00
