Mo2N  (n=1)
1.00000000000000
2.7833827119117185  -0.0000000000000001  0.0000000000000000
-1.3916913559558592  2.4104801370079776  0.0000000000000000
0.0000000000000000  0.0000000000000000  30.8997965696573083
Mo  N  F
2  1  2
Selective  dynamics
Direct
0.0000000000000000  -0.0000000000000000  0.0496730701692848  T  T  T
0.0000000000000000  -0.0000000000000000  0.1412601146611530  T  T  T
0.3333333333333357  0.6666666666666643  0.0954665924152228  T  T  T
0.6666666666666643  0.3333333333333357  0.0000000000000000  T  T  T
0.6666666666666643  0.3333333333333357  0.1909331848304378  T  T  T

0.00000000E+00  0.00000000E+00  0.00000000E+00
0.00000000E+00  0.00000000E+00  0.00000000E+00
0.00000000E+00  0.00000000E+00  0.00000000E+00
0.00000000E+00  0.00000000E+00  0.00000000E+00
0.00000000E+00  0.00000000E+00  0.00000000E+00
