Ta2N  (n=1)
1.00000000000000
2.8265634138984703  0.0000000000000002  0.0000000000000000
-1.4132817069492354  2.4478757218789102  0.0000000000000000
0.0000000000000000  0.0000000000000000  31.0766329372081955
Ta  N  F
2  1  2
Selective  dynamics
Direct
0.0000000000000000  0.0000000000000000  0.0493797462733141  T  T  T
0.0000000000000000  0.0000000000000000  0.1461572975720188  T  T  T
0.3333333333333357  0.6666666666666643  0.0977685219226665  T  T  T
0.6666666666666643  0.3333333333333357  0.0000000000000000  T  T  T
0.6666666666666643  0.3333333333333357  0.1955370438453330  T  T  T

0.00000000E+00  0.00000000E+00  0.00000000E+00
0.00000000E+00  0.00000000E+00  0.00000000E+00
0.00000000E+00  0.00000000E+00  0.00000000E+00
0.00000000E+00  0.00000000E+00  0.00000000E+00
0.00000000E+00  0.00000000E+00  0.00000000E+00
