Zr3N2  (n=2)
1.00000000000000
3.2167238781228567  0.0000000000000001  0.0000000000000000
-1.6083619390614279  2.7857645962317283  0.0000000000000001
0.0000000000000000  0.0000000000000016  34.4929978103448605
Zr  N  Cl
3  2  2
Selective  dynamics
Direct
0.0000000000000000  0.0000000000000000  0.0526550441487241  T  T  T
0.0000000000000000  0.0000000000000000  0.1372397563061217  T  T  T
0.0000000000000000  0.0000000000000000  0.2219540387637760  T  T  T
0.3333333333333357  0.6666666666666643  0.0943040656295320  T  T  T
0.3333333333333357  0.6666666666666643  0.1799734703713559  T  T  T
0.3333333333333357  0.6666666666666643  0.0000000000000000  T  T  T
0.6666666666666643  0.3333333333333357  0.2752152150572948  T  T  T

0.00000000E+00  0.00000000E+00  0.00000000E+00
0.00000000E+00  0.00000000E+00  0.00000000E+00
0.00000000E+00  0.00000000E+00  0.00000000E+00
0.00000000E+00  0.00000000E+00  0.00000000E+00
0.00000000E+00  0.00000000E+00  0.00000000E+00
0.00000000E+00  0.00000000E+00  0.00000000E+00
0.00000000E+00  0.00000000E+00  0.00000000E+00
