Ta3N2  (n=2)
1.00000000000000
3.0131098818693967  0.0000000000000004  0.0000000000000000
-1.5065549409346983  2.6094297025396838  0.0000000000000000
0.0000000000000002  0.0000000000000010  34.4713579714525693
Ta  N  Cl
3  2  2
Selective  dynamics
Direct
-0.0000000000000000  -0.0000000000000000  0.0531966850396088  T  T  T
-0.0000000000000000  -0.0000000000000000  0.1368463653522993  T  T  T
-0.0000000000000000  -0.0000000000000000  0.2210098134799081  T  T  T
0.3333333333333357  0.6666666666666643  0.0948024271349633  T  T  T
0.3333333333333357  0.6666666666666643  0.1768934736700946  T  T  T
0.3333333333333357  0.6666666666666643  0.0000000000000000  T  T  T
0.6666666666666643  0.3333333333333357  0.2747602220746937  T  T  T

0.00000000E+00  0.00000000E+00  0.00000000E+00
0.00000000E+00  0.00000000E+00  0.00000000E+00
0.00000000E+00  0.00000000E+00  0.00000000E+00
0.00000000E+00  0.00000000E+00  0.00000000E+00
0.00000000E+00  0.00000000E+00  0.00000000E+00
0.00000000E+00  0.00000000E+00  0.00000000E+00
0.00000000E+00  0.00000000E+00  0.00000000E+00
