Nb3C2  (n=2)
1.00000000000000
3.1297744128633704  0.0000000000000001  -0.0000000000000000
-1.5648872064316850  2.7104641504351537  0.0000000000000001
-0.0000000000000005  0.0000000000000013  34.2792955156900589
Nb  C  Cl
3  2  2
Selective  dynamics
Direct
0.0000000000000000  0.0000000000000000  0.0520260646392154  T  T  T
0.0000000000000000  0.0000000000000000  0.1344270476723055  T  T  T
-0.0000000000000000  -0.0000000000000000  0.2173123953010759  T  T  T
0.3333333333333357  0.6666666666666643  0.0915414195397532  T  T  T
0.3333333333333357  0.6666666666666643  0.1773650773202129  T  T  T
0.3333333333333357  0.6666666666666643  0.0000000000000000  T  T  T
0.6666666666666643  0.3333333333333357  0.2706967974718970  T  T  T

0.00000000E+00  0.00000000E+00  0.00000000E+00
0.00000000E+00  0.00000000E+00  0.00000000E+00
0.00000000E+00  0.00000000E+00  0.00000000E+00
0.00000000E+00  0.00000000E+00  0.00000000E+00
0.00000000E+00  0.00000000E+00  0.00000000E+00
0.00000000E+00  0.00000000E+00  0.00000000E+00
0.00000000E+00  0.00000000E+00  0.00000000E+00
