Hf3N2  (n=2)
1.00000000000000
3.1607486960443119  0.0000000000000000  0.0000000000000000
-1.5803743480221559  2.7372886665234830  0.0000000000000000
0.0000000000000004  0.0000000000000006  34.4087792181248702
Hf  N  Cl
3  2  2
Selective  dynamics
Direct
0.0000000000000000  0.0000000000000000  0.0523580757218670  T  T  T
0.0000000000000000  0.0000000000000000  0.1363773388623980  T  T  T
0.0000000000000000  0.0000000000000000  0.2204773923494034  T  T  T
0.3333333333333357  0.6666666666666643  0.0935862294419219  T  T  T
0.3333333333333357  0.6666666666666643  0.1790936654297001  T  T  T
0.3333333333333357  0.6666666666666643  0.0000000000000000  T  T  T
0.6666666666666643  0.3333333333333357  0.2734412388908230  T  T  T

0.00000000E+00  0.00000000E+00  0.00000000E+00
0.00000000E+00  0.00000000E+00  0.00000000E+00
0.00000000E+00  0.00000000E+00  0.00000000E+00
0.00000000E+00  0.00000000E+00  0.00000000E+00
0.00000000E+00  0.00000000E+00  0.00000000E+00
0.00000000E+00  0.00000000E+00  0.00000000E+00
0.00000000E+00  0.00000000E+00  0.00000000E+00
