Ta3C2  (n=2)
1.00000000000000
3.1078952283439580  -0.0000000000000003  -0.0000000000000000
-1.5539476141719790  2.6915162206846088  0.0000000000000000
0.0000000000000005  0.0000000000000002  34.2690813646211510
Ta  C  Cl
3  2  2
Selective  dynamics
Direct
0.0000000000000000  0.0000000000000000  0.0522456912625749  T  T  T
0.0000000000000000  0.0000000000000000  0.1343902355013619  T  T  T
-0.0000000000000000  -0.0000000000000000  0.2169619027286643  T  T  T
0.3333333333333357  0.6666666666666643  0.0916458194876022  T  T  T
0.3333333333333357  0.6666666666666643  0.1774746331486325  T  T  T
0.3333333333333357  0.6666666666666643  0.0000000000000000  T  T  T
0.6666666666666643  0.3333333333333357  0.2704794233028494  T  T  T

0.00000000E+00  0.00000000E+00  0.00000000E+00
0.00000000E+00  0.00000000E+00  0.00000000E+00
0.00000000E+00  0.00000000E+00  0.00000000E+00
0.00000000E+00  0.00000000E+00  0.00000000E+00
0.00000000E+00  0.00000000E+00  0.00000000E+00
0.00000000E+00  0.00000000E+00  0.00000000E+00
0.00000000E+00  0.00000000E+00  0.00000000E+00
