Sc3C2  (n=2)
1.00000000000000
3.3950685099649309  -0.0000000000000002  0.0000000000000000
-1.6975342549824652  2.9402155783413666  0.0000000000000000
0.0000000000000004  -0.0000000000000001  33.9048634198401260
Sc  C  Cl
3  2  2
Selective  dynamics
Direct
0.0000000000000000  0.0000000000000000  0.0517778134144242  T  T  T
0.0000000000000000  0.0000000000000000  0.1325484550347278  T  T  T
-0.0000000000000000  -0.0000000000000000  0.2126943323405746  T  T  T
0.3333333333333357  0.6666666666666643  0.0895445393967191  T  T  T
0.3333333333333357  0.6666666666666643  0.1750266963815213  T  T  T
0.3333333333333357  0.6666666666666643  0.0000000000000000  T  T  T
0.6666666666666643  0.3333333333333357  0.2626426571778864  T  T  T

0.00000000E+00  0.00000000E+00  0.00000000E+00
0.00000000E+00  0.00000000E+00  0.00000000E+00
0.00000000E+00  0.00000000E+00  0.00000000E+00
0.00000000E+00  0.00000000E+00  0.00000000E+00
0.00000000E+00  0.00000000E+00  0.00000000E+00
0.00000000E+00  0.00000000E+00  0.00000000E+00
0.00000000E+00  0.00000000E+00  0.00000000E+00
