Ti3C2  (n=2)
1.00000000000000
3.1468528201315240  0.0000000000000001  0.0000000000000000
-1.5734264100657622  2.7252544846109283  0.0000000000000000
-0.0000000000000004  -0.0000000000000001  33.5968087972972711
Ti  C  Cl
3  2  2
Selective  dynamics
Direct
-0.0000000000000000  -0.0000000000000000  0.0517789092401479  T  T  T
-0.0000000000000000  -0.0000000000000000  0.1289986502828718  T  T  T
0.0000000000000000  0.0000000000000000  0.2049720780788216  T  T  T
0.3333333333333357  0.6666666666666643  0.0876405213710810  T  T  T
0.3333333333333357  0.6666666666666643  0.1714531767808547  T  T  T
0.3333333333333357  0.6666666666666643  0.0000000000000000  T  T  T
0.6666666666666643  0.3333333333333357  0.2558817073718278  T  T  T

0.00000000E+00  0.00000000E+00  0.00000000E+00
0.00000000E+00  0.00000000E+00  0.00000000E+00
0.00000000E+00  0.00000000E+00  0.00000000E+00
0.00000000E+00  0.00000000E+00  0.00000000E+00
0.00000000E+00  0.00000000E+00  0.00000000E+00
0.00000000E+00  0.00000000E+00  0.00000000E+00
0.00000000E+00  0.00000000E+00  0.00000000E+00
