Mo3C2  (n=2)
1.00000000000000
3.0057545425728143  -0.0000000000000002  -0.0000000000000001
-1.5028772712864074  2.6030597916847520  0.0000000000000000
-0.0000000000000004  0.0000000000000001  34.2014379222989859
Mo  C  Cl
3  2  2
Selective  dynamics
Direct
-0.0000000000000000  -0.0000000000000000  0.0536010945675372  T  T  T
-0.0000000000000000  0.0000000000000000  0.1348207681165700  T  T  T
0.0000000000000000  0.0000000000000000  0.2153437554797136  T  T  T
0.3333333333333357  0.6666666666666643  0.0921144068143299  T  T  T
0.3333333333333357  0.6666666666666643  0.1751200564558502  T  T  T
0.3333333333333357  0.6666666666666643  0.0000000000000000  T  T  T
0.6666666666666643  0.3333333333333357  0.2690365809532161  T  T  T

0.00000000E+00  0.00000000E+00  0.00000000E+00
0.00000000E+00  0.00000000E+00  0.00000000E+00
0.00000000E+00  0.00000000E+00  0.00000000E+00
0.00000000E+00  0.00000000E+00  0.00000000E+00
0.00000000E+00  0.00000000E+00  0.00000000E+00
0.00000000E+00  0.00000000E+00  0.00000000E+00
0.00000000E+00  0.00000000E+00  0.00000000E+00
