Hf3C2  (n=2)
1.00000000000000
3.3097292760972183  -0.0000000000000001  -0.0000000000000000
-1.6548646380486087  2.8663096338928722  -0.0000000000000000
0.0000000000000001  -0.0000000000000002  34.2350496013394121
Hf  C  Cl
3  2  2
Selective  dynamics
Direct
-0.0000000000000000  -0.0000000000000000  0.0537146003971126  T  T  T
0.0000000000000000  0.0000000000000000  0.1354885081392818  T  T  T
0.0000000000000000  0.0000000000000000  0.2164580474829013  T  T  T
0.3333333333333357  0.6666666666666643  0.0915067902004048  T  T  T
0.3333333333333357  0.6666666666666643  0.1817161844650957  T  T  T
0.3333333333333357  0.6666666666666643  0.0000000000000000  T  T  T
0.6666666666666643  0.3333333333333357  0.2697542345893987  T  T  T

0.00000000E+00  0.00000000E+00  0.00000000E+00
0.00000000E+00  0.00000000E+00  0.00000000E+00
0.00000000E+00  0.00000000E+00  0.00000000E+00
0.00000000E+00  0.00000000E+00  0.00000000E+00
0.00000000E+00  0.00000000E+00  0.00000000E+00
0.00000000E+00  0.00000000E+00  0.00000000E+00
0.00000000E+00  0.00000000E+00  0.00000000E+00
