Ti3N2  (n=2)
1.00000000000000
3.0288833797948875  0.0000000000000000  0.0000000000000000
-1.5144416898974438  2.6230899522147966  0.0000000000000000
0.0000000000000003  0.0000000000000009  33.6964952175376169
Ti  N  Cl
3  2  2
Selective  dynamics
Direct
-0.0000000000000000  -0.0000000000000000  0.0507239693340861  T  T  T
-0.0000000000000000  -0.0000000000000000  0.1292493508338719  T  T  T
-0.0000000000000000  -0.0000000000000000  0.2073550944103159  T  T  T
0.3333333333333357  0.6666666666666643  0.0882934492258039  T  T  T
0.3333333333333357  0.6666666666666643  0.1705385307545681  T  T  T
0.3333333333333357  0.6666666666666643  0.0000000000000000  T  T  T
0.6666666666666643  0.3333333333333357  0.2580830784149757  T  T  T

0.00000000E+00  0.00000000E+00  0.00000000E+00
0.00000000E+00  0.00000000E+00  0.00000000E+00
0.00000000E+00  0.00000000E+00  0.00000000E+00
0.00000000E+00  0.00000000E+00  0.00000000E+00
0.00000000E+00  0.00000000E+00  0.00000000E+00
0.00000000E+00  0.00000000E+00  0.00000000E+00
0.00000000E+00  0.00000000E+00  0.00000000E+00
