Mo3N2  (n=2)
1.00000000000000
2.9610397551461540  0.0000000000000000  0.0000000000000000
-1.4805198775730770  2.5643356498194478  0.0000000000000000
-0.0000000000000004  0.0000000000000002  34.2981098639921953
Mo  N  Cl
3  2  2
Selective  dynamics
Direct
0.0000000000000000  -0.0000000000000000  0.0559635220137728  T  T  T
0.0000000000000000  -0.0000000000000000  0.1361657684248338  T  T  T
0.0000000000000000  -0.0000000000000000  0.2171103691654696  T  T  T
0.3333333333333357  0.6666666666666643  0.0950697569463011  T  T  T
0.3333333333333357  0.6666666666666643  0.1759762832912101  T  T  T
0.3333333333333357  0.6666666666666643  0.0000000000000000  T  T  T
0.6666666666666643  0.3333333333333357  0.2710968592981794  T  T  T

0.00000000E+00  0.00000000E+00  0.00000000E+00
0.00000000E+00  0.00000000E+00  0.00000000E+00
0.00000000E+00  0.00000000E+00  0.00000000E+00
0.00000000E+00  0.00000000E+00  0.00000000E+00
0.00000000E+00  0.00000000E+00  0.00000000E+00
0.00000000E+00  0.00000000E+00  0.00000000E+00
0.00000000E+00  0.00000000E+00  0.00000000E+00
