Zr3C2  (n=2)
1.00000000000000
3.3599892444660377  0.0000000000000004  0.0000000000000000
-1.6799946222330180  2.9098360435425459  0.0000000000000000
-0.0000000000000002  0.0000000000000004  34.3448705772556124
Zr  C  Cl
3  2  2
Selective  dynamics
Direct
-0.0000000000000000  0.0000000000000000  0.0538401697274952  T  T  T
0.0000000000000000  0.0000000000000000  0.1365857715201867  T  T  T
0.0000000000000000  -0.0000000000000000  0.2185900653614813  T  T  T
0.3333333333333357  0.6666666666666643  0.0920901232756600  T  T  T
0.3333333333333357  0.6666666666666643  0.1832215106746226  T  T  T
0.3333333333333357  0.6666666666666643  0.0000000000000000  T  T  T
0.6666666666666643  0.3333333333333357  0.2720892645740269  T  T  T

0.00000000E+00  0.00000000E+00  0.00000000E+00
0.00000000E+00  0.00000000E+00  0.00000000E+00
0.00000000E+00  0.00000000E+00  0.00000000E+00
0.00000000E+00  0.00000000E+00  0.00000000E+00
0.00000000E+00  0.00000000E+00  0.00000000E+00
0.00000000E+00  0.00000000E+00  0.00000000E+00
0.00000000E+00  0.00000000E+00  0.00000000E+00
