Cr3N2  (n=2)
1.00000000000000
2.8724306903037018  0.0000000000000001  0.0000000000000000
-1.4362153451518509  2.4875979483723016  0.0000000000000000
0.0000000000000000  0.0000000000000002  33.4073965398692110
Cr  N  Cl
3  2  2
Selective  dynamics
Direct
0.0000000000000000  0.0000000000000000  0.0517266091072353  T  T  T
0.0000000000000000  0.0000000000000000  0.1258303870154593  T  T  T
0.0000000000000000  0.0000000000000000  0.2003615978453480  T  T  T
0.3333333333333357  0.6666666666666643  0.0871474874149167  T  T  T
0.3333333333333357  0.6666666666666643  0.1659926821958093  T  T  T
0.3333333333333357  0.6666666666666643  0.0000000000000000  T  T  T
0.6666666666666643  0.3333333333333357  0.2516627277386198  T  T  T

0.00000000E+00  0.00000000E+00  0.00000000E+00
0.00000000E+00  0.00000000E+00  0.00000000E+00
0.00000000E+00  0.00000000E+00  0.00000000E+00
0.00000000E+00  0.00000000E+00  0.00000000E+00
0.00000000E+00  0.00000000E+00  0.00000000E+00
0.00000000E+00  0.00000000E+00  0.00000000E+00
0.00000000E+00  0.00000000E+00  0.00000000E+00
