Cr3C2  (n=2)
1.00000000000000
2.8702136863311005  0.0000000000000000  0.0000000000000000
-1.4351068431655503  2.4856779665443853  0.0000000000000000
-0.0000000000000002  -0.0000000000000002  33.4108881211341995
Cr  C  Cl
3  2  2
Selective  dynamics
Direct
0.0000000000000000  0.0000000000000000  0.0506527121548967  T  T  T
0.0000000000000000  0.0000000000000000  0.1262137190385055  T  T  T
0.0000000000000000  0.0000000000000000  0.2010217015140646  T  T  T
0.3333333333333357  0.6666666666666643  0.0868860578786087  T  T  T
0.3333333333333357  0.6666666666666643  0.1642287101497976  T  T  T
0.3333333333333357  0.6666666666666643  0.0000000000000000  T  T  T
0.6666666666666643  0.3333333333333357  0.2517409321967068  T  T  T

0.00000000E+00  0.00000000E+00  0.00000000E+00
0.00000000E+00  0.00000000E+00  0.00000000E+00
0.00000000E+00  0.00000000E+00  0.00000000E+00
0.00000000E+00  0.00000000E+00  0.00000000E+00
0.00000000E+00  0.00000000E+00  0.00000000E+00
0.00000000E+00  0.00000000E+00  0.00000000E+00
0.00000000E+00  0.00000000E+00  0.00000000E+00
