Nb3N2  (n=2)
1.00000000000000
3.0498556382126552  -0.0000000000000001  0.0000000000000000
-1.5249278191063276  2.6412524610003403  0.0000000000000000
0.0000000000000006  -0.0000000000000003  34.3938984307360442
Nb  N  Cl
3  2  2
Selective  dynamics
Direct
0.0000000000000000  0.0000000000000000  0.0523831562629970  T  T  T
0.0000000000000000  0.0000000000000000  0.1360011625123929  T  T  T
0.0000000000000000  0.0000000000000000  0.2197603625252989  T  T  T
0.3333333333333357  0.6666666666666643  0.0936983795882548  T  T  T
0.3333333333333357  0.6666666666666643  0.1759150361615561  T  T  T
0.3333333333333357  0.6666666666666643  0.0000000000000000  T  T  T
0.6666666666666643  0.3333333333333357  0.2731268875976329  T  T  T

0.00000000E+00  0.00000000E+00  0.00000000E+00
0.00000000E+00  0.00000000E+00  0.00000000E+00
0.00000000E+00  0.00000000E+00  0.00000000E+00
0.00000000E+00  0.00000000E+00  0.00000000E+00
0.00000000E+00  0.00000000E+00  0.00000000E+00
0.00000000E+00  0.00000000E+00  0.00000000E+00
0.00000000E+00  0.00000000E+00  0.00000000E+00
