Sc3N2  (n=2)
1.00000000000000
3.2476951080906593  -0.0000000000000003  0.0000000000000000
-1.6238475540453294  2.8125864679458772  0.0000000000000000
0.0000000000000001  -0.0000000000000002  33.9385111397553771
Sc  N  Cl
3  2  2
Selective  dynamics
Direct
-0.0000000000000000  -0.0000000000000000  0.0522803530432287  T  T  T
-0.0000000000000000  -0.0000000000000000  0.1321241703874450  T  T  T
-0.0000000000000000  -0.0000000000000000  0.2119907967438902  T  T  T
0.3333333333333357  0.6666666666666643  0.0901193957926220  T  T  T
0.3333333333333357  0.6666666666666643  0.1774406205978769  T  T  T
0.3333333333333357  0.6666666666666643  0.0000000000000000  T  T  T
0.6666666666666643  0.3333333333333357  0.2633736967113108  T  T  T

0.00000000E+00  0.00000000E+00  0.00000000E+00
0.00000000E+00  0.00000000E+00  0.00000000E+00
0.00000000E+00  0.00000000E+00  0.00000000E+00
0.00000000E+00  0.00000000E+00  0.00000000E+00
0.00000000E+00  0.00000000E+00  0.00000000E+00
0.00000000E+00  0.00000000E+00  0.00000000E+00
0.00000000E+00  0.00000000E+00  0.00000000E+00
