Zr2N
1.00000000000000
3.1614034772988835  0.0000000000000000  0.0000000000000000
-1.5807017386494417  2.7378557230953078  0.0000000000000000
0.0000000000000000  0.0000000000000000  30.2170451038118522
Zr  N  O
2  1  2
Selective  dynamics
Direct
0.0000000000000000  0.0000000000000000  0.0356381666610128  T  T  T
0.0000000000000000  0.0000000000000000  0.1370142249242195  T  T  T
0.3333333333333357  0.6666666666666643  0.0863261957926145  T  T  T
0.3333333333333357  0.6666666666666643  0.0000000000000000  T  T  T
0.3333333333333357  0.6666666666666643  0.1726523915852290  T  T  T

0.00000000E+00  0.00000000E+00  0.00000000E+00
0.00000000E+00  0.00000000E+00  0.00000000E+00
0.00000000E+00  0.00000000E+00  0.00000000E+00
0.00000000E+00  0.00000000E+00  0.00000000E+00
0.00000000E+00  0.00000000E+00  0.00000000E+00
