Sc2NO2
1.00000000000000
3.2081479685365530  -0.0000000000000038  0.0000000000000000
-1.6040739842682779  2.7783376399365016  0.0000000000000000
0.0000000000000000  0.0000000000000000  29.7134501369276975
Sc  N  O
2  1  2
Selective  Dynamics
Direct
0.0000000000000000  0.0000000000000000  0.0293639842058478  T  T  T
0.0000000000000000  0.0000000000000000  0.1292662022991469  T  T  T
0.3333333333333357  0.6666666666666643  0.0793150932524973  T  T  T
0.3333333333333357  0.6666666666666643  0.0000000000000000  T  T  T
0.3333333333333357  0.6666666666666643  0.1586301865049946  T  T  T

0.00000000E+00  0.00000000E+00  0.00000000E+00
0.00000000E+00  0.00000000E+00  0.00000000E+00
0.00000000E+00  0.00000000E+00  0.00000000E+00
0.00000000E+00  0.00000000E+00  0.00000000E+00
0.00000000E+00  0.00000000E+00  0.00000000E+00
