Nb2C
1.00000000000000
3.0263171328362732  0.0000000000000000  0.0000000000000000
-1.5131585664181366  2.6208675170391889  0.0000000000000000
0.0000000000000000  0.0000000000000000  30.2388574715444918
Nb  C  O
2  1  2
Selective  dynamics
Direct
0.0000000000000000  0.0000000000000000  0.0384358998333981  T  T  T
0.0000000000000000  0.0000000000000000  0.1348132871266048  T  T  T
0.3333333333333357  0.6666666666666643  0.0866245934800015  T  T  T
0.3333333333333357  0.6666666666666643  0.0000000000000000  T  T  T
0.3333333333333357  0.6666666666666643  0.1732491869600029  T  T  T

0.00000000E+00  0.00000000E+00  0.00000000E+00
0.00000000E+00  0.00000000E+00  0.00000000E+00
0.00000000E+00  0.00000000E+00  0.00000000E+00
0.00000000E+00  0.00000000E+00  0.00000000E+00
0.00000000E+00  0.00000000E+00  0.00000000E+00
