Hf2CO2
1.00000000000000
3.1722762540683065  0.0000000000000004  0.0000000000000000
-1.5861381270341535  2.7472718239399425  0.0000000000000000
0.0000000000000000  0.0000000000000000  30.1565391691379361
Hf  C  O
2  1  2
Selective  Dynamics
Direct
0.0000000000000000  0.0000000000000000  0.0348860887131478  T  T  T
0.0000000000000000  0.0000000000000000  0.1361063166227776  T  T  T
0.3333333333333357  0.6666666666666643  0.0854962026679625  T  T  T
0.3333333333333357  0.6666666666666643  0.0000000000000000  T  T  T
0.3333333333333357  0.6666666666666643  0.1709924053359252  T  T  T

0.00000000E+00  0.00000000E+00  0.00000000E+00
0.00000000E+00  0.00000000E+00  0.00000000E+00
0.00000000E+00  0.00000000E+00  0.00000000E+00
0.00000000E+00  0.00000000E+00  0.00000000E+00
0.00000000E+00  0.00000000E+00  0.00000000E+00
