Cr2N
1.00000000000000
2.6419791637799244  0.0000000000000000  0.0000000000000000
-1.3209895818899622  2.2880210721607983  0.0000000000000000
0.0000000000000000  0.0000000000000000  29.8871018037975809
Cr  N  O
2  1  2
Selective  dynamics
Direct
0.0000000000000000  0.0000000000000000  0.0379628107409669  T  T  T
0.0000000000000000  0.0000000000000000  0.1255559484843456  T  T  T
0.3333333333333357  0.6666666666666643  0.0817593796126563  T  T  T
0.3333333333333357  0.6666666666666643  0.0000000000000000  T  T  T
0.3333333333333357  0.6666666666666643  0.1635187592253125  T  T  T

0.00000000E+00  0.00000000E+00  0.00000000E+00
0.00000000E+00  0.00000000E+00  0.00000000E+00
0.00000000E+00  0.00000000E+00  0.00000000E+00
0.00000000E+00  0.00000000E+00  0.00000000E+00
0.00000000E+00  0.00000000E+00  0.00000000E+00
