Zr2C
1.00000000000000
3.2118718879489370  0.0000000000000000  0.0000000000000000
-1.6059359439744685  2.7815626487976650  0.0000000000000000
0.0000000000000000  0.0000000000000000  30.2259029836536719
Zr  C  O
2  1  2
Selective  dynamics
Direct
0.0000000000000000  0.0000000000000000  0.0350155662278259  T  T  T
0.0000000000000000  0.0000000000000000  0.1378792844729046  T  T  T
0.3333333333333357  0.6666666666666643  0.0864474253503653  T  T  T
0.3333333333333357  0.6666666666666643  0.0000000000000000  T  T  T
0.3333333333333357  0.6666666666666643  0.1728948507007340  T  T  T

0.00000000E+00  0.00000000E+00  0.00000000E+00
0.00000000E+00  0.00000000E+00  0.00000000E+00
0.00000000E+00  0.00000000E+00  0.00000000E+00
0.00000000E+00  0.00000000E+00  0.00000000E+00
0.00000000E+00  0.00000000E+00  0.00000000E+00
