Ti2CO2
1.00000000000000
2.9653382462978168  0.0000000000000000  0.0000000000000000
-1.4826691231489084  2.5680582521565603  0.0000000000000000
0.0000000000000000  0.0000000000000000  29.8962804091588126
Ti  C  O
2  1  2
Selective  Dynamics
Direct
0.0000000000000000  0.0000000000000000  0.0332558231105857  T  T  T
0.0000000000000000  0.0000000000000000  0.1305197483701669  T  T  T
0.3333333333333357  0.6666666666666643  0.0818877857403752  T  T  T
0.3333333333333357  0.6666666666666643  0.0000000000000000  T  T  T
0.3333333333333357  0.6666666666666643  0.1637755714807526  T  T  T

0.00000000E+00  0.00000000E+00  0.00000000E+00
0.00000000E+00  0.00000000E+00  0.00000000E+00
0.00000000E+00  0.00000000E+00  0.00000000E+00
0.00000000E+00  0.00000000E+00  0.00000000E+00
0.00000000E+00  0.00000000E+00  0.00000000E+00
