Hf2NO2
1.00000000000000
3.1189482976914356  -0.0000000000000003  0.0000000000000000
-1.5594741488457182  2.7010884589666313  0.0000000000000000
0.0000000000000000  0.0000000000000000  30.1593520851697612
Hf  N  O
2  1  2
Selective  Dynamics
Direct
0.0000000000000000  0.0000000000000000  0.0352153930852595  T  T  T
0.0000000000000000  0.0000000000000000  0.1358543325043308  T  T  T
0.3333333333333357  0.6666666666666643  0.0855348627947951  T  T  T
0.3333333333333357  0.6666666666666643  0.0000000000000000  T  T  T
0.3333333333333357  0.6666666666666643  0.1710697255895880  T  T  T

0.00000000E+00  0.00000000E+00  0.00000000E+00
0.00000000E+00  0.00000000E+00  0.00000000E+00
0.00000000E+00  0.00000000E+00  0.00000000E+00
0.00000000E+00  0.00000000E+00  0.00000000E+00
0.00000000E+00  0.00000000E+00  0.00000000E+00
