Mo2C
1.00000000000000
2.8701951515994173  0.0000000000000000  0.0000000000000000
-1.4350975757997086  2.4856619151507715  0.0000000000000000
0.0000000000000000  0.0000000000000000  30.2737670196149082
Mo  C  O
2  1  2
Selective  dynamics
Direct
0.0000000000000000  0.0000000000000000  0.0403940839825148  T  T  T
0.0000000000000000  0.0000000000000000  0.1338084530257781  T  T  T
0.3333333333333357  0.6666666666666643  0.0871012685041465  T  T  T
0.3333333333333357  0.6666666666666643  0.0000000000000000  T  T  T
0.3333333333333357  0.6666666666666643  0.1742025370082931  T  T  T

0.00000000E+00  0.00000000E+00  0.00000000E+00
0.00000000E+00  0.00000000E+00  0.00000000E+00
0.00000000E+00  0.00000000E+00  0.00000000E+00
0.00000000E+00  0.00000000E+00  0.00000000E+00
0.00000000E+00  0.00000000E+00  0.00000000E+00
