Ta2N
1.00000000000000
2.9581115903632695  0.0000000000000000  0.0000000000000000
-1.4790557951816348  2.5617997845565701  0.0000000000000000
0.0000000000000000  0.0000000000000000  30.2513553625982219
Ta  N  O
2  1  2
Selective  dynamics
Direct
0.0000000000000000  0.0000000000000000  0.0387855650417744  T  T  T
0.0000000000000000  0.0000000000000000  0.1348051815431150  T  T  T
0.3333333333333357  0.6666666666666643  0.0867953732924447  T  T  T
0.3333333333333357  0.6666666666666643  0.0000000000000000  T  T  T
0.3333333333333357  0.6666666666666643  0.1735907465848894  T  T  T

0.00000000E+00  0.00000000E+00  0.00000000E+00
0.00000000E+00  0.00000000E+00  0.00000000E+00
0.00000000E+00  0.00000000E+00  0.00000000E+00
0.00000000E+00  0.00000000E+00  0.00000000E+00
0.00000000E+00  0.00000000E+00  0.00000000E+00
