Nb2N
1.00000000000000
2.9779409846193774  0.0000000000000000  0.0000000000000000
-1.4889704923096887  2.5789725437360400  0.0000000000000000
0.0000000000000000  0.0000000000000000  30.2502362392980366
Nb  N  O
2  1  2
Selective  dynamics
Direct
0.0000000000000000  0.0000000000000000  0.0388901534898368  T  T  T
0.0000000000000000  0.0000000000000000  0.1346700196527969  T  T  T
0.3333333333333357  0.6666666666666643  0.0867800865713152  T  T  T
0.3333333333333357  0.6666666666666643  0.0000000000000000  T  T  T
0.3333333333333357  0.6666666666666643  0.1735601731426303  T  T  T

0.00000000E+00  0.00000000E+00  0.00000000E+00
0.00000000E+00  0.00000000E+00  0.00000000E+00
0.00000000E+00  0.00000000E+00  0.00000000E+00
0.00000000E+00  0.00000000E+00  0.00000000E+00
0.00000000E+00  0.00000000E+00  0.00000000E+00
