Mo2NO2
1.00000000000000
2.8817208941695824  0.0000000000000053  0.0000000000000000
-1.4408604470847901  2.4956435009937143  0.0000000000000000
0.0000000000000000  0.0000000000000000  30.2066265055887797
Mo  N  O
2  1  2
Selective  Dynamics
Direct
0.0000000000000000  0.0000000000000000  0.0395687369032760  T  T  T
0.0000000000000000  0.0000000000000000  0.1327982933781577  T  T  T
0.3333333333333357  0.6666666666666643  0.0861835151407158  T  T  T
0.3333333333333357  0.6666666666666643  0.0000000000000000  T  T  T
0.3333333333333357  0.6666666666666643  0.1723670302814337  T  T  T

0.00000000E+00  0.00000000E+00  0.00000000E+00
0.00000000E+00  0.00000000E+00  0.00000000E+00
0.00000000E+00  0.00000000E+00  0.00000000E+00
0.00000000E+00  0.00000000E+00  0.00000000E+00
0.00000000E+00  0.00000000E+00  0.00000000E+00
