Cr2C
1.00000000000000
2.6503603417035344  0.0000000000000001  0.0000000000000000
-1.3251801708517672  2.2952793851398976  0.0000000000000000
0.0000000000000000  0.0000000000000000  29.9330374890216859
Cr  C  O
2  1  2
Selective  dynamics
Direct
0.0000000000000000  0.0000000000000000  0.0382688884842316  T  T  T
0.0000000000000000  0.0000000000000000  0.1265335473137038  T  T  T
0.3333333333333357  0.6666666666666643  0.0824012178989677  T  T  T
0.3333333333333357  0.6666666666666643  0.0000000000000000  T  T  T
0.3333333333333357  0.6666666666666643  0.1648024357979353  T  T  T

0.00000000E+00  0.00000000E+00  0.00000000E+00
0.00000000E+00  0.00000000E+00  0.00000000E+00
0.00000000E+00  0.00000000E+00  0.00000000E+00
0.00000000E+00  0.00000000E+00  0.00000000E+00
0.00000000E+00  0.00000000E+00  0.00000000E+00
