Ti2N
1.00000000000000
2.8913123429062648  0.0000000000000000  0.0000000000000000
-1.4456561714531324  2.5039499392640847  0.0000000000000000
0.0000000000000000  0.0000000000000000  29.9134258627224732
Ti  N  O
2  1  2
Selective  dynamics
Direct
0.0000000000000000  0.0000000000000000  0.0344664579601398  T  T  T
0.0000000000000000  0.0000000000000000  0.1297884115847518  T  T  T
0.3333333333333357  0.6666666666666643  0.0821274347724475  T  T  T
0.3333333333333357  0.6666666666666643  0.0000000000000000  T  T  T
0.3333333333333357  0.6666666666666643  0.1642548695448985  T  T  T

0.00000000E+00  0.00000000E+00  0.00000000E+00
0.00000000E+00  0.00000000E+00  0.00000000E+00
0.00000000E+00  0.00000000E+00  0.00000000E+00
0.00000000E+00  0.00000000E+00  0.00000000E+00
0.00000000E+00  0.00000000E+00  0.00000000E+00
