Sc2C
1.00000000000000
3.3555022280381759  0.0000000000000000  0.0000000000000000
-1.6777511140190879  2.9059501720440157  0.0000000000000000
0.0000000000000000  0.0000000000000000  29.1871493241232116
Sc  C  O
2  1  2
Selective  dynamics
Direct
0.0000000000000000  0.0000000000000000  0.0239050799470889  T  T  T
0.0000000000000000  0.0000000000000000  0.1195535798084401  T  T  T
0.3333333333333357  0.6666666666666643  0.0717293298777645  T  T  T
0.3333333333333357  0.6666666666666643  0.0000000000000000  T  T  T
0.3333333333333357  0.6666666666666643  0.1434586597555290  T  T  T

0.00000000E+00  0.00000000E+00  0.00000000E+00
0.00000000E+00  0.00000000E+00  0.00000000E+00
0.00000000E+00  0.00000000E+00  0.00000000E+00
0.00000000E+00  0.00000000E+00  0.00000000E+00
0.00000000E+00  0.00000000E+00  0.00000000E+00
