Ta2C
1.00000000000000
3.0077905998533012  -0.0000000000000007  0.0000000000000000
-1.5038952999266506  2.6048230688128511  0.0000000000000000
0.0000000000000000  0.0000000000000000  30.2392078237291919
Ta  C  O
2  1  2
Selective  dynamics
Direct
0.0000000000000000  0.0000000000000000  0.0384388544614443  T  T  T
0.0000000000000000  0.0000000000000000  0.1348199112532449  T  T  T
0.3333333333333357  0.6666666666666643  0.0866293828573463  T  T  T
0.3333333333333357  0.6666666666666643  0.0000000000000000  T  T  T
0.3333333333333357  0.6666666666666643  0.1732587657146859  T  T  T

0.00000000E+00  0.00000000E+00  0.00000000E+00
0.00000000E+00  0.00000000E+00  0.00000000E+00
0.00000000E+00  0.00000000E+00  0.00000000E+00
0.00000000E+00  0.00000000E+00  0.00000000E+00
0.00000000E+00  0.00000000E+00  0.00000000E+00
