Ti4N3  (n=3)
1.00000000000000
2.9562990536133760  0.0000000000000001  0.0000000000000000
-1.4781495268066880  2.5602300816645385  0.0000000000000000
0.0000000000000001  0.0000000000000003  34.9028219509244977
Ti  N  F
4  3  2
Selective  dynamics
Direct
0.0000000000000000  0.0000000000000000  0.0376615344674615  T  T  T
0.6666666666666643  0.3333333333333357  0.1073785418132868  T  T  T
0.3333333333333357  0.6666666666666643  0.1800123229448477  T  T  T
0.0000000000000000  0.0000000000000000  0.2464813263257483  T  T  T
0.3333333333333357  0.6666666666666643  0.0720588591012466  T  T  T
0.0000000000000000  -0.0000000000000000  0.1428216702947777  T  T  T
0.6666666666666643  0.3333333333333357  0.2149954740010481  T  T  T
0.3333333333333357  0.6666666666666643  0.0000000000000000  T  T  T
0.3333333333333357  0.6666666666666643  0.2837255384349286  T  T  T

0.00000000E+00  0.00000000E+00  0.00000000E+00
0.00000000E+00  0.00000000E+00  0.00000000E+00
0.00000000E+00  0.00000000E+00  0.00000000E+00
0.00000000E+00  0.00000000E+00  0.00000000E+00
0.00000000E+00  0.00000000E+00  0.00000000E+00
0.00000000E+00  0.00000000E+00  0.00000000E+00
0.00000000E+00  0.00000000E+00  0.00000000E+00
0.00000000E+00  0.00000000E+00  0.00000000E+00
0.00000000E+00  0.00000000E+00  0.00000000E+00
