Nb4C3  (n=3)
1.00000000000000
3.1270990544687574  -0.0000000000000001  0.0000000000000000
-1.5635495272343787  2.7081472215738440  0.0000000000000000
0.0000000000000005  0.0000000000000003  35.6003156814413089
Nb  C  F
4  3  2
Selective  dynamics
Direct
0.0000000000000000  0.0000000000000000  0.0407014055117718  T  T  T
0.6666666666666643  0.3333333333333357  0.1126481350009897  T  T  T
0.3333333333333357  0.6666666666666643  0.1882672826311781  T  T  T
0.0000000000000000  0.0000000000000000  0.2568240092904200  T  T  T
0.3333333333333357  0.6666666666666643  0.0747174439927770  T  T  T
0.0000000000000000  0.0000000000000000  0.1496788224848002  T  T  T
0.6666666666666643  0.3333333333333357  0.2248396069038710  T  T  T
0.3333333333333357  0.6666666666666643  0.0000000000000000  T  T  T
0.3333333333333357  0.6666666666666643  0.2977590360797651  T  T  T

0.00000000E+00  0.00000000E+00  0.00000000E+00
0.00000000E+00  0.00000000E+00  0.00000000E+00
0.00000000E+00  0.00000000E+00  0.00000000E+00
0.00000000E+00  0.00000000E+00  0.00000000E+00
0.00000000E+00  0.00000000E+00  0.00000000E+00
0.00000000E+00  0.00000000E+00  0.00000000E+00
0.00000000E+00  0.00000000E+00  0.00000000E+00
0.00000000E+00  0.00000000E+00  0.00000000E+00
0.00000000E+00  0.00000000E+00  0.00000000E+00
