Hf4N3  (n=3)
1.00000000000000
3.1371446188779912  0.0000000000000000  0.0000000000000000
-1.5685723094389952  2.7168469355431961  0.0000000000000000
-0.0000000000000002  -0.0000000000000005  35.6973827578240446
Hf  N  F
4  3  2
Selective  dynamics
Direct
-0.0000000000000000  -0.0000000000000000  0.0388811370238021  T  T  T
0.6666666666666643  0.3333333333333357  0.1130710835063952  T  T  T
0.3333333333333357  0.6666666666666643  0.1895415706237686  T  T  T
-0.0000000000000000  -0.0000000000000000  0.2602956308709817  T  T  T
0.3333333333333357  0.6666666666666643  0.0762757938623330  T  T  T
-0.0000000000000000  -0.0000000000000000  0.1497320075270299  T  T  T
0.6666666666666643  0.3333333333333357  0.2263598813889272  T  T  T
0.3333333333333357  0.6666666666666643  0.0000000000000000  T  T  T
0.3333333333333357  0.6666666666666643  0.2996685451814931  T  T  T

0.00000000E+00  0.00000000E+00  0.00000000E+00
0.00000000E+00  0.00000000E+00  0.00000000E+00
0.00000000E+00  0.00000000E+00  0.00000000E+00
0.00000000E+00  0.00000000E+00  0.00000000E+00
0.00000000E+00  0.00000000E+00  0.00000000E+00
0.00000000E+00  0.00000000E+00  0.00000000E+00
0.00000000E+00  0.00000000E+00  0.00000000E+00
0.00000000E+00  0.00000000E+00  0.00000000E+00
0.00000000E+00  0.00000000E+00  0.00000000E+00
