Mo4N3  (n=3)
1.00000000000000
2.7980026510910587  0.0000000000000001  0.0000000000000000
-1.3990013255455291  2.4231413757743461  -0.0000000000000001
0.0000000000000000  -0.0000000000000001  36.9443819354231877
Mo  N  F
4  3  2
Selective  dynamics
Direct
-0.0000000000000000  -0.0000000000000000  0.0423994940356514  T  T  T
0.6666666666666643  0.3333333333333357  0.1236054040379924  T  T  T
0.3333333333333357  0.6666666666666643  0.2028648870340901  T  T  T
-0.0000000000000000  -0.0000000000000000  0.2817260784136745  T  T  T
0.3333333333333357  0.6666666666666643  0.0784950363134708  T  T  T
-0.0000000000000000  -0.0000000000000000  0.1620290667985066  T  T  T
0.6666666666666643  0.3333333333333357  0.2440071230647982  T  T  T
0.3333333333333357  0.6666666666666643  0.0000000000000000  T  T  T
0.3333333333333357  0.6666666666666643  0.3233071257302756  T  T  T

0.00000000E+00  0.00000000E+00  0.00000000E+00
0.00000000E+00  0.00000000E+00  0.00000000E+00
0.00000000E+00  0.00000000E+00  0.00000000E+00
0.00000000E+00  0.00000000E+00  0.00000000E+00
0.00000000E+00  0.00000000E+00  0.00000000E+00
0.00000000E+00  0.00000000E+00  0.00000000E+00
0.00000000E+00  0.00000000E+00  0.00000000E+00
0.00000000E+00  0.00000000E+00  0.00000000E+00
0.00000000E+00  0.00000000E+00  0.00000000E+00
