Cr4C3  (n=3)
1.00000000000000
2.8540410173085333  0.0000000000000001  0.0000000000000000
-1.4270205086542669  2.4716720244265833  0.0000000000000001
0.0000000000000008  0.0000000000000012  34.6917457437877843
Cr  C  F
4  3  2
Selective  dynamics
Direct
0.0000000000000000  0.0000000000000000  0.0388464360513320  T  T  T
0.6666666666666643  0.3333333333333357  0.1065039434468801  T  T  T
0.3333333333333357  0.6666666666666643  0.1754081135297216  T  T  T
0.0000000000000000  0.0000000000000000  0.2418795826697060  T  T  T
0.3333333333333357  0.6666666666666643  0.0705868285888686  T  T  T
0.0000000000000000  0.0000000000000000  0.1407528154515369  T  T  T
0.6666666666666643  0.3333333333333357  0.2111911573881597  T  T  T
0.3333333333333357  0.6666666666666643  0.0000000000000000  T  T  T
0.3333333333333357  0.6666666666666643  0.2793674845701092  T  T  T

0.00000000E+00  0.00000000E+00  0.00000000E+00
0.00000000E+00  0.00000000E+00  0.00000000E+00
0.00000000E+00  0.00000000E+00  0.00000000E+00
0.00000000E+00  0.00000000E+00  0.00000000E+00
0.00000000E+00  0.00000000E+00  0.00000000E+00
0.00000000E+00  0.00000000E+00  0.00000000E+00
0.00000000E+00  0.00000000E+00  0.00000000E+00
0.00000000E+00  0.00000000E+00  0.00000000E+00
0.00000000E+00  0.00000000E+00  0.00000000E+00
