Sc4N3  (n=3)
1.00000000000000
3.1443267323908035  0.0000000000000001  0.0000000000000000
-1.5721633661954018  2.7230668281951651  -0.0000000000000001
-0.0000000000000001  -0.0000000000000009  35.2553246373664422
Sc  N  F
4  3  2
Selective  dynamics
Direct
0.0000000000000000  0.0000000000000000  0.0369806814798349  T  T  T
0.6666666666666643  0.3333333333333357  0.1105964472376968  T  T  T
0.3333333333333357  0.6666666666666643  0.1830905621288506  T  T  T
-0.0000000000000000  -0.0000000000000000  0.2564484891500849  T  T  T
0.3333333333333357  0.6666666666666643  0.0721603967932152  T  T  T
-0.0000000000000000  -0.0000000000000000  0.1479295418223665  T  T  T
0.6666666666666643  0.3333333333333357  0.2242549867770427  T  T  T
0.3333333333333357  0.6666666666666643  0.0000000000000000  T  T  T
0.3333333333333357  0.6666666666666643  0.2908872558358752  T  T  T

0.00000000E+00  0.00000000E+00  0.00000000E+00
0.00000000E+00  0.00000000E+00  0.00000000E+00
0.00000000E+00  0.00000000E+00  0.00000000E+00
0.00000000E+00  0.00000000E+00  0.00000000E+00
0.00000000E+00  0.00000000E+00  0.00000000E+00
0.00000000E+00  0.00000000E+00  0.00000000E+00
0.00000000E+00  0.00000000E+00  0.00000000E+00
0.00000000E+00  0.00000000E+00  0.00000000E+00
0.00000000E+00  0.00000000E+00  0.00000000E+00
