Mo4C3  (n=3)
1.00000000000000
3.0772328431508900  0.0000000000000001  -0.0000000000000001
-1.5386164215754448  2.6649618156854120  0.0000000000000000
-0.0000000000000007  -0.0000000000000003  35.2889436742034235
Mo  C  F
4  3  2
Selective  dynamics
Direct
0.0000000000000000  0.0000000000000000  0.0428206420522111  T  T  T
0.6666666666666643  0.3333333333333357  0.1098823028348843  T  T  T
0.3333333333333357  0.6666666666666643  0.1848619357947690  T  T  T
0.0000000000000000  0.0000000000000000  0.2487859569677904  T  T  T
0.3333333333333357  0.6666666666666643  0.0724121938336581  T  T  T
0.0000000000000000  0.0000000000000000  0.1473356944049225  T  T  T
0.6666666666666643  0.3333333333333357  0.2215084643210327  T  T  T
0.3333333333333357  0.6666666666666643  0.0000000000000000  T  T  T
0.3333333333333357  0.6666666666666643  0.2915628126813199  T  T  T

0.00000000E+00  0.00000000E+00  0.00000000E+00
0.00000000E+00  0.00000000E+00  0.00000000E+00
0.00000000E+00  0.00000000E+00  0.00000000E+00
0.00000000E+00  0.00000000E+00  0.00000000E+00
0.00000000E+00  0.00000000E+00  0.00000000E+00
0.00000000E+00  0.00000000E+00  0.00000000E+00
0.00000000E+00  0.00000000E+00  0.00000000E+00
0.00000000E+00  0.00000000E+00  0.00000000E+00
0.00000000E+00  0.00000000E+00  0.00000000E+00
