Ti4C3  (n=3)
1.00000000000000
3.0305622269524046  -0.0000000000000001  0.0000000000000000
-1.5152811134762023  2.6245438763471078  0.0000000000000001
0.0000000000000003  0.0000000000000014  34.9401198578659731
Ti  C  F
4  3  2
Selective  dynamics
Direct
0.0000000000000000  0.0000000000000000  0.0382462352683008  T  T  T
0.6666666666666643  0.3333333333333357  0.1088856640749819  T  T  T
0.3333333333333357  0.6666666666666643  0.1784570641547394  T  T  T
0.0000000000000000  0.0000000000000000  0.2479999078815639  T  T  T
0.3333333333333357  0.6666666666666643  0.0712775421555526  T  T  T
0.0000000000000000  0.0000000000000000  0.1439263664389173  T  T  T
0.6666666666666643  0.3333333333333357  0.2170668087380433  T  T  T
0.3333333333333357  0.6666666666666643  0.0000000000000000  T  T  T
0.3333333333333357  0.6666666666666643  0.2844901476669714  T  T  T

0.00000000E+00  0.00000000E+00  0.00000000E+00
0.00000000E+00  0.00000000E+00  0.00000000E+00
0.00000000E+00  0.00000000E+00  0.00000000E+00
0.00000000E+00  0.00000000E+00  0.00000000E+00
0.00000000E+00  0.00000000E+00  0.00000000E+00
0.00000000E+00  0.00000000E+00  0.00000000E+00
0.00000000E+00  0.00000000E+00  0.00000000E+00
0.00000000E+00  0.00000000E+00  0.00000000E+00
0.00000000E+00  0.00000000E+00  0.00000000E+00
