Zr4C3  (n=3)
1.00000000000000
3.2988484441395975  0.0000000000000000  0.0000000000000000
-1.6494242220697988  2.8568865561267178  0.0000000000000001
0.0000000000000004  -0.0000000000000006  35.7439151165574245
Zr  C  F
4  3  2
Selective  dynamics
Direct
0.0000000000000000  0.0000000000000000  0.0395959818782752  T  T  T
0.6666666666666643  0.3333333333333357  0.1147043654197825  T  T  T
0.3333333333333357  0.6666666666666643  0.1887788824140340  T  T  T
0.0000000000000000  0.0000000000000000  0.2627714926305499  T  T  T
0.3333333333333357  0.6666666666666643  0.0741479827598033  T  T  T
0.0000000000000000  0.0000000000000000  0.1520511415867883  T  T  T
0.6666666666666643  0.3333333333333357  0.2306901514123774  T  T  T
0.3333333333333357  0.6666666666666643  0.0000000000000000  T  T  T
0.3333333333333357  0.6666666666666643  0.3005802548915686  T  T  T

0.00000000E+00  0.00000000E+00  0.00000000E+00
0.00000000E+00  0.00000000E+00  0.00000000E+00
0.00000000E+00  0.00000000E+00  0.00000000E+00
0.00000000E+00  0.00000000E+00  0.00000000E+00
0.00000000E+00  0.00000000E+00  0.00000000E+00
0.00000000E+00  0.00000000E+00  0.00000000E+00
0.00000000E+00  0.00000000E+00  0.00000000E+00
0.00000000E+00  0.00000000E+00  0.00000000E+00
0.00000000E+00  0.00000000E+00  0.00000000E+00
