Sc4C3  (n=3)
1.00000000000000
3.2174846124968135  0.0000000000000001  0.0000000000000000
-1.6087423062484068  2.7864234109161274  -0.0000000000000001
0.0000000000000000  0.0000000000000001  35.6896197582361125
Sc  C  F
4  3  2
Selective  dynamics
Direct
0.0000000000000000  0.0000000000000000  0.0359179789182105  T  T  T
0.6666666666666643  0.3333333333333357  0.1116930622502959  T  T  T
0.3333333333333357  0.6666666666666643  0.1916513117527404  T  T  T
0.0000000000000000  0.0000000000000000  0.2668236795932192  T  T  T
0.3333333333333357  0.6666666666666643  0.0734889011722512  T  T  T
0.0000000000000000  0.0000000000000000  0.1516183223339344  T  T  T
0.6666666666666643  0.3333333333333357  0.2307638051667753  T  T  T
0.3333333333333357  0.6666666666666643  0.0000000000000000  T  T  T
0.3333333333333357  0.6666666666666643  0.2995162131355928  T  T  T

0.00000000E+00  0.00000000E+00  0.00000000E+00
0.00000000E+00  0.00000000E+00  0.00000000E+00
0.00000000E+00  0.00000000E+00  0.00000000E+00
0.00000000E+00  0.00000000E+00  0.00000000E+00
0.00000000E+00  0.00000000E+00  0.00000000E+00
0.00000000E+00  0.00000000E+00  0.00000000E+00
0.00000000E+00  0.00000000E+00  0.00000000E+00
0.00000000E+00  0.00000000E+00  0.00000000E+00
0.00000000E+00  0.00000000E+00  0.00000000E+00
