Ta4C3  (n=3)
1.00000000000000
3.1094160740738261  0.0000000000000000  0.0000000000000000
-1.5547080370369131  2.6928333113115452  0.0000000000000000
0.0000000000000001  -0.0000000000000008  35.5894162554803870
Ta  C  F
4  3  2
Selective  dynamics
Direct
-0.0000000000000000  -0.0000000000000000  0.0412366056188437  T  T  T
0.6666666666666643  0.3333333333333357  0.1133911708649817  T  T  T
0.3333333333333357  0.6666666666666643  0.1878160858735443  T  T  T
-0.0000000000000000  -0.0000000000000000  0.2558270669762213  T  T  T
0.3333333333333357  0.6666666666666643  0.0750941821164236  T  T  T
-0.0000000000000000  -0.0000000000000000  0.1496307825865880  T  T  T
0.6666666666666643  0.3333333333333357  0.2245495233120500  T  T  T
0.3333333333333357  0.6666666666666643  0.0000000000000000  T  T  T
0.3333333333333357  0.6666666666666643  0.2975439714847735  T  T  T

0.00000000E+00  0.00000000E+00  0.00000000E+00
0.00000000E+00  0.00000000E+00  0.00000000E+00
0.00000000E+00  0.00000000E+00  0.00000000E+00
0.00000000E+00  0.00000000E+00  0.00000000E+00
0.00000000E+00  0.00000000E+00  0.00000000E+00
0.00000000E+00  0.00000000E+00  0.00000000E+00
0.00000000E+00  0.00000000E+00  0.00000000E+00
0.00000000E+00  0.00000000E+00  0.00000000E+00
0.00000000E+00  0.00000000E+00  0.00000000E+00
