Ta4N3  (n=3)
1.00000000000000
2.9249094762981480  -0.0000000000000003  0.0000000000000000
-1.4624547381490733  2.5330459103474285  0.0000000000000000
-0.0000000000000001  0.0000000000000007  36.5448185554707834
Ta  N  F
4  3  2
Selective  dynamics
Direct
-0.0000000000000000  0.0000000000000000  0.0402802986424669  T  T  T
0.6666666666666643  0.3333333333333357  0.1183488503834163  T  T  T
0.3333333333333357  0.6666666666666643  0.1960177015224779  T  T  T
-0.0000000000000000  -0.0000000000000000  0.2741160034270926  T  T  T
0.3333333333333357  0.6666666666666643  0.0760245472390043  T  T  T
-0.0000000000000000  -0.0000000000000000  0.1573354639843146  T  T  T
0.6666666666666643  0.3333333333333357  0.2356459372889750  T  T  T
0.3333333333333357  0.6666666666666643  0.0000000000000000  T  T  T
0.3333333333333357  0.6666666666666643  0.3159084929631568  T  T  T

0.00000000E+00  0.00000000E+00  0.00000000E+00
0.00000000E+00  0.00000000E+00  0.00000000E+00
0.00000000E+00  0.00000000E+00  0.00000000E+00
0.00000000E+00  0.00000000E+00  0.00000000E+00
0.00000000E+00  0.00000000E+00  0.00000000E+00
0.00000000E+00  0.00000000E+00  0.00000000E+00
0.00000000E+00  0.00000000E+00  0.00000000E+00
0.00000000E+00  0.00000000E+00  0.00000000E+00
0.00000000E+00  0.00000000E+00  0.00000000E+00
