Nb4N3  (n=3)
1.00000000000000
3.0086645498776701  -0.0000000000000006  0.0000000000000000
-1.5043322749388357  2.6055799314898698  0.0000000000000000
-0.0000000000000006  -0.0000000000000002  36.0716370289103168
Nb  N  F
4  3  2
Selective  dynamics
Direct
-0.0000000000000000  -0.0000000000000000  0.0400849477204598  T  T  T
0.6666666666666643  0.3333333333333357  0.1170578262304013  T  T  T
0.3333333333333357  0.6666666666666643  0.1918065266732093  T  T  T
-0.0000000000000000  -0.0000000000000000  0.2656345879648347  T  T  T
0.3333333333333357  0.6666666666666643  0.0755798316715478  T  T  T
-0.0000000000000000  -0.0000000000000000  0.1546828870053525  T  T  T
0.6666666666666643  0.3333333333333357  0.2298749432569047  T  T  T
0.3333333333333357  0.6666666666666643  0.0000000000000000  T  T  T
0.3333333333333357  0.6666666666666643  0.3069346983070588  T  T  T

0.00000000E+00  0.00000000E+00  0.00000000E+00
0.00000000E+00  0.00000000E+00  0.00000000E+00
0.00000000E+00  0.00000000E+00  0.00000000E+00
0.00000000E+00  0.00000000E+00  0.00000000E+00
0.00000000E+00  0.00000000E+00  0.00000000E+00
0.00000000E+00  0.00000000E+00  0.00000000E+00
0.00000000E+00  0.00000000E+00  0.00000000E+00
0.00000000E+00  0.00000000E+00  0.00000000E+00
0.00000000E+00  0.00000000E+00  0.00000000E+00
