Cr4N3  (n=3)
1.00000000000000
2.8530782163654105  0.0000000000000001  0.0000000000000000
-1.4265391081827050  2.4708382143629475  0.0000000000000000
-0.0000000000000001  0.0000000000000003  34.8265386185678665
Cr  N  F
4  3  2
Selective  dynamics
Direct
0.0000000000000000  0.0000000000000000  0.0388676026662305  T  T  T
0.6666666666666643  0.3333333333333357  0.1081183706656096  T  T  T
0.3333333333333357  0.6666666666666643  0.1768940364918554  T  T  T
-0.0000000000000000  -0.0000000000000000  0.2459219141382827  T  T  T
0.3333333333333357  0.6666666666666643  0.0708655166395011  T  T  T
0.0000000000000000  0.0000000000000000  0.1425324006420822  T  T  T
0.6666666666666643  0.3333333333333357  0.2152784378451249  T  T  T
0.3333333333333357  0.6666666666666643  0.0000000000000000  T  T  T
0.3333333333333357  0.6666666666666643  0.2821566256179368  T  T  T

0.00000000E+00  0.00000000E+00  0.00000000E+00
0.00000000E+00  0.00000000E+00  0.00000000E+00
0.00000000E+00  0.00000000E+00  0.00000000E+00
0.00000000E+00  0.00000000E+00  0.00000000E+00
0.00000000E+00  0.00000000E+00  0.00000000E+00
0.00000000E+00  0.00000000E+00  0.00000000E+00
0.00000000E+00  0.00000000E+00  0.00000000E+00
0.00000000E+00  0.00000000E+00  0.00000000E+00
0.00000000E+00  0.00000000E+00  0.00000000E+00
