Hf4C3  (n=3)
1.00000000000000
3.2488273933278102  0.0000000000000000  0.0000000000000000
-1.6244136966639051  2.8135670554230749  -0.0000000000000001
0.0000000000000008  0.0000000000000022  35.5905160624887813
Hf  C  F
4  3  2
Selective  dynamics
Direct
0.0000000000000000  0.0000000000000000  0.0398625646102078  T  T  T
0.6666666666666643  0.3333333333333357  0.1139196987920968  T  T  T
0.3333333333333357  0.6666666666666643  0.1868923665110172  T  T  T
0.0000000000000000  0.0000000000000000  0.2597138770383192  T  T  T
0.3333333333333357  0.6666666666666643  0.0739403700833339  T  T  T
0.0000000000000000  0.0000000000000000  0.1508093228868792  T  T  T
0.6666666666666643  0.3333333333333357  0.2284490770800451  T  T  T
0.3333333333333357  0.6666666666666643  0.0000000000000000  T  T  T
0.3333333333333357  0.6666666666666643  0.2975656785615096  T  T  T

0.00000000E+00  0.00000000E+00  0.00000000E+00
0.00000000E+00  0.00000000E+00  0.00000000E+00
0.00000000E+00  0.00000000E+00  0.00000000E+00
0.00000000E+00  0.00000000E+00  0.00000000E+00
0.00000000E+00  0.00000000E+00  0.00000000E+00
0.00000000E+00  0.00000000E+00  0.00000000E+00
0.00000000E+00  0.00000000E+00  0.00000000E+00
0.00000000E+00  0.00000000E+00  0.00000000E+00
0.00000000E+00  0.00000000E+00  0.00000000E+00
