Zr4N3  (n=3)
1.00000000000000
3.2039179616740765  0.0000000000000002  0.0000000000000000
-1.6019589808370382  2.7746743467041850  0.0000000000000000
-0.0000000000000002  -0.0000000000000005  35.7569438925794216
Zr  N  F
4  3  2
Selective  dynamics
Direct
0.0000000000000000  0.0000000000000000  0.0388182494175588  T  T  T
0.6666666666666643  0.3333333333333357  0.1133569226320440  T  T  T
0.3333333333333357  0.6666666666666643  0.1905253703757228  T  T  T
0.0000000000000000  0.0000000000000000  0.2616807050282314  T  T  T
0.3333333333333357  0.6666666666666643  0.0758354431400011  T  T  T
0.0000000000000000  0.0000000000000000  0.1503185669036895  T  T  T
0.6666666666666643  0.3333333333333357  0.2280111921291632  T  T  T
0.3333333333333357  0.6666666666666643  0.0000000000000000  T  T  T
0.3333333333333357  0.6666666666666643  0.3008351028235328  T  T  T

0.00000000E+00  0.00000000E+00  0.00000000E+00
0.00000000E+00  0.00000000E+00  0.00000000E+00
0.00000000E+00  0.00000000E+00  0.00000000E+00
0.00000000E+00  0.00000000E+00  0.00000000E+00
0.00000000E+00  0.00000000E+00  0.00000000E+00
0.00000000E+00  0.00000000E+00  0.00000000E+00
0.00000000E+00  0.00000000E+00  0.00000000E+00
0.00000000E+00  0.00000000E+00  0.00000000E+00
0.00000000E+00  0.00000000E+00  0.00000000E+00
