Hf3N2  (n=2)
1.00000000000000
3.1386960838330324  0.0000000000000000  0.0000000000000000
-1.5693480419165162  2.7181905434716067  0.0000000000000000
0.0000000000000000  0.0000000000000000  32.3303195531313037
Hf  N  H
3  2  2
Selective  dynamics
Direct
-0.0000000000000000  -0.0000000000000000  0.0312568401396322  T  T  T
0.6666666666666643  0.3333333333333357  0.1133660238199120  T  T  T
0.3333333333333357  0.6666666666666643  0.1954752075002000  T  T  T
0.3333333333333357  0.6666666666666643  0.0729151729800642  T  T  T
-0.0000000000000000  0.0000000000000000  0.1538168746597517  T  T  T
0.6666666666666643  0.3333333333333357  0.0000000000000000  T  T  T
0.6666666666666643  0.3333333333333357  0.2267320476398241  T  T  T

0.00000000E+00  0.00000000E+00  0.00000000E+00
0.00000000E+00  0.00000000E+00  0.00000000E+00
0.00000000E+00  0.00000000E+00  0.00000000E+00
0.00000000E+00  0.00000000E+00  0.00000000E+00
0.00000000E+00  0.00000000E+00  0.00000000E+00
0.00000000E+00  0.00000000E+00  0.00000000E+00
0.00000000E+00  0.00000000E+00  0.00000000E+00
