Sc3N2  (n=2)
1.00000000000000
3.1897625625739128  0.0000000000000001  0.0000000000000000
-1.5948812812869564  2.7624154113355721  0.0000000000000000
-0.0000000000000003  0.0000000000000005  32.1265631384034904
Sc  N  H
3  2  2
Selective  dynamics
Direct
0.0000000000000000  0.0000000000000000  0.0326649841791758  T  T  T
0.6666666666666643  0.3333333333333357  0.1109138737888214  T  T  T
0.3333333333333357  0.6666666666666643  0.1891627633984752  T  T  T
0.3333333333333357  0.6666666666666643  0.0689360676288397  T  T  T
0.0000000000000000  -0.0000000000000000  0.1528916799488113  T  T  T
0.6666666666666643  0.3333333333333357  0.0000000000000000  T  T  T
0.6666666666666643  0.3333333333333357  0.2218277475776589  T  T  T

0.00000000E+00  0.00000000E+00  0.00000000E+00
0.00000000E+00  0.00000000E+00  0.00000000E+00
0.00000000E+00  0.00000000E+00  0.00000000E+00
0.00000000E+00  0.00000000E+00  0.00000000E+00
0.00000000E+00  0.00000000E+00  0.00000000E+00
0.00000000E+00  0.00000000E+00  0.00000000E+00
0.00000000E+00  0.00000000E+00  0.00000000E+00
