Nb3C2  (n=2)
1.00000000000000
3.1127150671092401  0.0000000000000000  0.0000000000000000
-1.5563575335546200  2.6956903229484372  -0.0000000000000001
0.0000000000000001  0.0000000000000003  32.1798970768360348
Nb  C  H
3  2  2
Selective  dynamics
Direct
-0.0000000000000000  0.0000000000000000  0.0311076445008071  T  T  T
0.6666666666666643  0.3333333333333357  0.1115587327655612  T  T  T
0.3333333333333357  0.6666666666666643  0.1920098210303154  T  T  T
0.3333333333333357  0.6666666666666643  0.0703337043377617  T  T  T
-0.0000000000000000  0.0000000000000000  0.1527837611933524  T  T  T
0.6666666666666643  0.3333333333333357  0.0000000000000000  T  T  T
0.6666666666666643  0.3333333333333357  0.2231174655311225  T  T  T

0.00000000E+00  0.00000000E+00  0.00000000E+00
0.00000000E+00  0.00000000E+00  0.00000000E+00
0.00000000E+00  0.00000000E+00  0.00000000E+00
0.00000000E+00  0.00000000E+00  0.00000000E+00
0.00000000E+00  0.00000000E+00  0.00000000E+00
0.00000000E+00  0.00000000E+00  0.00000000E+00
0.00000000E+00  0.00000000E+00  0.00000000E+00
