Ta3N2  (n=2)
1.00000000000000
2.9517528562823938  0.0000000000000000  0.0000000000000000
-1.4758764281411969  2.5562929592809525  0.0000000000000000
0.0000000000000000  0.0000000000000003  32.7441487189073897
Ta  N  H
3  2  2
Selective  dynamics
Direct
0.0000000000000000  0.0000000000000000  0.0328748388461404  T  T  T
0.6666666666666643  0.3333333333333357  0.1182524057257855  T  T  T
0.3333333333333357  0.6666666666666643  0.2036299726054306  T  T  T
0.3333333333333357  0.6666666666666643  0.0743022238221584  T  T  T
-0.0000000000000000  -0.0000000000000000  0.1622025876294044  T  T  T
0.6666666666666643  0.3333333333333357  0.0000000000000000  T  T  T
0.6666666666666643  0.3333333333333357  0.2365048114515710  T  T  T

0.00000000E+00  0.00000000E+00  0.00000000E+00
0.00000000E+00  0.00000000E+00  0.00000000E+00
0.00000000E+00  0.00000000E+00  0.00000000E+00
0.00000000E+00  0.00000000E+00  0.00000000E+00
0.00000000E+00  0.00000000E+00  0.00000000E+00
0.00000000E+00  0.00000000E+00  0.00000000E+00
0.00000000E+00  0.00000000E+00  0.00000000E+00
