Ti3C2  (n=2)
1.00000000000000
3.0663921513291950  0.0000000000000001  0.0000000000000000
-1.5331960756645975  2.6555735010637926  0.0000000000000000
0.0000000000000001  0.0000000000000008  31.7230499363916465
Ti  C  H
3  2  2
Selective  dynamics
Direct
0.0000000000000000  -0.0000000000000000  0.0314357371997016  T  T  T
0.6666666666666643  0.3333333333333357  0.1059647472401320  T  T  T
0.3333333333333357  0.6666666666666643  0.1804937572805704  T  T  T
0.3333333333333357  0.6666666666666643  0.0654455081267967  T  T  T
-0.0000000000000000  -0.0000000000000000  0.1464839863534587  T  T  T
0.6666666666666643  0.3333333333333357  0.0000000000000000  T  T  T
0.6666666666666643  0.3333333333333357  0.2119294944802638  T  T  T

0.00000000E+00  0.00000000E+00  0.00000000E+00
0.00000000E+00  0.00000000E+00  0.00000000E+00
0.00000000E+00  0.00000000E+00  0.00000000E+00
0.00000000E+00  0.00000000E+00  0.00000000E+00
0.00000000E+00  0.00000000E+00  0.00000000E+00
0.00000000E+00  0.00000000E+00  0.00000000E+00
0.00000000E+00  0.00000000E+00  0.00000000E+00
