Nb3N2  (n=2)
1.00000000000000
3.0923092301726642  0.0000000000000000  0.0000000000000000
-1.5461546150863321  2.6780183497726444  0.0000000000000000
0.0000000000000001  0.0000000000000002  32.1862318175810387
Nb  N  H
3  2  2
Selective  dynamics
Direct
0.0000000000000000  0.0000000000000000  0.0329941100592308  T  T  T
0.6666666666666643  0.3333333333333357  0.1116351839244462  T  T  T
0.3333333333333357  0.6666666666666643  0.1902762577896615  T  T  T
0.3333333333333357  0.6666666666666643  0.0710546422063024  T  T  T
0.0000000000000000  0.0000000000000000  0.1522157256425819  T  T  T
0.6666666666666643  0.3333333333333357  0.0000000000000000  T  T  T
0.6666666666666643  0.3333333333333357  0.2232703678488923  T  T  T

0.00000000E+00  0.00000000E+00  0.00000000E+00
0.00000000E+00  0.00000000E+00  0.00000000E+00
0.00000000E+00  0.00000000E+00  0.00000000E+00
0.00000000E+00  0.00000000E+00  0.00000000E+00
0.00000000E+00  0.00000000E+00  0.00000000E+00
0.00000000E+00  0.00000000E+00  0.00000000E+00
0.00000000E+00  0.00000000E+00  0.00000000E+00
