Ti3N2  (n=2)
1.00000000000000
2.9448471351023993  0.0000000000000000  0.0000000000000000
-1.4724235675511996  2.5503124292879704  0.0000000000000000
0.0000000000000000  -0.0000000000000007  31.8881417533271723
Ti  N  H
3  2  2
Selective  dynamics
Direct
-0.0000000000000000  -0.0000000000000000  0.0310065660439058  T  T  T
0.6666666666666643  0.3333333333333357  0.1080047530930241  T  T  T
0.3333333333333357  0.6666666666666643  0.1850029401421507  T  T  T
0.3333333333333357  0.6666666666666643  0.0689327494480343  T  T  T
0.0000000000000000  0.0000000000000000  0.1470767567380223  T  T  T
0.6666666666666643  0.3333333333333357  0.0000000000000000  T  T  T
0.6666666666666643  0.3333333333333357  0.2160095061860565  T  T  T

0.00000000E+00  0.00000000E+00  0.00000000E+00
0.00000000E+00  0.00000000E+00  0.00000000E+00
0.00000000E+00  0.00000000E+00  0.00000000E+00
0.00000000E+00  0.00000000E+00  0.00000000E+00
0.00000000E+00  0.00000000E+00  0.00000000E+00
0.00000000E+00  0.00000000E+00  0.00000000E+00
0.00000000E+00  0.00000000E+00  0.00000000E+00
