Mo3C2  (n=2)
1.00000000000000
3.0511976481672058  -0.0000000000000001  0.0000000000000000
-1.5255988240836031  2.6424146753417688  0.0000000000000000
0.0000000000000000  0.0000000000000003  32.0292536215697012
Mo  C  H
3  2  2
Selective  dynamics
Direct
0.0000000000000000  0.0000000000000000  0.0336403127435230  T  T  T
0.6666666666666643  0.3333333333333357  0.1097317737188139  T  T  T
0.3333333333333357  0.6666666666666643  0.1858232346941130  T  T  T
0.3333333333333357  0.6666666666666643  0.0686892318499683  T  T  T
-0.0000000000000000  -0.0000000000000000  0.1507743155876677  T  T  T
0.6666666666666643  0.3333333333333357  0.0000000000000000  T  T  T
0.6666666666666643  0.3333333333333357  0.2194635474376442  T  T  T

0.00000000E+00  0.00000000E+00  0.00000000E+00
0.00000000E+00  0.00000000E+00  0.00000000E+00
0.00000000E+00  0.00000000E+00  0.00000000E+00
0.00000000E+00  0.00000000E+00  0.00000000E+00
0.00000000E+00  0.00000000E+00  0.00000000E+00
0.00000000E+00  0.00000000E+00  0.00000000E+00
0.00000000E+00  0.00000000E+00  0.00000000E+00
