Zr3C2  (n=2)
1.00000000000000
3.3419336352770901  -0.0000000000000001  0.0000000000000000
-1.6709668176385448  2.8941994260793811  0.0000000000000000
0.0000000000000001  -0.0000000000000009  32.2501407396377928
Zr  C  H
3  2  2
Selective  dynamics
Direct
-0.0000000000000000  -0.0000000000000000  0.0323441099700600  T  T  T
0.6666666666666643  0.3333333333333357  0.1124047922483457  T  T  T
0.3333333333333357  0.6666666666666643  0.1924654745266313  T  T  T
0.3333333333333357  0.6666666666666643  0.0687975431679324  T  T  T
-0.0000000000000000  -0.0000000000000000  0.1560120413287510  T  T  T
0.6666666666666643  0.3333333333333357  0.0000000000000000  T  T  T
0.6666666666666643  0.3333333333333357  0.2248095844966914  T  T  T

0.00000000E+00  0.00000000E+00  0.00000000E+00
0.00000000E+00  0.00000000E+00  0.00000000E+00
0.00000000E+00  0.00000000E+00  0.00000000E+00
0.00000000E+00  0.00000000E+00  0.00000000E+00
0.00000000E+00  0.00000000E+00  0.00000000E+00
0.00000000E+00  0.00000000E+00  0.00000000E+00
0.00000000E+00  0.00000000E+00  0.00000000E+00
