Cr3N2  (n=2)
1.00000000000000
2.8855354754967455  0.0000000000000000  0.0000000000000000
-1.4427677377483727  2.4989470253084791  0.0000000000000000
0.0000000000000001  -0.0000000000000003  31.6051775838109492
Cr  N  H
3  2  2
Selective  dynamics
Direct
-0.0000000000000000  -0.0000000000000000  0.0305042445631580  T  T  T
0.6666666666666643  0.3333333333333357  0.1044951822576382  T  T  T
0.3333333333333357  0.6666666666666643  0.1784861199521266  T  T  T
0.3333333333333357  0.6666666666666643  0.0648952459218272  T  T  T
0.0000000000000000  0.0000000000000000  0.1440951185934492  T  T  T
0.6666666666666643  0.3333333333333357  0.0000000000000000  T  T  T
0.6666666666666643  0.3333333333333357  0.2089903645152845  T  T  T

0.00000000E+00  0.00000000E+00  0.00000000E+00
0.00000000E+00  0.00000000E+00  0.00000000E+00
0.00000000E+00  0.00000000E+00  0.00000000E+00
0.00000000E+00  0.00000000E+00  0.00000000E+00
0.00000000E+00  0.00000000E+00  0.00000000E+00
0.00000000E+00  0.00000000E+00  0.00000000E+00
0.00000000E+00  0.00000000E+00  0.00000000E+00
