Mo3N2  (n=2)
1.00000000000000
2.8002434227967461  0.0000000000000000  -0.0000000000000001
-1.4001217113983730  2.4250819409737248  0.0000000000000000
0.0000000000000013  0.0000000000000002  33.1636458840604718
Mo  N  H
3  2  2
Selective  dynamics
Direct
0.0000000000000000  0.0000000000000000  0.0346276966759485  T  T  T
0.6666666666666643  0.3333333333333357  0.1230775525090025  T  T  T
0.3333333333333357  0.6666666666666643  0.2115348004330978  T  T  T
0.3333333333333357  0.6666666666666643  0.0773033555709901  T  T  T
0.0000000000000000  0.0000000000000000  0.1688544328175819  T  T  T
0.6666666666666643  0.3333333333333357  0.0000000000000000  T  T  T
0.6666666666666643  0.3333333333333357  0.2461624971090463  T  T  T

0.00000000E+00  0.00000000E+00  0.00000000E+00
0.00000000E+00  0.00000000E+00  0.00000000E+00
0.00000000E+00  0.00000000E+00  0.00000000E+00
0.00000000E+00  0.00000000E+00  0.00000000E+00
0.00000000E+00  0.00000000E+00  0.00000000E+00
0.00000000E+00  0.00000000E+00  0.00000000E+00
0.00000000E+00  0.00000000E+00  0.00000000E+00
