Ta3C2  (n=2)
1.00000000000000
3.0913725277770845  0.0000000000000000  0.0000000000000000
-1.5456862638885422  2.6772071417028469  0.0000000000000000
-0.0000000000000001  0.0000000000000001  32.1321718943800789
Ta  C  H
3  2  2
Selective  dynamics
Direct
0.0000000000000000  0.0000000000000000  0.0307371906798496  T  T  T
0.6666666666666643  0.3333333333333357  0.1109817898059239  T  T  T
0.3333333333333357  0.6666666666666643  0.1912263889320064  T  T  T
0.3333333333333357  0.6666666666666643  0.0700534023209499  T  T  T
0.0000000000000000  0.0000000000000000  0.1519101772908979  T  T  T
0.6666666666666643  0.3333333333333357  0.0000000000000000  T  T  T
0.6666666666666643  0.3333333333333357  0.2219635796118560  T  T  T

0.00000000E+00  0.00000000E+00  0.00000000E+00
0.00000000E+00  0.00000000E+00  0.00000000E+00
0.00000000E+00  0.00000000E+00  0.00000000E+00
0.00000000E+00  0.00000000E+00  0.00000000E+00
0.00000000E+00  0.00000000E+00  0.00000000E+00
0.00000000E+00  0.00000000E+00  0.00000000E+00
0.00000000E+00  0.00000000E+00  0.00000000E+00
