Sc3C2  (n=2)
1.00000000000000
3.2656749275364150  0.0000000000000000  0.0000000000000000
-1.6328374637682075  2.8281574479069893  0.0000000000000000
-0.0000000000000001  0.0000000000000007  32.4179775229315865
Sc  C  H
3  2  2
Selective  dynamics
Direct
-0.0000000000000000  -0.0000000000000000  0.0317822407558226  T  T  T
0.6666666666666643  0.3333333333333357  0.1144114792121795  T  T  T
0.3333333333333357  0.6666666666666643  0.1970407176685366  T  T  T
0.3333333333333357  0.6666666666666643  0.0707347429144447  T  T  T
0.0000000000000000  -0.0000000000000000  0.1580882155099061  T  T  T
0.6666666666666643  0.3333333333333357  0.0000000000000000  T  T  T
0.6666666666666643  0.3333333333333357  0.2288229584243592  T  T  T

0.00000000E+00  0.00000000E+00  0.00000000E+00
0.00000000E+00  0.00000000E+00  0.00000000E+00
0.00000000E+00  0.00000000E+00  0.00000000E+00
0.00000000E+00  0.00000000E+00  0.00000000E+00
0.00000000E+00  0.00000000E+00  0.00000000E+00
0.00000000E+00  0.00000000E+00  0.00000000E+00
0.00000000E+00  0.00000000E+00  0.00000000E+00
