Zr3N2  (n=2)
1.00000000000000
3.2073431422576171  0.0000000000000000  0.0000000000000000
-1.6036715711288088  2.7776406399874949  0.0000000000000000
0.0000000000000003  0.0000000000000002  32.4222895920612686
Zr  N  H
3  2  2
Selective  dynamics
Direct
0.0000000000000000  -0.0000000000000000  0.0318190869082541  T  T  T
0.6666666666666643  0.3333333333333357  0.1144627613510387  T  T  T
0.3333333333333357  0.6666666666666643  0.1971064357938391  T  T  T
0.3333333333333357  0.6666666666666643  0.0732744785906237  T  T  T
0.0000000000000000  0.0000000000000000  0.1556510441114616  T  T  T
0.6666666666666643  0.3333333333333357  0.0000000000000000  T  T  T
0.6666666666666643  0.3333333333333357  0.2289255227020933  T  T  T

0.00000000E+00  0.00000000E+00  0.00000000E+00
0.00000000E+00  0.00000000E+00  0.00000000E+00
0.00000000E+00  0.00000000E+00  0.00000000E+00
0.00000000E+00  0.00000000E+00  0.00000000E+00
0.00000000E+00  0.00000000E+00  0.00000000E+00
0.00000000E+00  0.00000000E+00  0.00000000E+00
0.00000000E+00  0.00000000E+00  0.00000000E+00
