Cr3C2  (n=2)
1.00000000000000
2.9287251899613596  -0.0000000000000001  0.0000000000000000
-1.4643625949806798  2.5363504152174352  -0.0000000000000001
-0.0000000000000003  0.0000000000000005  31.2951739510710318
Cr  C  H
3  2  2
Selective  dynamics
Direct
-0.0000000000000000  -0.0000000000000000  0.0309383475261876  T  T  T
0.6666666666666643  0.3333333333333357  0.1005773919153285  T  T  T
0.3333333333333357  0.6666666666666643  0.1702164363044779  T  T  T
0.3333333333333357  0.6666666666666643  0.0626256402015472  T  T  T
-0.0000000000000000  -0.0000000000000000  0.1385291436291182  T  T  T
0.6666666666666643  0.3333333333333357  0.0000000000000000  T  T  T
0.6666666666666643  0.3333333333333357  0.2011547838306739  T  T  T

0.00000000E+00  0.00000000E+00  0.00000000E+00
0.00000000E+00  0.00000000E+00  0.00000000E+00
0.00000000E+00  0.00000000E+00  0.00000000E+00
0.00000000E+00  0.00000000E+00  0.00000000E+00
0.00000000E+00  0.00000000E+00  0.00000000E+00
0.00000000E+00  0.00000000E+00  0.00000000E+00
0.00000000E+00  0.00000000E+00  0.00000000E+00
