Hf3C2  (n=2)
1.00000000000000
3.2849080748885453  -0.0000000000000001  0.0000000000000000
-1.6424540374442727  2.8448138420895885  0.0000000000000000
0.0000000000000003  -0.0000000000000008  32.1481504631650878
Hf  C  H
3  2  2
Selective  dynamics
Direct
0.0000000000000000  -0.0000000000000000  0.0322957802646737  T  T  T
0.6666666666666643  0.3333333333333357  0.1111751432069996  T  T  T
0.3333333333333357  0.6666666666666643  0.1900545061493253  T  T  T
0.3333333333333357  0.6666666666666643  0.0682088425043839  T  T  T
0.0000000000000000  0.0000000000000000  0.1541414439096069  T  T  T
0.6666666666666643  0.3333333333333357  0.0000000000000000  T  T  T
0.6666666666666643  0.3333333333333357  0.2223502864139989  T  T  T

0.00000000E+00  0.00000000E+00  0.00000000E+00
0.00000000E+00  0.00000000E+00  0.00000000E+00
0.00000000E+00  0.00000000E+00  0.00000000E+00
0.00000000E+00  0.00000000E+00  0.00000000E+00
0.00000000E+00  0.00000000E+00  0.00000000E+00
0.00000000E+00  0.00000000E+00  0.00000000E+00
0.00000000E+00  0.00000000E+00  0.00000000E+00
