Nb2N  (n=1)
1.00000000000000
3.1559814417811043  0.0000000000000001  0.0000000000000000
-1.5779907208905526  2.7331601026370147  0.0000000000000000
0.0000000000000000  0.0000000000000000  31.2274798439333452
Nb  N  Cl
2  1  2
Selective  dynamics
Direct
-0.0000000000000000  -0.0000000000000000  0.0585944239845417  T  T  T
0.6666666666666643  0.3333333333333357  0.1406875344332164  T  T  T
0.3333333333333357  0.6666666666666643  0.0974358356248665  T  T  T
0.3333333333333357  0.6666666666666643  0.0000000000000000  T  T  T
-0.0000000000000000  -0.0000000000000000  0.1994230682417101  T  T  T

0.00000000E+00  0.00000000E+00  0.00000000E+00
0.00000000E+00  0.00000000E+00  0.00000000E+00
0.00000000E+00  0.00000000E+00  0.00000000E+00
0.00000000E+00  0.00000000E+00  0.00000000E+00
0.00000000E+00  0.00000000E+00  0.00000000E+00
