Ta2C  (n=1)
1.00000000000000
3.2288380336163112  -0.0000000000000000  0.0000000000000007
-1.6144190168081556  2.7962557620917354  -0.0000000000000019
0.0000000000000070  -0.0000000000000161  31.0595903423160600
Ta  C  Cl
2  1  2
Selective  dynamics
Direct
-0.0000000000000000  -0.0000000000000000  0.0618086938930998  T  T  T
0.6666666666666643  0.3333333333333357  0.1366437376586969  T  T  T
0.3333333333333357  0.6666666666666643  0.0978755297923072  T  T  T
0.3333333333333357  0.6666666666666643  0.0000000000000000  T  T  T
0.0000000000000000  0.0000000000000000  0.1950956299014795  T  T  T

0.00000000E+00  0.00000000E+00  0.00000000E+00
0.00000000E+00  0.00000000E+00  0.00000000E+00
0.00000000E+00  0.00000000E+00  0.00000000E+00
0.00000000E+00  0.00000000E+00  0.00000000E+00
0.00000000E+00  0.00000000E+00  0.00000000E+00
