Mo2N  (n=1)
1.00000000000000
3.3120504655148100  0.0000000000000002  0.0000000000000001
-1.6560252327574037  2.8683198420124643  -0.0000000000000006
0.0000000000000040  -0.0000000000000104  30.6316331467004197
Mo  N  Cl
2  1  2
Selective  dynamics
Direct
-0.0000000000000000  -0.0000000000000000  0.0618139636571645  T  T  T
0.6666666666666643  0.3333333333333357  0.1238449301253355  T  T  T
0.3333333333333357  0.6666666666666643  0.0974827964074603  T  T  T
0.3333333333333357  0.6666666666666643  0.0000000000000000  T  T  T
0.0000000000000000  -0.0000000000000000  0.1838502413413452  T  T  T

0.00000000E+00  0.00000000E+00  0.00000000E+00
0.00000000E+00  0.00000000E+00  0.00000000E+00
0.00000000E+00  0.00000000E+00  0.00000000E+00
0.00000000E+00  0.00000000E+00  0.00000000E+00
0.00000000E+00  0.00000000E+00  0.00000000E+00
