Zr2C  (n=1)
1.00000000000000
3.4296654230660533  -0.0000000000000021  0.0000000000000006
-1.7148327115330280  2.9701773831955141  -0.0000000000000003
0.0000000000000053  -0.0000000000000022  31.0525375993875663
Zr  C  Cl
2  1  2
Selective  dynamics
Direct
0.0000000000000000  -0.0000000000000000  0.0580691263911938  T  T  T
0.6666666666666643  0.3333333333333357  0.1368487173351585  T  T  T
0.3333333333333357  0.6666666666666643  0.0998776329321543  T  T  T
0.3333333333333357  0.6666666666666643  0.0000000000000000  T  T  T
-0.0000000000000000  0.0000000000000000  0.1949128176728119  T  T  T

0.00000000E+00  0.00000000E+00  0.00000000E+00
0.00000000E+00  0.00000000E+00  0.00000000E+00
0.00000000E+00  0.00000000E+00  0.00000000E+00
0.00000000E+00  0.00000000E+00  0.00000000E+00
0.00000000E+00  0.00000000E+00  0.00000000E+00
