Mo2C  (n=1)
1.00000000000000
3.1658677121312344  -0.0000000000000001  -0.0000000000000000
-1.5829338560656174  2.7417218639508190  -0.0000000000000000
-0.0000000000000003  0.0000000000000003  31.0201262150178678
Mo  C  Cl
2  1  2
Selective  dynamics
Direct
-0.0000000000000000  0.0000000000000000  0.0607594349084210  T  T  T
0.6666666666666643  0.3333333333333357  0.1325364540483608  T  T  T
0.3333333333333357  0.6666666666666643  0.0965440444660941  T  T  T
0.3333333333333357  0.6666666666666643  0.0000000000000000  T  T  T
0.0000000000000000  0.0000000000000000  0.1940716221877694  T  T  T

0.00000000E+00  0.00000000E+00  0.00000000E+00
0.00000000E+00  0.00000000E+00  0.00000000E+00
0.00000000E+00  0.00000000E+00  0.00000000E+00
0.00000000E+00  0.00000000E+00  0.00000000E+00
0.00000000E+00  0.00000000E+00  0.00000000E+00
