Sc2C  (n=1)
1.00000000000000
3.4206579721212971  0.0000000000000002  -0.0000000000000000
-1.7103289860606483  2.9623767019268317  0.0000000000000001
0.0000000000000000  0.0000000000000010  30.9355860867756043
Sc  C  Cl
2  1  2
Selective  dynamics
Direct
0.0000000000000000  0.0000000000000000  0.0567259537316532  T  T  T
0.6666666666666643  0.3333333333333357  0.1374451512285391  T  T  T
0.3333333333333357  0.6666666666666643  0.0980564899860937  T  T  T
0.3333333333333357  0.6666666666666643  0.0000000000000000  T  T  T
-0.0000000000000000  -0.0000000000000000  0.1918691978269311  T  T  T

0.00000000E+00  0.00000000E+00  0.00000000E+00
0.00000000E+00  0.00000000E+00  0.00000000E+00
0.00000000E+00  0.00000000E+00  0.00000000E+00
0.00000000E+00  0.00000000E+00  0.00000000E+00
0.00000000E+00  0.00000000E+00  0.00000000E+00
