Nb2C  (n=1)
1.00000000000000
3.2530759000149656  -0.0000000000000001  0.0000000000000000
-1.6265379500074830  2.8172463701874761  -0.0000000000000000
0.0000000000000001  -0.0000000000000001  31.0556005800148647
Nb  C  Cl
2  1  2
Selective  dynamics
Direct
-0.0000000000000000  -0.0000000000000000  0.0613964002887266  T  T  T
0.6666666666666643  0.3333333333333357  0.1367577985767655  T  T  T
0.3333333333333357  0.6666666666666643  0.0975236903317473  T  T  T
0.3333333333333357  0.6666666666666643  0.0000000000000000  T  T  T
0.0000000000000000  0.0000000000000000  0.1949922225594249  T  T  T

0.00000000E+00  0.00000000E+00  0.00000000E+00
0.00000000E+00  0.00000000E+00  0.00000000E+00
0.00000000E+00  0.00000000E+00  0.00000000E+00
0.00000000E+00  0.00000000E+00  0.00000000E+00
0.00000000E+00  0.00000000E+00  0.00000000E+00
