Ti2N  (n=1)
1.00000000000000
3.1987966730283830  0.0000000000000002  0.0000000000000000
-1.5993983365141915  2.7702391805646114  0.0000000000000000
0.0000000000000000  0.0000000000000000  30.5492783004252217
Ti  N  Cl
2  1  2
Selective  dynamics
Direct
0.0000000000000000  0.0000000000000000  0.0576269250411599  T  T  T
0.6666666666666643  0.3333333333333357  0.1261108940483488  T  T  T
0.3333333333333357  0.6666666666666643  0.0932283829927874  T  T  T
0.3333333333333357  0.6666666666666643  0.0000000000000000  T  T  T
0.0000000000000000  0.0000000000000000  0.1816500621014009  T  T  T

0.00000000E+00  0.00000000E+00  0.00000000E+00
0.00000000E+00  0.00000000E+00  0.00000000E+00
0.00000000E+00  0.00000000E+00  0.00000000E+00
0.00000000E+00  0.00000000E+00  0.00000000E+00
0.00000000E+00  0.00000000E+00  0.00000000E+00
