Hf2C  (n=1)
1.00000000000000
3.3817138513441369  0.0000000000000011  -0.0000000000000000
-1.6908569256720676  2.9286501038938848  -0.0000000000000003
-0.0000000000000006  -0.0000000000000071  30.9618272935657082
Hf  C  Cl
2  1  2
Selective  dynamics
Direct
-0.0000000000000000  -0.0000000000000000  0.0578353670123487  T  T  T
0.6666666666666643  0.3333333333333357  0.1346837168835177  T  T  T
0.3333333333333357  0.6666666666666643  0.0990219810867920  T  T  T
0.3333333333333357  0.6666666666666643  0.0000000000000000  T  T  T
0.0000000000000000  0.0000000000000000  0.1925541163006441  T  T  T

0.00000000E+00  0.00000000E+00  0.00000000E+00
0.00000000E+00  0.00000000E+00  0.00000000E+00
0.00000000E+00  0.00000000E+00  0.00000000E+00
0.00000000E+00  0.00000000E+00  0.00000000E+00
0.00000000E+00  0.00000000E+00  0.00000000E+00
