Sc2N
1.00000000000000
3.3446311180839055  -0.0000000000000005  0.0000000000000005
-1.6723155590419532  2.8965355147858025  0.0000000000000000
0.0000000000000042  0.0000000000000029  30.8547753107364855
Sc  N  Cl
2  1  2
Selective  dynamics
Direct
0.0000000000000000  0.0000000000000000  0.0560702349726769  T  T  T
0.6666666666666643  0.3333333333333357  0.1344515943514950  T  T  T
0.3333333333333357  0.6666666666666643  0.0977584573836595  T  T  T
0.3333333333333357  0.6666666666666643  0.0000000000000000  T  T  T
0.0000000000000000  0.0000000000000000  0.1897526477432881  T  T  T

0.00000000E+00  0.00000000E+00  0.00000000E+00
0.00000000E+00  0.00000000E+00  0.00000000E+00
0.00000000E+00  0.00000000E+00  0.00000000E+00
0.00000000E+00  0.00000000E+00  0.00000000E+00
0.00000000E+00  0.00000000E+00  0.00000000E+00
