Cr2N  (n=1)
1.00000000000000
3.1287989009978290  -0.0000000000000002  0.0000000000000000
-1.5643994504989140  2.7096193318584039  0.0000000000000001
0.0000000000000003  -0.0000000000000010  30.4299945408758816
Cr  N  Cl
2  1  2
Selective  dynamics
Direct
-0.0000000000000000  -0.0000000000000000  0.0556604771125125  T  T  T
0.6666666666666643  0.3333333333333357  0.1238753498093862  T  T  T
0.3333333333333357  0.6666666666666643  0.0933373485399941  T  T  T
0.3333333333333357  0.6666666666666643  0.0000000000000000  T  T  T
-0.0000000000000000  -0.0000000000000000  0.1784421792643407  T  T  T

0.00000000E+00  0.00000000E+00  0.00000000E+00
0.00000000E+00  0.00000000E+00  0.00000000E+00
0.00000000E+00  0.00000000E+00  0.00000000E+00
0.00000000E+00  0.00000000E+00  0.00000000E+00
0.00000000E+00  0.00000000E+00  0.00000000E+00
