Ti2C  (n=1)
1.00000000000000
3.2082953417498801  -0.0000000000000000  -0.0000000000000000
-1.6041476708749400  2.7784652690053306  -0.0000000000000000
-0.0000000000000002  -0.0000000000000000  30.6121725239040288
Ti  C  Cl
2  1  2
Selective  dynamics
Direct
-0.0000000000000000  -0.0000000000000000  0.0555748387116304  T  T  T
0.6666666666666643  0.3333333333333357  0.1281089440233090  T  T  T
0.3333333333333357  0.6666666666666643  0.0940300144034683  T  T  T
0.3333333333333357  0.6666666666666643  0.0000000000000000  T  T  T
0.0000000000000000  0.0000000000000000  0.1833314025498082  T  T  T

0.00000000E+00  0.00000000E+00  0.00000000E+00
0.00000000E+00  0.00000000E+00  0.00000000E+00
0.00000000E+00  0.00000000E+00  0.00000000E+00
0.00000000E+00  0.00000000E+00  0.00000000E+00
0.00000000E+00  0.00000000E+00  0.00000000E+00
