Ta2N  (n=1)
1.00000000000000
3.1115909898486556  -0.0000000000000001  0.0000000000000000
-1.5557954949243278  2.6947168436149043  0.0000000000000000
0.0000000000000001  0.0000000000000002  31.2825364859243820
Ta  N  Cl
2  1  2
Selective  dynamics
Direct
0.0000000000000000  -0.0000000000000000  0.0585618724484437  T  T  T
0.6666666666666643  0.3333333333333357  0.1416977643894574  T  T  T
0.3333333333333357  0.6666666666666643  0.0978146170814933  T  T  T
0.3333333333333357  0.6666666666666643  0.0000000000000000  T  T  T
0.0000000000000000  -0.0000000000000000  0.2008320677177573  T  T  T

0.00000000E+00  0.00000000E+00  0.00000000E+00
0.00000000E+00  0.00000000E+00  0.00000000E+00
0.00000000E+00  0.00000000E+00  0.00000000E+00
0.00000000E+00  0.00000000E+00  0.00000000E+00
0.00000000E+00  0.00000000E+00  0.00000000E+00
