Cr2C  (n=1)
1.00000000000000
3.1007974932098694  -0.0000000000000000  0.0000000000000000
-1.5503987466049347  2.6853694011508464  0.0000000000000000
-0.0000000000000001  -0.0000000000000006  30.3278363961600164
Cr  C  Cl
2  1  2
Selective  dynamics
Direct
-0.0000000000000000  -0.0000000000000000  0.0588759558921687  T  T  T
0.6666666666666643  0.3333333333333357  0.1198263183539323  T  T  T
0.3333333333333357  0.6666666666666643  0.0896609972676381  T  T  T
0.3333333333333357  0.6666666666666643  0.0000000000000000  T  T  T
0.0000000000000000  -0.0000000000000000  0.1756747934987742  T  T  T

0.00000000E+00  0.00000000E+00  0.00000000E+00
0.00000000E+00  0.00000000E+00  0.00000000E+00
0.00000000E+00  0.00000000E+00  0.00000000E+00
0.00000000E+00  0.00000000E+00  0.00000000E+00
0.00000000E+00  0.00000000E+00  0.00000000E+00
