Zr2N  (n=1)
1.00000000000000
3.3491330075478523  0.0000000000000008  -0.0000000000000003
-1.6745665037739257  2.9004342654638036  0.0000000000000006
-0.0000000000000023  0.0000000000000045  31.1597559738967220
Zr  N  Cl
2  1  2
Selective  dynamics
Direct
0.0000000000000000  0.0000000000000000  0.0597997048278885  T  T  T
0.6666666666666643  0.3333333333333357  0.1391463580815356  T  T  T
0.3333333333333357  0.6666666666666643  0.0989572543234990  T  T  T
0.3333333333333357  0.6666666666666643  0.0000000000000000  T  T  T
-0.0000000000000000  -0.0000000000000000  0.1976830620578961  T  T  T

0.00000000E+00  0.00000000E+00  0.00000000E+00
0.00000000E+00  0.00000000E+00  0.00000000E+00
0.00000000E+00  0.00000000E+00  0.00000000E+00
0.00000000E+00  0.00000000E+00  0.00000000E+00
0.00000000E+00  0.00000000E+00  0.00000000E+00
