Hf2N  (n=1)
1.00000000000000
3.2789551616911976  -0.0000000000000011  -0.0000000000000000
-1.6394775808455995  2.8396584681615193  0.0000000000000000
-0.0000000000000001  0.0000000000000001  31.1313091638866695
Hf  N  Cl
2  1  2
Selective  dynamics
Direct
0.0000000000000000  0.0000000000000000  0.0595061137039343  T  T  T
0.6666666666666643  0.3333333333333357  0.1384911427799893  T  T  T
0.3333333333333357  0.6666666666666643  0.0984914596981452  T  T  T
0.3333333333333357  0.6666666666666643  0.0000000000000000  T  T  T
0.0000000000000000  -0.0000000000000000  0.1969499301044233  T  T  T

0.00000000E+00  0.00000000E+00  0.00000000E+00
0.00000000E+00  0.00000000E+00  0.00000000E+00
0.00000000E+00  0.00000000E+00  0.00000000E+00
0.00000000E+00  0.00000000E+00  0.00000000E+00
0.00000000E+00  0.00000000E+00  0.00000000E+00
