Nb4N3  (n=3)
1.00000000000000
3.2040685758579808  0.0000000000000000  0.0000000000000000
-1.6020342879289904  2.7748047823863824  0.0000000000000001
0.0000000000000003  0.0000000000000002  34.9140407467129918
Nb  N  F
4  3  2
Selective  dynamics
Direct
0.0000000000000000  0.0000000000000000  0.0401119378263043  T  T  T
0.6666666666666643  0.3333333333333357  0.1036539338259241  T  T  T
0.3333333333333357  0.6666666666666643  0.1803017623547409  T  T  T
-0.0000000000000000  -0.0000000000000000  0.2438437583543607  T  T  T
0.3333333333333357  0.6666666666666643  0.0676001890351719  T  T  T
-0.0000000000000000  -0.0000000000000000  0.1419778480903364  T  T  T
0.6666666666666643  0.3333333333333357  0.2163555071454931  T  T  T
0.6666666666666643  0.3333333333333357  0.0000000000000000  T  T  T
0.3333333333333357  0.6666666666666643  0.2839556961806650  T  T  T

0.00000000E+00  0.00000000E+00  0.00000000E+00
0.00000000E+00  0.00000000E+00  0.00000000E+00
0.00000000E+00  0.00000000E+00  0.00000000E+00
0.00000000E+00  0.00000000E+00  0.00000000E+00
0.00000000E+00  0.00000000E+00  0.00000000E+00
0.00000000E+00  0.00000000E+00  0.00000000E+00
0.00000000E+00  0.00000000E+00  0.00000000E+00
0.00000000E+00  0.00000000E+00  0.00000000E+00
0.00000000E+00  0.00000000E+00  0.00000000E+00
