Cr4C3  (n=3)
1.00000000000000
2.9525560428025130  -0.0000000000000001  0.0000000000000000
-1.4762780214012565  2.5569885391519791  0.0000000000000002
-0.0000000000000002  0.0000000000000019  34.2256330821413357
Cr  C  F
4  3  2
Selective  dynamics
Direct
0.0000000000000000  0.0000000000000000  0.0368663045323442  T  T  T
0.6666666666666643  0.3333333333333357  0.1030089052054177  T  T  T
0.3333333333333357  0.6666666666666643  0.1665444164234290  T  T  T
0.0000000000000000  0.0000000000000000  0.2326870170965025  T  T  T
0.3333333333333357  0.6666666666666643  0.0659312031871503  T  T  T
0.0000000000000000  0.0000000000000000  0.1347766608144233  T  T  T
0.6666666666666643  0.3333333333333357  0.2036221184416890  T  T  T
0.6666666666666643  0.3333333333333357  0.0000000000000000  T  T  T
0.3333333333333357  0.6666666666666643  0.2695533216288467  T  T  T

0.00000000E+00  0.00000000E+00  0.00000000E+00
0.00000000E+00  0.00000000E+00  0.00000000E+00
0.00000000E+00  0.00000000E+00  0.00000000E+00
0.00000000E+00  0.00000000E+00  0.00000000E+00
0.00000000E+00  0.00000000E+00  0.00000000E+00
0.00000000E+00  0.00000000E+00  0.00000000E+00
0.00000000E+00  0.00000000E+00  0.00000000E+00
0.00000000E+00  0.00000000E+00  0.00000000E+00
0.00000000E+00  0.00000000E+00  0.00000000E+00
