Mo4N3  (n=3)
1.00000000000000
2.7930668047867644  0.0000000000000000  -0.0000000000000001
-1.3965334023933822  2.4188668074771198  -0.0000000000000001
0.0000000000000015  0.0000000000000000  36.8794440467663804
Mo  N  F
4  3  2
Selective  dynamics
Direct
-0.0000000000000000  -0.0000000000000000  0.0416421008973765  T  T  T
0.6666666666666643  0.3333333333333357  0.1209731448434371  T  T  T
0.3333333333333357  0.6666666666666643  0.2011424497328315  T  T  T
0.0000000000000000  -0.0000000000000000  0.2804734936788921  T  T  T
0.3333333333333357  0.6666666666666643  0.0794778600896569  T  T  T
-0.0000000000000000  -0.0000000000000000  0.1610577972881343  T  T  T
0.6666666666666643  0.3333333333333357  0.2426377344865964  T  T  T
0.6666666666666643  0.3333333333333357  0.0000000000000000  T  T  T
0.3333333333333357  0.6666666666666643  0.3221155945762685  T  T  T

0.00000000E+00  0.00000000E+00  0.00000000E+00
0.00000000E+00  0.00000000E+00  0.00000000E+00
0.00000000E+00  0.00000000E+00  0.00000000E+00
0.00000000E+00  0.00000000E+00  0.00000000E+00
0.00000000E+00  0.00000000E+00  0.00000000E+00
0.00000000E+00  0.00000000E+00  0.00000000E+00
0.00000000E+00  0.00000000E+00  0.00000000E+00
0.00000000E+00  0.00000000E+00  0.00000000E+00
0.00000000E+00  0.00000000E+00  0.00000000E+00
