Mo4C3  (n=3)
1.00000000000000
3.1327965179043700  0.0000000000000003  0.0000000000000000
-1.5663982589521850  2.7130813695694571  -0.0000000000000001
-0.0000000000000010  0.0000000000000003  34.9762380543768501
Mo  C  F
4  3  2
Selective  dynamics
Direct
0.0000000000000000  -0.0000000000000000  0.0423364680366308  T  T  T
0.6666666666666643  0.3333333333333357  0.1047165020953106  T  T  T
0.3333333333333357  0.6666666666666643  0.1805125164991780  T  T  T
-0.0000000000000000  0.0000000000000000  0.2428925505578502  T  T  T
0.3333333333333357  0.6666666666666643  0.0686104102549411  T  T  T
0.0000000000000000  0.0000000000000000  0.1426145092972404  T  T  T
0.6666666666666643  0.3333333333333357  0.2166186083395398  T  T  T
0.6666666666666643  0.3333333333333357  0.0000000000000000  T  T  T
0.3333333333333357  0.6666666666666643  0.2852290185944811  T  T  T

0.00000000E+00  0.00000000E+00  0.00000000E+00
0.00000000E+00  0.00000000E+00  0.00000000E+00
0.00000000E+00  0.00000000E+00  0.00000000E+00
0.00000000E+00  0.00000000E+00  0.00000000E+00
0.00000000E+00  0.00000000E+00  0.00000000E+00
0.00000000E+00  0.00000000E+00  0.00000000E+00
0.00000000E+00  0.00000000E+00  0.00000000E+00
0.00000000E+00  0.00000000E+00  0.00000000E+00
0.00000000E+00  0.00000000E+00  0.00000000E+00
