Ta4C3  (n=3)
1.00000000000000
3.1409021522135632  0.0000000000000000  0.0000000000000000
-1.5704510761067816  2.7201010548859221  0.0000000000000000
-0.0000000000000001  -0.0000000000000008  35.3969342562319014
Ta  C  F
4  3  2
Selective  dynamics
Direct
-0.0000000000000000  -0.0000000000000000  0.0410106604369083  T  T  T
0.6666666666666643  0.3333333333333357  0.1088886244691552  T  T  T
0.3333333333333357  0.6666666666666643  0.1848355207059798  T  T  T
-0.0000000000000000  -0.0000000000000000  0.2527134847382189  T  T  T
0.3333333333333357  0.6666666666666643  0.0728521336755762  T  T  T
-0.0000000000000000  -0.0000000000000000  0.1468620725875675  T  T  T
0.6666666666666643  0.3333333333333357  0.2208720114995511  T  T  T
0.6666666666666643  0.3333333333333357  0.0000000000000000  T  T  T
0.3333333333333357  0.6666666666666643  0.2937241451751275  T  T  T

0.00000000E+00  0.00000000E+00  0.00000000E+00
0.00000000E+00  0.00000000E+00  0.00000000E+00
0.00000000E+00  0.00000000E+00  0.00000000E+00
0.00000000E+00  0.00000000E+00  0.00000000E+00
0.00000000E+00  0.00000000E+00  0.00000000E+00
0.00000000E+00  0.00000000E+00  0.00000000E+00
0.00000000E+00  0.00000000E+00  0.00000000E+00
0.00000000E+00  0.00000000E+00  0.00000000E+00
0.00000000E+00  0.00000000E+00  0.00000000E+00
