Cr4N3  (n=3)
1.00000000000000
2.9303130297666016  0.0000000000000000  0.0000000000000000
-1.4651565148833008  2.5377255248477590  0.0000000000000000
0.0000000000000000  0.0000000000000007  34.5337043498828251
Cr  N  F
4  3  2
Selective  dynamics
Direct
0.0000000000000000  0.0000000000000000  0.0351528036653387  T  T  T
0.6666666666666643  0.3333333333333357  0.1051528016448151  T  T  T
0.3333333333333357  0.6666666666666643  0.1709167521247875  T  T  T
0.0000000000000000  0.0000000000000000  0.2409167501042502  T  T  T
0.3333333333333357  0.6666666666666643  0.0654310357033806  T  T  T
0.0000000000000000  0.0000000000000000  0.1380347768848013  T  T  T
0.6666666666666643  0.3333333333333357  0.2106385180662082  T  T  T
0.6666666666666643  0.3333333333333357  0.0000000000000000  T  T  T
0.3333333333333357  0.6666666666666643  0.2760695537695820  T  T  T

0.00000000E+00  0.00000000E+00  0.00000000E+00
0.00000000E+00  0.00000000E+00  0.00000000E+00
0.00000000E+00  0.00000000E+00  0.00000000E+00
0.00000000E+00  0.00000000E+00  0.00000000E+00
0.00000000E+00  0.00000000E+00  0.00000000E+00
0.00000000E+00  0.00000000E+00  0.00000000E+00
0.00000000E+00  0.00000000E+00  0.00000000E+00
0.00000000E+00  0.00000000E+00  0.00000000E+00
0.00000000E+00  0.00000000E+00  0.00000000E+00
