Sc4N3  (n=3)
1.00000000000000
3.1676481221678707  0.0000000000000000  0.0000000000000000
-1.5838240610839354  2.7432637442188299  -0.0000000000000001
-0.0000000000000003  -0.0000000000000009  35.0589000850310342
Sc  N  F
4  3  2
Selective  dynamics
Direct
0.0000000000000000  0.0000000000000000  0.0343934825380867  T  T  T
0.6666666666666643  0.3333333333333357  0.1074852783936623  T  T  T
0.3333333333333357  0.6666666666666643  0.1794290304019556  T  T  T
0.0000000000000000  0.0000000000000000  0.2525208262575312  T  T  T
0.3333333333333357  0.6666666666666643  0.0666301317233817  T  T  T
0.0000000000000000  0.0000000000000000  0.1434571543978090  T  T  T
0.6666666666666643  0.3333333333333357  0.2202841770722284  T  T  T
0.6666666666666643  0.3333333333333357  0.0000000000000000  T  T  T
0.3333333333333357  0.6666666666666643  0.2869143087956101  T  T  T

0.00000000E+00  0.00000000E+00  0.00000000E+00
0.00000000E+00  0.00000000E+00  0.00000000E+00
0.00000000E+00  0.00000000E+00  0.00000000E+00
0.00000000E+00  0.00000000E+00  0.00000000E+00
0.00000000E+00  0.00000000E+00  0.00000000E+00
0.00000000E+00  0.00000000E+00  0.00000000E+00
0.00000000E+00  0.00000000E+00  0.00000000E+00
0.00000000E+00  0.00000000E+00  0.00000000E+00
0.00000000E+00  0.00000000E+00  0.00000000E+00
