Hf4N3  (n=3)
1.00000000000000
3.1484525012209832  -0.0000000000000001  0.0000000000000000
-1.5742262506104916  2.7266398489250880  0.0000000000000000
0.0000000000000001  -0.0000000000000004  35.6042306622197060
Hf  N  F
4  3  2
Selective  dynamics
Direct
0.0000000000000000  0.0000000000000000  0.0392689497872291  T  T  T
0.6666666666666643  0.3333333333333357  0.1100865659312407  T  T  T
0.3333333333333357  0.6666666666666643  0.1877496873731337  T  T  T
-0.0000000000000000  -0.0000000000000000  0.2585673035171454  T  T  T
0.3333333333333357  0.6666666666666643  0.0741528435709589  T  T  T
0.0000000000000000  0.0000000000000000  0.1489181266521873  T  T  T
0.6666666666666643  0.3333333333333357  0.2236834097334006  T  T  T
0.6666666666666643  0.3333333333333357  0.0000000000000000  T  T  T
0.3333333333333357  0.6666666666666643  0.2978362533043594  T  T  T

0.00000000E+00  0.00000000E+00  0.00000000E+00
0.00000000E+00  0.00000000E+00  0.00000000E+00
0.00000000E+00  0.00000000E+00  0.00000000E+00
0.00000000E+00  0.00000000E+00  0.00000000E+00
0.00000000E+00  0.00000000E+00  0.00000000E+00
0.00000000E+00  0.00000000E+00  0.00000000E+00
0.00000000E+00  0.00000000E+00  0.00000000E+00
0.00000000E+00  0.00000000E+00  0.00000000E+00
0.00000000E+00  0.00000000E+00  0.00000000E+00
