Ta4N3  (n=3)
1.00000000000000
3.0153265814948353  0.0000000000000001  0.0000000000000000
-1.5076632907474177  2.6113494203785397  0.0000000000000000
0.0000000000000005  0.0000000000000005  35.8661197863312680
Ta  N  F
4  3  2
Selective  dynamics
Direct
0.0000000000000000  0.0000000000000000  0.0418738039069194  T  T  T
0.6666666666666643  0.3333333333333357  0.1146992328869458  T  T  T
0.3333333333333357  0.6666666666666643  0.1882641166770812  T  T  T
0.0000000000000000  -0.0000000000000000  0.2610895456570999  T  T  T
0.3333333333333357  0.6666666666666643  0.0771676476041044  T  T  T
0.0000000000000000  0.0000000000000000  0.1514816747820096  T  T  T
0.6666666666666643  0.3333333333333357  0.2257957019599071  T  T  T
0.6666666666666643  0.3333333333333357  0.0000000000000000  T  T  T
0.3333333333333357  0.6666666666666643  0.3029633495640193  T  T  T

0.00000000E+00  0.00000000E+00  0.00000000E+00
0.00000000E+00  0.00000000E+00  0.00000000E+00
0.00000000E+00  0.00000000E+00  0.00000000E+00
0.00000000E+00  0.00000000E+00  0.00000000E+00
0.00000000E+00  0.00000000E+00  0.00000000E+00
0.00000000E+00  0.00000000E+00  0.00000000E+00
0.00000000E+00  0.00000000E+00  0.00000000E+00
0.00000000E+00  0.00000000E+00  0.00000000E+00
0.00000000E+00  0.00000000E+00  0.00000000E+00
