Ti4C3  (n=3)
1.00000000000000
3.0532121843543210  0.0000000000000001  0.0000000000000000
-1.5266060921771605  2.6441593148652887  0.0000000000000000
0.0000000000000001  -0.0000000000000019  34.7594811595851070
Ti  C  F
4  3  2
Selective  dynamics
Direct
0.0000000000000000  0.0000000000000000  0.0364340972440953  T  T  T
0.6666666666666643  0.3333333333333357  0.1058701235052357  T  T  T
0.3333333333333357  0.6666666666666643  0.1749016496630148  T  T  T
-0.0000000000000000  -0.0000000000000000  0.2443376759241553  T  T  T
0.3333333333333357  0.6666666666666643  0.0671477608015261  T  T  T
0.0000000000000000  0.0000000000000000  0.1403858865841253  T  T  T
0.6666666666666643  0.3333333333333357  0.2136240123667167  T  T  T
0.6666666666666643  0.3333333333333357  0.0000000000000000  T  T  T
0.3333333333333357  0.6666666666666643  0.2807717731682505  T  T  T

0.00000000E+00  0.00000000E+00  0.00000000E+00
0.00000000E+00  0.00000000E+00  0.00000000E+00
0.00000000E+00  0.00000000E+00  0.00000000E+00
0.00000000E+00  0.00000000E+00  0.00000000E+00
0.00000000E+00  0.00000000E+00  0.00000000E+00
0.00000000E+00  0.00000000E+00  0.00000000E+00
0.00000000E+00  0.00000000E+00  0.00000000E+00
0.00000000E+00  0.00000000E+00  0.00000000E+00
0.00000000E+00  0.00000000E+00  0.00000000E+00
