Sc4C3  (n=3)
1.00000000000000
3.2320347738971447  0.0000000000000001  0.0000000000000000
-1.6160173869485726  2.7990242202107760  -0.0000000000000001
-0.0000000000000003  0.0000000000000021  35.5285089416885072
Sc  C  F
4  3  2
Selective  dynamics
Direct
-0.0000000000000000  -0.0000000000000000  0.0327323620850355  T  T  T
0.6666666666666643  0.3333333333333357  0.1081571509106994  T  T  T
0.3333333333333357  0.6666666666666643  0.1881825845667515  T  T  T
0.0000000000000000  0.0000000000000000  0.2636073733924073  T  T  T
0.3333333333333357  0.6666666666666643  0.0688305611865416  T  T  T
-0.0000000000000000  -0.0000000000000000  0.1481698677387255  T  T  T
0.6666666666666643  0.3333333333333357  0.2275091742909012  T  T  T
0.6666666666666643  0.3333333333333357  0.0000000000000000  T  T  T
0.3333333333333357  0.6666666666666643  0.2963397354774590  T  T  T

0.00000000E+00  0.00000000E+00  0.00000000E+00
0.00000000E+00  0.00000000E+00  0.00000000E+00
0.00000000E+00  0.00000000E+00  0.00000000E+00
0.00000000E+00  0.00000000E+00  0.00000000E+00
0.00000000E+00  0.00000000E+00  0.00000000E+00
0.00000000E+00  0.00000000E+00  0.00000000E+00
0.00000000E+00  0.00000000E+00  0.00000000E+00
0.00000000E+00  0.00000000E+00  0.00000000E+00
0.00000000E+00  0.00000000E+00  0.00000000E+00
