Zr4N3  (n=3)
1.00000000000000
3.2189970800190784  -0.0000000000000001  0.0000000000000000
-1.6094985400095392  2.7877332463010700  0.0000000000000000
-0.0000000000000001  -0.0000000000000006  35.6666377555302319
Zr  N  F
4  3  2
Selective  dynamics
Direct
-0.0000000000000000  0.0000000000000000  0.0389571716354941  T  T  T
0.6666666666666643  0.3333333333333357  0.1103976319912909  T  T  T
0.3333333333333357  0.6666666666666643  0.1886672203966056  T  T  T
0.0000000000000000  -0.0000000000000000  0.2601076807524103  T  T  T
0.3333333333333357  0.6666666666666643  0.0736689454480217  T  T  T
0.0000000000000000  0.0000000000000000  0.1495324261939483  T  T  T
0.6666666666666643  0.3333333333333357  0.2253959069398670  T  T  T
0.6666666666666643  0.3333333333333357  0.0000000000000000  T  T  T
0.3333333333333357  0.6666666666666643  0.2990648523878967  T  T  T

0.00000000E+00  0.00000000E+00  0.00000000E+00
0.00000000E+00  0.00000000E+00  0.00000000E+00
0.00000000E+00  0.00000000E+00  0.00000000E+00
0.00000000E+00  0.00000000E+00  0.00000000E+00
0.00000000E+00  0.00000000E+00  0.00000000E+00
0.00000000E+00  0.00000000E+00  0.00000000E+00
0.00000000E+00  0.00000000E+00  0.00000000E+00
0.00000000E+00  0.00000000E+00  0.00000000E+00
0.00000000E+00  0.00000000E+00  0.00000000E+00
