Ti4N3  (n=3)
1.00000000000000
2.9768682615993094  0.0000000000000000  0.0000000000000000
-1.4884341307996547  2.5780435383268987  0.0000000000000000
0.0000000000000002  0.0000000000000000  34.7747453591076265
Ti  N  F
4  3  2
Selective  dynamics
Direct
-0.0000000000000000  0.0000000000000000  0.0370185918014935  T  T  T
0.6666666666666643  0.3333333333333357  0.1038409051139014  T  T  T
0.3333333333333357  0.6666666666666643  0.1772465696660568  T  T  T
0.0000000000000000  0.0000000000000000  0.2440688829784647  T  T  T
0.3333333333333357  0.6666666666666643  0.0688630796555569  T  T  T
0.0000000000000000  0.0000000000000000  0.1405437373899753  T  T  T
0.6666666666666643  0.3333333333333357  0.2122243951243935  T  T  T
0.6666666666666643  0.3333333333333357  0.0000000000000000  T  T  T
0.3333333333333357  0.6666666666666643  0.2810874747799579  T  T  T

0.00000000E+00  0.00000000E+00  0.00000000E+00
0.00000000E+00  0.00000000E+00  0.00000000E+00
0.00000000E+00  0.00000000E+00  0.00000000E+00
0.00000000E+00  0.00000000E+00  0.00000000E+00
0.00000000E+00  0.00000000E+00  0.00000000E+00
0.00000000E+00  0.00000000E+00  0.00000000E+00
0.00000000E+00  0.00000000E+00  0.00000000E+00
0.00000000E+00  0.00000000E+00  0.00000000E+00
0.00000000E+00  0.00000000E+00  0.00000000E+00
