Zr4C3  (n=3)
1.00000000000000
3.3245976931433967  0.0000000000000000  0.0000000000000000
-1.6622988465716984  2.8791860599496832  0.0000000000000000
0.0000000000000003  0.0000000000000021  35.5512248494241447
Zr  C  F
4  3  2
Selective  dynamics
Direct
-0.0000000000000000  -0.0000000000000000  0.0377548944485321  T  T  T
0.6666666666666643  0.3333333333333357  0.1116947108662226  T  T  T
0.3333333333333357  0.6666666666666643  0.1850946372958658  T  T  T
-0.0000000000000000  0.0000000000000000  0.2590344537135563  T  T  T
0.3333333333333357  0.6666666666666643  0.0695723591756471  T  T  T
-0.0000000000000000  0.0000000000000000  0.1483946740810442  T  T  T
0.6666666666666643  0.3333333333333357  0.2272169889864334  T  T  T
0.6666666666666643  0.3333333333333357  0.0000000000000000  T  T  T
0.3333333333333357  0.6666666666666643  0.2967893481620804  T  T  T

0.00000000E+00  0.00000000E+00  0.00000000E+00
0.00000000E+00  0.00000000E+00  0.00000000E+00
0.00000000E+00  0.00000000E+00  0.00000000E+00
0.00000000E+00  0.00000000E+00  0.00000000E+00
0.00000000E+00  0.00000000E+00  0.00000000E+00
0.00000000E+00  0.00000000E+00  0.00000000E+00
0.00000000E+00  0.00000000E+00  0.00000000E+00
0.00000000E+00  0.00000000E+00  0.00000000E+00
0.00000000E+00  0.00000000E+00  0.00000000E+00
