Nb4C3  (n=3)
1.00000000000000
3.1582329585852555  -0.0000000000000001  0.0000000000000000
-1.5791164792926278  2.7351099734937661  0.0000000000000000
-0.0000000000000002  0.0000000000000005  35.4161463532286760
Nb  C  F
4  3  2
Selective  dynamics
Direct
0.0000000000000000  -0.0000000000000000  0.0404655121377707  T  T  T
0.6666666666666643  0.3333333333333357  0.1088212629050379  T  T  T
0.3333333333333357  0.6666666666666643  0.1852860137405225  T  T  T
-0.0000000000000000  -0.0000000000000000  0.2536417645077896  T  T  T
0.3333333333333357  0.6666666666666643  0.0726747950231225  T  T  T
0.0000000000000000  -0.0000000000000000  0.1470536383227840  T  T  T
0.6666666666666643  0.3333333333333357  0.2214324816224302  T  T  T
0.6666666666666643  0.3333333333333357  0.0000000000000000  T  T  T
0.3333333333333357  0.6666666666666643  0.2941072766455602  T  T  T

0.00000000E+00  0.00000000E+00  0.00000000E+00
0.00000000E+00  0.00000000E+00  0.00000000E+00
0.00000000E+00  0.00000000E+00  0.00000000E+00
0.00000000E+00  0.00000000E+00  0.00000000E+00
0.00000000E+00  0.00000000E+00  0.00000000E+00
0.00000000E+00  0.00000000E+00  0.00000000E+00
0.00000000E+00  0.00000000E+00  0.00000000E+00
0.00000000E+00  0.00000000E+00  0.00000000E+00
0.00000000E+00  0.00000000E+00  0.00000000E+00
