Hf4C3  (n=3)
1.00000000000000
3.2749642203520128  0.0000000000000000  0.0000000000000000
-1.6374821101760064  2.8362022116506274  -0.0000000000000001
-0.0000000000000004  0.0000000000000020  35.3930323018762465
Hf  C  F
4  3  2
Selective  dynamics
Direct
-0.0000000000000000  -0.0000000000000000  0.0378239776086814  T  T  T
0.6666666666666643  0.3333333333333357  0.1106403457274564  T  T  T
0.3333333333333357  0.6666666666666643  0.1830059350780822  T  T  T
0.0000000000000000  -0.0000000000000000  0.2558223031968572  T  T  T
0.3333333333333357  0.6666666666666643  0.0688689613494948  T  T  T
0.0000000000000000  -0.0000000000000000  0.1468231404027733  T  T  T
0.6666666666666643  0.3333333333333357  0.2247773194560360  T  T  T
0.6666666666666643  0.3333333333333357  0.0000000000000000  T  T  T
0.3333333333333357  0.6666666666666643  0.2936462808055386  T  T  T

0.00000000E+00  0.00000000E+00  0.00000000E+00
0.00000000E+00  0.00000000E+00  0.00000000E+00
0.00000000E+00  0.00000000E+00  0.00000000E+00
0.00000000E+00  0.00000000E+00  0.00000000E+00
0.00000000E+00  0.00000000E+00  0.00000000E+00
0.00000000E+00  0.00000000E+00  0.00000000E+00
0.00000000E+00  0.00000000E+00  0.00000000E+00
0.00000000E+00  0.00000000E+00  0.00000000E+00
0.00000000E+00  0.00000000E+00  0.00000000E+00
