Mo4C3 (n=3)                             
   1.00000000000000     
     2.8874494582668033    0.0000000000000000    0.0000000000000000
    -1.4437247291334017    2.5006045830620662    0.0000000000000000
     0.0000000000000000    0.0000000000000000   40.2756877328228811
   Mo   C 
     4     3
Selective dynamics
Direct
  0.0000000000000000  0.0000000000000000  0.9952693865071482   T   T   T
  0.0000000000000000  0.0000000000000000  0.0646718040258928   T   T   T
  0.0000000000000000  0.0000000000000000  0.1353281959741101   T   T   T
  0.0000000000000000  0.0000000000000000  0.2047306134928545   T   T   T
  0.3333333333333357  0.6666666666666643  0.0285367041735100   T   T   T
  0.3333333333333357  0.6666666666666643  0.1000000000000014   T   T   T
  0.3333333333333357  0.6666666666666643  0.1714632958264858   T   T   T
 
  0.00000000E+00  0.00000000E+00  0.00000000E+00
  0.00000000E+00  0.00000000E+00  0.00000000E+00
  0.00000000E+00  0.00000000E+00  0.00000000E+00
  0.00000000E+00  0.00000000E+00  0.00000000E+00
  0.00000000E+00  0.00000000E+00  0.00000000E+00
  0.00000000E+00  0.00000000E+00  0.00000000E+00
  0.00000000E+00  0.00000000E+00  0.00000000E+00
