Cr4N3 (n=3)                             
   1.00000000000000     
     2.6419470264989644    0.0000000000000000    0.0000000000000000
    -1.3209735132494822    2.2879932404015371    0.0000000000000000
     0.0000000000000000    0.0000000000000000   44.2865172976924697
   Cr   N 
     4     3
Selective dynamics
Direct
  0.0000000000000000  0.0000000000000000  0.0126821665254451   T   T   T
  0.0000000000000000  0.0000000000000000  0.0704989314718709   T   T   T
  0.0000000000000000  0.0000000000000000  0.1295010685281319   T   T   T
  0.0000000000000000  0.0000000000000000  0.1873178334745577   T   T   T
  0.3333333333333357  0.6666666666666643  0.0396677167501132   T   T   T
  0.3333333333333357  0.6666666666666643  0.1000000000000014   T   T   T
  0.3333333333333357  0.6666666666666643  0.1603322832498825   T   T   T
 
  0.00000000E+00  0.00000000E+00  0.00000000E+00
  0.00000000E+00  0.00000000E+00  0.00000000E+00
  0.00000000E+00  0.00000000E+00  0.00000000E+00
  0.00000000E+00  0.00000000E+00  0.00000000E+00
  0.00000000E+00  0.00000000E+00  0.00000000E+00
  0.00000000E+00  0.00000000E+00  0.00000000E+00
  0.00000000E+00  0.00000000E+00  0.00000000E+00
