Mo4N3 (n=3)                             
   1.00000000000000     
     2.8511530925826287    0.0000000000000000    0.0000000000000000
    -1.4255765462913144    2.4691710082904663    0.0000000000000000
     0.0000000000000000    0.0000000000000000   40.5698858758531813
   Mo   N 
     4     3
Selective dynamics
Direct
  0.0000000000000000  0.0000000000000000  0.9954024903284390   T   T   T
  0.0000000000000000  0.0000000000000000  0.0647035269319196   T   T   T
  0.0000000000000000  0.0000000000000000  0.1352964730680833   T   T   T
  0.0000000000000000  0.0000000000000000  0.2045975096715638   T   T   T
  0.3333333333333357  0.6666666666666643  0.0294948824795378   T   T   T
  0.3333333333333357  0.6666666666666643  0.1000000000000014   T   T   T
  0.3333333333333357  0.6666666666666643  0.1705051175204580   T   T   T
 
  0.00000000E+00  0.00000000E+00  0.00000000E+00
  0.00000000E+00  0.00000000E+00  0.00000000E+00
  0.00000000E+00  0.00000000E+00  0.00000000E+00
  0.00000000E+00  0.00000000E+00  0.00000000E+00
  0.00000000E+00  0.00000000E+00  0.00000000E+00
  0.00000000E+00  0.00000000E+00  0.00000000E+00
  0.00000000E+00  0.00000000E+00  0.00000000E+00
