Ti4C3 (n=3)                             
   1.00000000000000     
     3.0777209586734071    0.0000000000000000    0.0000000000000000
    -1.5388604793367036    2.6653845361074855    0.0000000000000000
     0.0000000000000000    0.0000000000000000   35.6299565830878890
   Ti   C 
     4     3
Selective dynamics
Direct
  0.0000000000000000  0.0000000000000000 -0.0088822851666714   T   T   T
  0.0000000000000000  0.0000000000000000  0.0638795139512918   T   T   T
  0.0000000000000000  0.0000000000000000  0.1361204860487110   T   T   T
  0.0000000000000000  0.0000000000000000  0.2088822851666743   T   T   T
  0.3333333333333357  0.6666666666666643  0.0207487728055795   T   T   T
  0.3333333333333357  0.6666666666666643  0.1000000000000014   T   T   T
  0.3333333333333357  0.6666666666666643  0.1792512271944162   T   T   T
 
  0.00000000E+00  0.00000000E+00  0.00000000E+00
  0.00000000E+00  0.00000000E+00  0.00000000E+00
  0.00000000E+00  0.00000000E+00  0.00000000E+00
  0.00000000E+00  0.00000000E+00  0.00000000E+00
  0.00000000E+00  0.00000000E+00  0.00000000E+00
  0.00000000E+00  0.00000000E+00  0.00000000E+00
  0.00000000E+00  0.00000000E+00  0.00000000E+00
