Zr4N3 (n=3)                             
   1.00000000000000     
     3.1150704223333796    0.0000000000000001    0.0000000000000000
    -1.5575352111666898    2.6977301205269364    0.0000000000000000
     0.0000000000000000    0.0000000000000000   34.6125775106592002
   Zr   N 
     4     3
Selective dynamics
Direct
  0.0000000000000000  0.0000000000000000  0.9721216808432545   T   T   T
  0.0000000000000000  0.0000000000000000  0.0573321673636370   T   T   T
  0.0000000000000000  0.0000000000000000  0.1426678326363658   T   T   T
  0.0000000000000000  0.0000000000000000  0.2278783191567484   T   T   T
  0.3333333333333357  0.6666666666666643  0.0151061488119933   T   T   T
  0.3333333333333357  0.6666666666666643  0.1000000000000014   T   T   T
  0.3333333333333357  0.6666666666666643  0.1848938511880024   T   T   T
 
  0.00000000E+00  0.00000000E+00  0.00000000E+00
  0.00000000E+00  0.00000000E+00  0.00000000E+00
  0.00000000E+00  0.00000000E+00  0.00000000E+00
  0.00000000E+00  0.00000000E+00  0.00000000E+00
  0.00000000E+00  0.00000000E+00  0.00000000E+00
  0.00000000E+00  0.00000000E+00  0.00000000E+00
  0.00000000E+00  0.00000000E+00  0.00000000E+00
