Nb4N3 (n=3)                             
   1.00000000000000     
     2.9382779814367903    0.0000000000000000    0.0000000000000000
    -1.4691389907183952    2.5446233754036767    0.0000000000000000
     0.0000000000000000    0.0000000000000000   38.5669544092973027
   Nb   N 
     4     3
Selective dynamics
Direct
  0.0000000000000000  0.0000000000000000  0.9870886811277340   T   T   T
  0.0000000000000000  0.0000000000000000  0.0620784771551094   T   T   T
  0.0000000000000000  0.0000000000000000  0.1379215228448934   T   T   T
  0.0000000000000000  0.0000000000000000  0.2129113188722688   T   T   T
  0.3333333333333357  0.6666666666666643  0.0247535423914523   T   T   T
  0.3333333333333357  0.6666666666666643  0.1000000000000014   T   T   T
  0.3333333333333357  0.6666666666666643  0.1752464576085435   T   T   T
 
  0.00000000E+00  0.00000000E+00  0.00000000E+00
  0.00000000E+00  0.00000000E+00  0.00000000E+00
  0.00000000E+00  0.00000000E+00  0.00000000E+00
  0.00000000E+00  0.00000000E+00  0.00000000E+00
  0.00000000E+00  0.00000000E+00  0.00000000E+00
  0.00000000E+00  0.00000000E+00  0.00000000E+00
  0.00000000E+00  0.00000000E+00  0.00000000E+00
