Zr4C3 (n=3)                             
   1.00000000000000     
     3.3009250322141752    0.0000000000000000    0.0000000000000000
    -1.6504625161070876    2.8586849347738950    0.0000000000000000
     0.0000000000000000    0.0000000000000000   30.9743680710963076
   Zr   C 
     4     3
Selective dynamics
Direct
  0.0000000000000000  0.0000000000000000 -0.0376671143681486   T   T   T
  0.0000000000000000  0.0000000000000000  0.0546364837436222   T   T   T
  0.0000000000000000  0.0000000000000000  0.1453635162563806   T   T   T
  0.0000000000000000  0.0000000000000000  0.2376671143681515   T   T   T
  0.3333333333333357  0.6666666666666643 -0.0002576010812256   T   T   T
  0.3333333333333357  0.6666666666666643  0.1000000000000014   T   T   T
  0.3333333333333357  0.6666666666666643  0.2002576010812213   T   T   T
 
  0.00000000E+00  0.00000000E+00  0.00000000E+00
  0.00000000E+00  0.00000000E+00  0.00000000E+00
  0.00000000E+00  0.00000000E+00  0.00000000E+00
  0.00000000E+00  0.00000000E+00  0.00000000E+00
  0.00000000E+00  0.00000000E+00  0.00000000E+00
  0.00000000E+00  0.00000000E+00  0.00000000E+00
  0.00000000E+00  0.00000000E+00  0.00000000E+00
