Ti4N3  (n=3)
1.00000000000000
2.8925205013690976  0.0000000000000000  0.0000000000000000
-1.4462602506845488  2.5049962351898962  0.0000000000000000
0.0000000000000000  0.0000000000000000  38.0280250633668970
Ti  N
4  3
Selective  dynamics
Direct
0.0000000000000000  0.0000000000000000  0.0000000000000000  T  T  T
0.0000000000000000  0.0000000000000000  0.0703246552125805  T  T  T
0.0000000000000000  0.0000000000000000  0.1407834696503235  T  T  T
0.0000000000000000  0.0000000000000000  0.2111081248629040  T  T  T
0.3333333333333357  0.6666666666666643  0.0334377698011575  T  T  T
0.3333333333333357  0.6666666666666643  0.1055540624314520  T  T  T
0.3333333333333357  0.6666666666666643  0.1776703550617363  T  T  T

0.00000000E+00  0.00000000E+00  0.00000000E+00
0.00000000E+00  0.00000000E+00  0.00000000E+00
0.00000000E+00  0.00000000E+00  0.00000000E+00
0.00000000E+00  0.00000000E+00  0.00000000E+00
0.00000000E+00  0.00000000E+00  0.00000000E+00
0.00000000E+00  0.00000000E+00  0.00000000E+00
0.00000000E+00  0.00000000E+00  0.00000000E+00
