Ta4N3 (n=3)                             
   1.00000000000000     
     2.9163087050293046    0.0000000000000000    0.0000000000000000
    -1.4581543525146523    2.5255974239127212    0.0000000000000000
     0.0000000000000000    0.0000000000000000   39.1235412391868280
   Ta   N 
     4     3
Selective dynamics
Direct
  0.0000000000000000  0.0000000000000000  0.9883780670109225   T   T   T
  0.0000000000000000  0.0000000000000000  0.0626361445137484   T   T   T
  0.0000000000000000  0.0000000000000000  0.1373638554862545   T   T   T
  0.0000000000000000  0.0000000000000000  0.2116219329890803   T   T   T
  0.3333333333333357  0.6666666666666643  0.0260531436321384   T   T   T
  0.3333333333333357  0.6666666666666643  0.1000000000000014   T   T   T
  0.3333333333333357  0.6666666666666643  0.1739468563678573   T   T   T
 
  0.00000000E+00  0.00000000E+00  0.00000000E+00
  0.00000000E+00  0.00000000E+00  0.00000000E+00
  0.00000000E+00  0.00000000E+00  0.00000000E+00
  0.00000000E+00  0.00000000E+00  0.00000000E+00
  0.00000000E+00  0.00000000E+00  0.00000000E+00
  0.00000000E+00  0.00000000E+00  0.00000000E+00
  0.00000000E+00  0.00000000E+00  0.00000000E+00
