Hf4C3 (n=3)                             
   1.00000000000000     
     3.2453849039664666    0.0000000000000000    0.0000000000000000
    -1.6226924519832333    2.8105857725003847    0.0000000000000000
     0.0000000000000000    0.0000000000000000   32.0436038287283722
   Hf   C 
     4     3
Selective dynamics
Direct
  0.0000000000000000  0.0000000000000000 -0.0317175305677030   T   T   T
  0.0000000000000000  0.0000000000000000  0.0566294998013310   T   T   T
  0.0000000000000000  0.0000000000000000  0.1433705001986720   T   T   T
  0.0000000000000000  0.0000000000000000  0.2317175305677057   T   T   T
  0.3333333333333357  0.6666666666666643  0.0052385397529641   T   T   T
  0.3333333333333357  0.6666666666666643  0.1000000000000014   T   T   T
  0.3333333333333357  0.6666666666666643  0.1947614602470316   T   T   T
 
  0.00000000E+00  0.00000000E+00  0.00000000E+00
  0.00000000E+00  0.00000000E+00  0.00000000E+00
  0.00000000E+00  0.00000000E+00  0.00000000E+00
  0.00000000E+00  0.00000000E+00  0.00000000E+00
  0.00000000E+00  0.00000000E+00  0.00000000E+00
  0.00000000E+00  0.00000000E+00  0.00000000E+00
  0.00000000E+00  0.00000000E+00  0.00000000E+00
