Sc4N3 (n=3)                             
   1.00000000000000     
     3.1489925198625639    0.0000000000000000    0.0000000000000000
    -1.5744962599312819    2.7271075187472311    0.0000000000000000
     0.0000000000000000    0.0000000000000000   33.9750312385578610
   Sc   N 
     4     3
Selective dynamics
Direct
  0.0000000000000000  0.0000000000000000  0.9790926218874297   T   T   T
  0.0000000000000000  0.0000000000000000  0.0599925879381157   T   T   T
  0.0000000000000000  0.0000000000000000  0.1400074120618871   T   T   T
  0.0000000000000000  0.0000000000000000  0.2209073781125732   T   T   T
  0.3333333333333357  0.6666666666666643  0.0134204181442895   T   T   T
  0.3333333333333357  0.6666666666666643  0.1000000000000014   T   T   T
  0.3333333333333357  0.6666666666666643  0.1865795818557062   T   T   T
 
  0.00000000E+00  0.00000000E+00  0.00000000E+00
  0.00000000E+00  0.00000000E+00  0.00000000E+00
  0.00000000E+00  0.00000000E+00  0.00000000E+00
  0.00000000E+00  0.00000000E+00  0.00000000E+00
  0.00000000E+00  0.00000000E+00  0.00000000E+00
  0.00000000E+00  0.00000000E+00  0.00000000E+00
  0.00000000E+00  0.00000000E+00  0.00000000E+00
