Cr4C3 (n=3)                             
   1.00000000000000     
     2.6671287420872702    0.0000000000000000    0.0000000000000000
    -1.3335643710436351    2.3098012458057715    0.0000000000000000
     0.0000000000000000    0.0000000000000000   45.9897640079441459
   Cr   C 
     4     3
Selective dynamics
Direct
  0.0000000000000000  0.0000000000000000  0.0153161776473191   T   T   T
  0.0000000000000000  0.0000000000000000  0.0714367904118076   T   T   T
  0.0000000000000000  0.0000000000000000  0.1285632095881881   T   T   T
  0.0000000000000000  0.0000000000000000  0.1846838223526838   T   T   T
  0.3333333333333357  0.6666666666666643  0.0419352439937796   T   T   T
  0.3333333333333357  0.6666666666666643  0.1000000000000014   T   T   T
  0.3333333333333357  0.6666666666666643  0.1580647560062161   T   T   T
 
  0.00000000E+00  0.00000000E+00  0.00000000E+00
  0.00000000E+00  0.00000000E+00  0.00000000E+00
  0.00000000E+00  0.00000000E+00  0.00000000E+00
  0.00000000E+00  0.00000000E+00  0.00000000E+00
  0.00000000E+00  0.00000000E+00  0.00000000E+00
  0.00000000E+00  0.00000000E+00  0.00000000E+00
  0.00000000E+00  0.00000000E+00  0.00000000E+00
