Hf4N3 (n=3)                             
   1.00000000000000     
     3.0661092526132427   -0.0000000000000001    0.0000000000000000
    -1.5330546263066214    2.6553285037157535    0.0000000000000000
     0.0000000000000000    0.0000000000000000   35.7173545929136367
   Hf   N 
     4     3
Selective dynamics
Direct
  0.0000000000000000  0.0000000000000000  0.9771657017925292   T   T   T
  0.0000000000000000  0.0000000000000000  0.0592203596177320   T   T   T
  0.0000000000000000  0.0000000000000000  0.1407796403822708   T   T   T
  0.0000000000000000  0.0000000000000000  0.2228342982074738   T   T   T
  0.3333333333333357  0.6666666666666643  0.0190935883323816   T   T   T
  0.3333333333333357  0.6666666666666643  0.1000000000000014   T   T   T
  0.3333333333333357  0.6666666666666643  0.1809064116676141   T   T   T
 
  0.00000000E+00  0.00000000E+00  0.00000000E+00
  0.00000000E+00  0.00000000E+00  0.00000000E+00
  0.00000000E+00  0.00000000E+00  0.00000000E+00
  0.00000000E+00  0.00000000E+00  0.00000000E+00
  0.00000000E+00  0.00000000E+00  0.00000000E+00
  0.00000000E+00  0.00000000E+00  0.00000000E+00
  0.00000000E+00  0.00000000E+00  0.00000000E+00
