Nb4C3 (n=3)                             
   1.00000000000000     
     3.0373292666356444    0.0000000000000000    0.0000000000000000
    -1.5186646333178222    2.6304043047314267    0.0000000000000000
     0.0000000000000000    0.0000000000000000   36.9766110206322836
   Nb   C 
     4     3
Selective dynamics
Direct
  0.0000000000000000  0.0000000000000000  0.9839532083365974   T   T   T
  0.0000000000000000  0.0000000000000000  0.0609673907968307   T   T   T
  0.0000000000000000  0.0000000000000000  0.1390326092031722   T   T   T
  0.0000000000000000  0.0000000000000000  0.2160467916634054   T   T   T
  0.3333333333333357  0.6666666666666643  0.0202191997553345   T   T   T
  0.3333333333333357  0.6666666666666643  0.1000000000000014   T   T   T
  0.3333333333333357  0.6666666666666643  0.1797808002446612   T   T   T
 
  0.00000000E+00  0.00000000E+00  0.00000000E+00
  0.00000000E+00  0.00000000E+00  0.00000000E+00
  0.00000000E+00  0.00000000E+00  0.00000000E+00
  0.00000000E+00  0.00000000E+00  0.00000000E+00
  0.00000000E+00  0.00000000E+00  0.00000000E+00
  0.00000000E+00  0.00000000E+00  0.00000000E+00
  0.00000000E+00  0.00000000E+00  0.00000000E+00
