Sc4C3 (n=3)                             
   1.00000000000000     
     3.3028611959412730    0.0000000000000000    0.0000000000000000
    -1.6514305979706365    2.8603617014013754    0.0000000000000000
     0.0000000000000000    0.0000000000000000   30.9380638728211395
   Sc   C 
     4     3
Selective dynamics
Direct
  0.0000000000000000  0.0000000000000000 -0.0346414710184000   T   T   T
  0.0000000000000000  0.0000000000000000  0.0549390888544062   T   T   T
  0.0000000000000000  0.0000000000000000  0.1450609111455967   T   T   T
  0.0000000000000000  0.0000000000000000  0.2346414710184028   T   T   T
  0.3333333333333357  0.6666666666666643 -0.0012971869669755   T   T   T
  0.3333333333333357  0.6666666666666643  0.1000000000000014   T   T   T
  0.3333333333333357  0.6666666666666643  0.2012971869669712   T   T   T
 
  0.00000000E+00  0.00000000E+00  0.00000000E+00
  0.00000000E+00  0.00000000E+00  0.00000000E+00
  0.00000000E+00  0.00000000E+00  0.00000000E+00
  0.00000000E+00  0.00000000E+00  0.00000000E+00
  0.00000000E+00  0.00000000E+00  0.00000000E+00
  0.00000000E+00  0.00000000E+00  0.00000000E+00
  0.00000000E+00  0.00000000E+00  0.00000000E+00
