Ta4C3 (n=3)                             
   1.00000000000000     
     3.0258344419861061    0.0000000000000000    0.0000000000000000
    -1.5129172209930530    2.6204494945954120    0.0000000000000000
     0.0000000000000000    0.0000000000000000   36.8623869078216018
   Ta   C 
     4     3
Selective dynamics
Direct
  0.0000000000000000  0.0000000000000000 -0.0159775745167408   T   T   T
  0.0000000000000000  0.0000000000000000  0.0610040618644211   T   T   T
  0.0000000000000000  0.0000000000000000  0.1389959381355817   T   T   T
  0.0000000000000000  0.0000000000000000  0.2159775745167436   T   T   T
  0.3333333333333357  0.6666666666666643  0.0206779719412250   T   T   T
  0.3333333333333357  0.6666666666666643  0.1000000000000014   T   T   T
  0.3333333333333357  0.6666666666666643  0.1793220280587707   T   T   T
 
  0.00000000E+00  0.00000000E+00  0.00000000E+00
  0.00000000E+00  0.00000000E+00  0.00000000E+00
  0.00000000E+00  0.00000000E+00  0.00000000E+00
  0.00000000E+00  0.00000000E+00  0.00000000E+00
  0.00000000E+00  0.00000000E+00  0.00000000E+00
  0.00000000E+00  0.00000000E+00  0.00000000E+00
  0.00000000E+00  0.00000000E+00  0.00000000E+00
