Cr4N3  (n=3)
1.00000000000000
2.6590290249348381  0.0000000000000000  0.0000000000000000
-1.3295145124674190  2.3027866849946133  0.0000000000000000
-0.0000000000000002  0.0000000000000002  34.8720332768464942
Cr  N  H
4  3  2
Selective  dynamics
Direct
0.0000000000000000  0.0000000000000000  0.0309510709772850  T  T  T
0.0000000000000000  0.0000000000000000  0.1054352651518947  T  T  T
0.0000000000000000  0.0000000000000000  0.1799959261339323  T  T  T
0.0000000000000000  0.0000000000000000  0.2539652239959666  T  T  T
0.3333333333333357  0.6666666666666643  0.0674432359363835  T  T  T
0.3333333333333357  0.6666666666666643  0.1426845707819706  T  T  T
0.3333333333333357  0.6666666666666643  0.2181775321986184  T  T  T
0.3333333333333357  0.6666666666666643  0.0000000000000000  T  T  T
0.6666666666666643  0.3333333333333357  0.2830931365106574  T  T  T

0.00000000E+00  0.00000000E+00  0.00000000E+00
0.00000000E+00  0.00000000E+00  0.00000000E+00
0.00000000E+00  0.00000000E+00  0.00000000E+00
0.00000000E+00  0.00000000E+00  0.00000000E+00
0.00000000E+00  0.00000000E+00  0.00000000E+00
0.00000000E+00  0.00000000E+00  0.00000000E+00
0.00000000E+00  0.00000000E+00  0.00000000E+00
0.00000000E+00  0.00000000E+00  0.00000000E+00
0.00000000E+00  0.00000000E+00  0.00000000E+00
