Zr4C3  (n=3)
1.00000000000000
3.2775494704914325  0.0000000000000000  0.0000000000000000
-1.6387747352457163  2.8384411045021665  0.0000000000000000
-0.0000000000000002  0.0000000000000002  35.9347080513322226
Zr  C  H
4  3  2
Selective  dynamics
Direct
0.0000000000000000  0.0000000000000000  0.0338141839614957  T  T  T
0.0000000000000000  0.0000000000000000  0.1149926347710738  T  T  T
0.0000000000000000  0.0000000000000000  0.1939555998801300  T  T  T
0.0000000000000000  0.0000000000000000  0.2739212680897533  T  T  T
0.3333333333333357  0.6666666666666643  0.0698443536041318  T  T  T
0.3333333333333357  0.6666666666666643  0.1546088714662852  T  T  T
0.3333333333333357  0.6666666666666643  0.2396666644867159  T  T  T
0.3333333333333357  0.6666666666666643  0.0000000000000000  T  T  T
0.6666666666666643  0.3333333333333357  0.3042937773617682  T  T  T

0.00000000E+00  0.00000000E+00  0.00000000E+00
0.00000000E+00  0.00000000E+00  0.00000000E+00
0.00000000E+00  0.00000000E+00  0.00000000E+00
0.00000000E+00  0.00000000E+00  0.00000000E+00
0.00000000E+00  0.00000000E+00  0.00000000E+00
0.00000000E+00  0.00000000E+00  0.00000000E+00
0.00000000E+00  0.00000000E+00  0.00000000E+00
0.00000000E+00  0.00000000E+00  0.00000000E+00
0.00000000E+00  0.00000000E+00  0.00000000E+00
