Hf4N3  (n=3)
1.00000000000000
3.0713646382875535  0.0000000000000003  0.0000000000000000
-1.5356823191437765  2.6598798012335836  0.0000000000000000
0.0000000000000004  0.0000000000000001  35.9235532263015216
Hf  N  H
4  3  2
Selective  dynamics
Direct
0.0000000000000000  0.0000000000000000  0.0320209840688759  T  T  T
0.0000000000000000  0.0000000000000000  0.1129450499347477  T  T  T
0.0000000000000000  0.0000000000000000  0.1942576572381899  T  T  T
0.0000000000000000  0.0000000000000000  0.2751673816442445  T  T  T
0.3333333333333357  0.6666666666666643  0.0724141491029241  T  T  T
0.3333333333333357  0.6666666666666643  0.1536687161015500  T  T  T
0.3333333333333357  0.6666666666666643  0.2347175391203069  T  T  T
0.3333333333333357  0.6666666666666643  0.0000000000000000  T  T  T
0.6666666666666643  0.3333333333333357  0.3040777497005450  T  T  T

0.00000000E+00  0.00000000E+00  0.00000000E+00
0.00000000E+00  0.00000000E+00  0.00000000E+00
0.00000000E+00  0.00000000E+00  0.00000000E+00
0.00000000E+00  0.00000000E+00  0.00000000E+00
0.00000000E+00  0.00000000E+00  0.00000000E+00
0.00000000E+00  0.00000000E+00  0.00000000E+00
0.00000000E+00  0.00000000E+00  0.00000000E+00
0.00000000E+00  0.00000000E+00  0.00000000E+00
0.00000000E+00  0.00000000E+00  0.00000000E+00
