Sc4C3  (n=3)
1.00000000000000
3.3306299655195302  0.0000000000000000  0.0000000000000000
-1.6653149827597651  2.8844101610288817  -0.0000000000000001
0.0000000000000000  0.0000000000000001  35.1820680782538204
Sc  C  H
4  3  2
Selective  dynamics
Direct
-0.0000000000000000  0.0000000000000000  0.0310695262773027  T  T  T
-0.0000000000000000  0.0000000000000000  0.1083385437349896  T  T  T
-0.0000000000000000  0.0000000000000000  0.1847369126125814  T  T  T
-0.0000000000000000  0.0000000000000000  0.2616815307197342  T  T  T
0.3333333333333357  0.6666666666666643  0.0681607838725100  T  T  T
0.3333333333333357  0.6666666666666643  0.1442011331326401  T  T  T
0.3333333333333357  0.6666666666666643  0.2245832457059345  T  T  T
0.3333333333333357  0.6666666666666643  0.0000000000000000  T  T  T
0.6666666666666643  0.3333333333333357  0.2894107320697101  T  T  T

0.00000000E+00  0.00000000E+00  0.00000000E+00
0.00000000E+00  0.00000000E+00  0.00000000E+00
0.00000000E+00  0.00000000E+00  0.00000000E+00
0.00000000E+00  0.00000000E+00  0.00000000E+00
0.00000000E+00  0.00000000E+00  0.00000000E+00
0.00000000E+00  0.00000000E+00  0.00000000E+00
0.00000000E+00  0.00000000E+00  0.00000000E+00
0.00000000E+00  0.00000000E+00  0.00000000E+00
0.00000000E+00  0.00000000E+00  0.00000000E+00
