Nb4C3  (n=3)
1.00000000000000
3.0423028883828267  -0.0000000000000001  0.0000000000000000
-1.5211514441914133  2.6347115875459122  0.0000000000000000
0.0000000000000001  0.0000000000000002  35.7422395357328071
Nb  C  H
4  3  2
Selective  dynamics
Direct
-0.0000000000000000  -0.0000000000000000  0.0313053106452612  T  T  T
-0.0000000000000000  -0.0000000000000000  0.1111817339104044  T  T  T
-0.0000000000000000  -0.0000000000000000  0.1919568858461259  T  T  T
-0.0000000000000000  -0.0000000000000000  0.2721108598348025  T  T  T
0.3333333333333357  0.6666666666666643  0.0694793232878513  T  T  T
0.3333333333333357  0.6666666666666643  0.1516036283978151  T  T  T
0.3333333333333357  0.6666666666666643  0.2334213128515881  T  T  T
0.3333333333333357  0.6666666666666643  0.0000000000000000  T  T  T
0.6666666666666643  0.3333333333333357  0.3005474663945835  T  T  T

0.00000000E+00  0.00000000E+00  0.00000000E+00
0.00000000E+00  0.00000000E+00  0.00000000E+00
0.00000000E+00  0.00000000E+00  0.00000000E+00
0.00000000E+00  0.00000000E+00  0.00000000E+00
0.00000000E+00  0.00000000E+00  0.00000000E+00
0.00000000E+00  0.00000000E+00  0.00000000E+00
0.00000000E+00  0.00000000E+00  0.00000000E+00
0.00000000E+00  0.00000000E+00  0.00000000E+00
0.00000000E+00  0.00000000E+00  0.00000000E+00
