Ta4N3  (n=3)
1.00000000000000
2.9261568277957513  0.0000000000000000  0.0000000000000000
-1.4630784138978759  2.5341261484401252  0.0000000000000000
-0.0000000000000002  -0.0000000000000002  35.9608845982027390
Ta  N  H
4  3  2
Selective  dynamics
Direct
-0.0000000000000000  0.0000000000000000  0.0311253394654578  T  T  T
-0.0000000000000000  0.0000000000000000  0.1123457011148731  T  T  T
-0.0000000000000000  -0.0000000000000000  0.1933380554572701  T  T  T
-0.0000000000000000  -0.0000000000000000  0.2744070604642805  T  T  T
0.3333333333333357  0.6666666666666643  0.0722285617652279  T  T  T
0.3333333333333357  0.6666666666666643  0.1527539815293733  T  T  T
0.3333333333333357  0.6666666666666643  0.2332956154823889  T  T  T
0.3333333333333357  0.6666666666666643  0.0000000000000000  T  T  T
0.6666666666666643  0.3333333333333357  0.3048001938959685  T  T  T

0.00000000E+00  0.00000000E+00  0.00000000E+00
0.00000000E+00  0.00000000E+00  0.00000000E+00
0.00000000E+00  0.00000000E+00  0.00000000E+00
0.00000000E+00  0.00000000E+00  0.00000000E+00
0.00000000E+00  0.00000000E+00  0.00000000E+00
0.00000000E+00  0.00000000E+00  0.00000000E+00
0.00000000E+00  0.00000000E+00  0.00000000E+00
0.00000000E+00  0.00000000E+00  0.00000000E+00
0.00000000E+00  0.00000000E+00  0.00000000E+00
