Zr4N3  (n=3)
1.00000000000000
3.1306964138282605  0.0000000000000000  0.0000000000000000
-1.5653482069141305  2.7112626261949093  0.0000000000000000
0.0000000000000000  -0.0000000000000004  36.0548553731017876
Zr  N  H
4  3  2
Selective  dynamics
Direct
-0.0000000000000000  0.0000000000000000  0.0324273389359822  T  T  T
-0.0000000000000000  0.0000000000000000  0.1138280964997126  T  T  T
-0.0000000000000000  0.0000000000000000  0.1958310025887756  T  T  T
-0.0000000000000000  0.0000000000000000  0.2771664958350278  T  T  T
0.3333333333333357  0.6666666666666643  0.0727520806013294  T  T  T
0.3333333333333357  0.6666666666666643  0.1546352832270512  T  T  T
0.3333333333333357  0.6666666666666643  0.2365894163924357  T  T  T
0.3333333333333357  0.6666666666666643  0.0000000000000000  T  T  T
0.6666666666666643  0.3333333333333357  0.3066121125353092  T  T  T

0.00000000E+00  0.00000000E+00  0.00000000E+00
0.00000000E+00  0.00000000E+00  0.00000000E+00
0.00000000E+00  0.00000000E+00  0.00000000E+00
0.00000000E+00  0.00000000E+00  0.00000000E+00
0.00000000E+00  0.00000000E+00  0.00000000E+00
0.00000000E+00  0.00000000E+00  0.00000000E+00
0.00000000E+00  0.00000000E+00  0.00000000E+00
0.00000000E+00  0.00000000E+00  0.00000000E+00
0.00000000E+00  0.00000000E+00  0.00000000E+00
