Nb4N3  (n=3)
1.00000000000000
2.9491090063492718  0.0000000000000000  0.0000000000000000
-1.4745545031746359  2.5540033181709836  0.0000000000000000
0.0000000000000000  0.0000000000000000  35.9691247974470016
Nb  N  H
4  3  2
Selective  dynamics
Direct
-0.0000000000000000  0.0000000000000000  0.0317213577275462  T  T  T
-0.0000000000000000  0.0000000000000000  0.1128141573481495  T  T  T
-0.0000000000000000  0.0000000000000000  0.1938482755816053  T  T  T
-0.0000000000000000  0.0000000000000000  0.2746259554357016  T  T  T
0.3333333333333357  0.6666666666666643  0.0725181226894649  T  T  T
0.3333333333333357  0.6666666666666643  0.1531804153978412  T  T  T
0.3333333333333357  0.6666666666666643  0.2336956216623856  T  T  T
0.3333333333333357  0.6666666666666643  0.0000000000000000  T  T  T
0.6666666666666643  0.3333333333333357  0.3049594578466241  T  T  T

0.00000000E+00  0.00000000E+00  0.00000000E+00
0.00000000E+00  0.00000000E+00  0.00000000E+00
0.00000000E+00  0.00000000E+00  0.00000000E+00
0.00000000E+00  0.00000000E+00  0.00000000E+00
0.00000000E+00  0.00000000E+00  0.00000000E+00
0.00000000E+00  0.00000000E+00  0.00000000E+00
0.00000000E+00  0.00000000E+00  0.00000000E+00
0.00000000E+00  0.00000000E+00  0.00000000E+00
0.00000000E+00  0.00000000E+00  0.00000000E+00
