Mo4N3  (n=3)
1.00000000000000
2.8470237535529441  0.0000000000000000  0.0000000000000000
-1.4235118767764721  2.4655948957960461  0.0000000000000000
0.0000000000000003  0.0000000000000002  35.8281385891811297
Mo  N  H
4  3  2
Selective  dynamics
Direct
0.0000000000000000  -0.0000000000000000  0.0319275737288083  T  T  T
0.0000000000000000  -0.0000000000000000  0.1116634301986586  T  T  T
0.0000000000000000  -0.0000000000000000  0.1920310492393767  T  T  T
0.0000000000000000  -0.0000000000000000  0.2706569606134999  T  T  T
0.3333333333333357  0.6666666666666643  0.0724457379033088  T  T  T
0.3333333333333357  0.6666666666666643  0.1521730819031118  T  T  T
0.3333333333333357  0.6666666666666643  0.2315745392698983  T  T  T
0.3333333333333357  0.6666666666666643  0.0000000000000000  T  T  T
0.6666666666666643  0.3333333333333357  0.3022244251464087  T  T  T

0.00000000E+00  0.00000000E+00  0.00000000E+00
0.00000000E+00  0.00000000E+00  0.00000000E+00
0.00000000E+00  0.00000000E+00  0.00000000E+00
0.00000000E+00  0.00000000E+00  0.00000000E+00
0.00000000E+00  0.00000000E+00  0.00000000E+00
0.00000000E+00  0.00000000E+00  0.00000000E+00
0.00000000E+00  0.00000000E+00  0.00000000E+00
0.00000000E+00  0.00000000E+00  0.00000000E+00
0.00000000E+00  0.00000000E+00  0.00000000E+00
