Hf4C3  (n=3)
1.00000000000000
3.2263802186102044  0.0000000000000000  0.0000000000000000
-1.6131901093051020  2.7941272321911903  0.0000000000000000
0.0000000000000002  0.0000000000000000  35.8153045791406797
Hf  C  H
4  3  2
Selective  dynamics
Direct
-0.0000000000000000  -0.0000000000000000  0.0339852431548184  T  T  T
-0.0000000000000000  -0.0000000000000000  0.1143610091077537  T  T  T
-0.0000000000000000  -0.0000000000000000  0.1926570985475067  T  T  T
-0.0000000000000000  -0.0000000000000000  0.2716356293779101  T  T  T
0.3333333333333357  0.6666666666666643  0.0700284260446642  T  T  T
0.3333333333333357  0.6666666666666643  0.1538015923885508  T  T  T
0.3333333333333357  0.6666666666666643  0.2378950689692861  T  T  T
0.3333333333333357  0.6666666666666643  0.0000000000000000  T  T  T
0.6666666666666643  0.3333333333333357  0.3019743851470598  T  T  T

0.00000000E+00  0.00000000E+00  0.00000000E+00
0.00000000E+00  0.00000000E+00  0.00000000E+00
0.00000000E+00  0.00000000E+00  0.00000000E+00
0.00000000E+00  0.00000000E+00  0.00000000E+00
0.00000000E+00  0.00000000E+00  0.00000000E+00
0.00000000E+00  0.00000000E+00  0.00000000E+00
0.00000000E+00  0.00000000E+00  0.00000000E+00
0.00000000E+00  0.00000000E+00  0.00000000E+00
0.00000000E+00  0.00000000E+00  0.00000000E+00
