Ti4N3  (n=3)
1.00000000000000
2.8829298408558373  0.0000000000000000  0.0000000000000000
-1.4414649204279182  2.4966904795417322  0.0000000000000000
-0.0000000000000002  -0.0000000000000004  35.1864369212661643
Ti  N  H
4  3  2
Selective  dynamics
Direct
-0.0000000000000000  -0.0000000000000000  0.0318894681633309  T  T  T
-0.0000000000000000  -0.0000000000000000  0.1080807454867968  T  T  T
-0.0000000000000000  -0.0000000000000000  0.1849270057079208  T  T  T
-0.0000000000000000  0.0000000000000000  0.2608867113214471  T  T  T
0.3333333333333357  0.6666666666666643  0.0690254041455550  T  T  T
0.3333333333333357  0.6666666666666643  0.1465704157159067  T  T  T
0.3333333333333357  0.6666666666666643  0.2240672718362305  T  T  T
0.3333333333333357  0.6666666666666643  0.0000000000000000  T  T  T
0.6666666666666643  0.3333333333333357  0.2894989607518239  T  T  T

0.00000000E+00  0.00000000E+00  0.00000000E+00
0.00000000E+00  0.00000000E+00  0.00000000E+00
0.00000000E+00  0.00000000E+00  0.00000000E+00
0.00000000E+00  0.00000000E+00  0.00000000E+00
0.00000000E+00  0.00000000E+00  0.00000000E+00
0.00000000E+00  0.00000000E+00  0.00000000E+00
0.00000000E+00  0.00000000E+00  0.00000000E+00
0.00000000E+00  0.00000000E+00  0.00000000E+00
0.00000000E+00  0.00000000E+00  0.00000000E+00
