Sc4N3  (n=3)
1.00000000000000
3.1179417781584866  0.0000000000000001  0.0000000000000000
-1.5589708890792433  2.7002167875675513  0.0000000000000000
0.0000000000000000  -0.0000000000000001  35.5877979927182508
Sc  N  H
4  3  2
Selective  dynamics
Direct
-0.0000000000000000  0.0000000000000000  0.0340964018977512  T  T  T
-0.0000000000000000  0.0000000000000000  0.1123135689195942  T  T  T
-0.0000000000000000  0.0000000000000000  0.1892719808287433  T  T  T
-0.0000000000000000  0.0000000000000000  0.2667569649625642  T  T  T
0.3333333333333357  0.6666666666666643  0.0698170604234420  T  T  T
0.3333333333333357  0.6666666666666643  0.1514450241756055  T  T  T
0.3333333333333357  0.6666666666666643  0.2333805437772666  T  T  T
0.3333333333333357  0.6666666666666643  0.0000000000000000  T  T  T
0.6666666666666643  0.3333333333333357  0.2975120291197746  T  T  T

0.00000000E+00  0.00000000E+00  0.00000000E+00
0.00000000E+00  0.00000000E+00  0.00000000E+00
0.00000000E+00  0.00000000E+00  0.00000000E+00
0.00000000E+00  0.00000000E+00  0.00000000E+00
0.00000000E+00  0.00000000E+00  0.00000000E+00
0.00000000E+00  0.00000000E+00  0.00000000E+00
0.00000000E+00  0.00000000E+00  0.00000000E+00
0.00000000E+00  0.00000000E+00  0.00000000E+00
0.00000000E+00  0.00000000E+00  0.00000000E+00
