Cr4C3  (n=3)
1.00000000000000
2.6727208267020059  0.0000000000000000  0.0000000000000000
-1.3363604133510030  2.3146441331416243  0.0000000000000000
-0.0000000000000002  0.0000000000000001  34.8605168753283579
Cr  C  H
4  3  2
Selective  dynamics
Direct
-0.0000000000000000  -0.0000000000000000  0.0299321185500106  T  T  T
-0.0000000000000000  -0.0000000000000000  0.1049587373944699  T  T  T
-0.0000000000000000  -0.0000000000000000  0.1806238189311139  T  T  T
-0.0000000000000000  -0.0000000000000000  0.2552383860197228  T  T  T
0.3333333333333357  0.6666666666666643  0.0661713593636801  T  T  T
0.3333333333333357  0.6666666666666643  0.1425729472170753  T  T  T
0.3333333333333357  0.6666666666666643  0.2188591470324805  T  T  T
0.3333333333333357  0.6666666666666643  0.0000000000000000  T  T  T
0.6666666666666643  0.3333333333333357  0.2828563016031151  T  T  T

0.00000000E+00  0.00000000E+00  0.00000000E+00
0.00000000E+00  0.00000000E+00  0.00000000E+00
0.00000000E+00  0.00000000E+00  0.00000000E+00
0.00000000E+00  0.00000000E+00  0.00000000E+00
0.00000000E+00  0.00000000E+00  0.00000000E+00
0.00000000E+00  0.00000000E+00  0.00000000E+00
0.00000000E+00  0.00000000E+00  0.00000000E+00
0.00000000E+00  0.00000000E+00  0.00000000E+00
0.00000000E+00  0.00000000E+00  0.00000000E+00
