Mo4C3  (n=3)
1.00000000000000
2.9040738977712528  0.0000000000000000  0.0000000000000000
-1.4520369488856264  2.5150017700229683  0.0000000000000000
0.0000000000000001  0.0000000000000001  35.5744663668877834
Mo  C  H
4  3  2
Selective  dynamics
Direct
-0.0000000000000000  0.0000000000000000  0.0301402100806867  T  T  T
-0.0000000000000000  0.0000000000000000  0.1094754499107538  T  T  T
-0.0000000000000000  0.0000000000000000  0.1895535569991101  T  T  T
-0.0000000000000000  0.0000000000000000  0.2682608882751096  T  T  T
0.3333333333333357  0.6666666666666643  0.0686621445680003  T  T  T
0.3333333333333357  0.6666666666666643  0.1491851723960708  T  T  T
0.3333333333333357  0.6666666666666643  0.2293786926813071  T  T  T
0.3333333333333357  0.6666666666666643  0.0000000000000000  T  T  T
0.6666666666666643  0.3333333333333357  0.2972487698854241  T  T  T

0.00000000E+00  0.00000000E+00  0.00000000E+00
0.00000000E+00  0.00000000E+00  0.00000000E+00
0.00000000E+00  0.00000000E+00  0.00000000E+00
0.00000000E+00  0.00000000E+00  0.00000000E+00
0.00000000E+00  0.00000000E+00  0.00000000E+00
0.00000000E+00  0.00000000E+00  0.00000000E+00
0.00000000E+00  0.00000000E+00  0.00000000E+00
0.00000000E+00  0.00000000E+00  0.00000000E+00
0.00000000E+00  0.00000000E+00  0.00000000E+00
