Ta4C3  (n=3)
1.00000000000000
3.0232108442944718  -0.0000000000000001  0.0000000000000000
-1.5116054221472355  2.6181773923639584  0.0000000000000000
-0.0000000000000001  0.0000000000000003  35.7247130952607108
Ta  C  H
4  3  2
Selective  dynamics
Direct
-0.0000000000000000  -0.0000000000000000  0.0315474745880691  T  T  T
-0.0000000000000000  -0.0000000000000000  0.1113296144550487  T  T  T
-0.0000000000000000  -0.0000000000000000  0.1918643924555089  T  T  T
-0.0000000000000000  -0.0000000000000000  0.2718766982740772  T  T  T
0.3333333333333357  0.6666666666666643  0.0698383357319450  T  T  T
0.3333333333333357  0.6666666666666643  0.1515440986588721  T  T  T
0.3333333333333357  0.6666666666666643  0.2333220072544120  T  T  T
0.3333333333333357  0.6666666666666643  0.0000000000000000  T  T  T
0.6666666666666643  0.3333333333333357  0.3002043170133525  T  T  T

0.00000000E+00  0.00000000E+00  0.00000000E+00
0.00000000E+00  0.00000000E+00  0.00000000E+00
0.00000000E+00  0.00000000E+00  0.00000000E+00
0.00000000E+00  0.00000000E+00  0.00000000E+00
0.00000000E+00  0.00000000E+00  0.00000000E+00
0.00000000E+00  0.00000000E+00  0.00000000E+00
0.00000000E+00  0.00000000E+00  0.00000000E+00
0.00000000E+00  0.00000000E+00  0.00000000E+00
0.00000000E+00  0.00000000E+00  0.00000000E+00
