Ti4C3  (n=3)
1.00000000000000
3.0270310656778001  -0.0000000000000001  0.0000000000000000
-1.5135155328389001  2.6214858009944115  0.0000000000000000
-0.0000000000000004  0.0000000000000007  35.0853487708890697
Ti  C  H
4  3  2
Selective  dynamics
Direct
-0.0000000000000000  -0.0000000000000000  0.0329815443311607  T  T  T
0.0000000000000000  0.0000000000000000  0.1091051880202551  T  T  T
0.0000000000000000  0.0000000000000000  0.1836327121210869  T  T  T
0.0000000000000000  0.0000000000000000  0.2584331274582900  T  T  T
0.3333333333333357  0.6666666666666643  0.0674120600987789  T  T  T
0.3333333333333357  0.6666666666666643  0.1466485406590698  T  T  T
0.3333333333333357  0.6666666666666643  0.2259836480281026  T  T  T
0.3333333333333357  0.6666666666666643  0.0000000000000000  T  T  T
0.6666666666666643  0.3333333333333357  0.2874518602265416  T  T  T

0.00000000E+00  0.00000000E+00  0.00000000E+00
0.00000000E+00  0.00000000E+00  0.00000000E+00
0.00000000E+00  0.00000000E+00  0.00000000E+00
0.00000000E+00  0.00000000E+00  0.00000000E+00
0.00000000E+00  0.00000000E+00  0.00000000E+00
0.00000000E+00  0.00000000E+00  0.00000000E+00
0.00000000E+00  0.00000000E+00  0.00000000E+00
0.00000000E+00  0.00000000E+00  0.00000000E+00
0.00000000E+00  0.00000000E+00  0.00000000E+00
