Hf3N2  (n=2)
1.00000000000000
3.1683460477276015  0.0000000000000000  0.0000000000000000
-1.5841730238638008  2.7438681660451123  0.0000000000000000
0.0000000000000000  0.0000000000000000  34.3635692726083022
Hf  N  Cl
3  2  2
Selective  dynamics
Direct
-0.0000000000000000  -0.0000000000000000  0.0523418843320953  T  T  T
-0.0000000000000000  -0.0000000000000000  0.1362426760492562  T  T  T
-0.0000000000000000  -0.0000000000000000  0.2201434677664172  T  T  T
0.3333333333333357  0.6666666666666643  0.0934564552176166  T  T  T
0.3333333333333357  0.6666666666666643  0.1790288968809032  T  T  T
0.3333333333333357  0.6666666666666643  0.0000000000000000  T  T  T
0.3333333333333357  0.6666666666666643  0.2724853520985125  T  T  T

0.00000000E+00  0.00000000E+00  0.00000000E+00
0.00000000E+00  0.00000000E+00  0.00000000E+00
0.00000000E+00  0.00000000E+00  0.00000000E+00
0.00000000E+00  0.00000000E+00  0.00000000E+00
0.00000000E+00  0.00000000E+00  0.00000000E+00
0.00000000E+00  0.00000000E+00  0.00000000E+00
0.00000000E+00  0.00000000E+00  0.00000000E+00
