Sc3C2  (n=2)
1.00000000000000
3.3807917672578665  -0.0000000000000001  -0.0000000000000000
-1.6903958836289334  2.9278515565335055  0.0000000000000000
-0.0000000000000000  -0.0000000000000000  33.9948765250948455
Sc  C  Cl
3  2  2
Selective  dynamics
Direct
-0.0000000000000000  0.0000000000000000  0.0516915621298495  T  T  T
-0.0000000000000000  0.0000000000000000  0.1322975319303538  T  T  T
-0.0000000000000000  0.0000000000000000  0.2129035017308656  T  T  T
0.3333333333333357  0.6666666666666643  0.0897393514908782  T  T  T
0.3333333333333357  0.6666666666666643  0.1748557123698295  T  T  T
0.3333333333333357  0.6666666666666643  0.0000000000000000  T  T  T
0.3333333333333357  0.6666666666666643  0.2645950638607225  T  T  T

0.00000000E+00  0.00000000E+00  0.00000000E+00
0.00000000E+00  0.00000000E+00  0.00000000E+00
0.00000000E+00  0.00000000E+00  0.00000000E+00
0.00000000E+00  0.00000000E+00  0.00000000E+00
0.00000000E+00  0.00000000E+00  0.00000000E+00
0.00000000E+00  0.00000000E+00  0.00000000E+00
0.00000000E+00  0.00000000E+00  0.00000000E+00
