Mo3N2  (n=2)
1.00000000000000
2.9514246608308157  0.0000000000000002  0.0000000000000000
-1.4757123304154078  2.5560087339375381  0.0000000000000000
0.0000000000000000  0.0000000000000000  34.4015094407156923
Mo  N  Cl
3  2  2
Selective  dynamics
Direct
-0.0000000000000000  -0.0000000000000000  0.0559454151763656  T  T  T
-0.0000000000000000  0.0000000000000000  0.1366438507141287  T  T  T
-0.0000000000000000  -0.0000000000000000  0.2173422862518918  T  T  T
0.3333333333333357  0.6666666666666643  0.0956180473012202  T  T  T
0.3333333333333357  0.6666666666666643  0.1776696541270300  T  T  T
0.3333333333333357  0.6666666666666643  0.0000000000000000  T  T  T
0.3333333333333357  0.6666666666666643  0.2732877014282576  T  T  T

0.00000000E+00  0.00000000E+00  0.00000000E+00
0.00000000E+00  0.00000000E+00  0.00000000E+00
0.00000000E+00  0.00000000E+00  0.00000000E+00
0.00000000E+00  0.00000000E+00  0.00000000E+00
0.00000000E+00  0.00000000E+00  0.00000000E+00
0.00000000E+00  0.00000000E+00  0.00000000E+00
0.00000000E+00  0.00000000E+00  0.00000000E+00
