Ti3N2  (n=2)
1.00000000000000
3.0227925557319018  0.0000000000000000  0.0000000000000000
-1.5113962778659509  2.6178151438158515  0.0000000000000000
0.0000000000000000  0.0000000000000000  33.7086681341158823
Ti  N  Cl
3  2  2
Selective  dynamics
Direct
-0.0000000000000000  -0.0000000000000000  0.0507411667550238  T  T  T
-0.0000000000000000  -0.0000000000000000  0.1291755001928126  T  T  T
-0.0000000000000000  -0.0000000000000000  0.2076098336306013  T  T  T
0.3333333333333357  0.6666666666666643  0.0882581004063473  T  T  T
0.3333333333333357  0.6666666666666643  0.1700928999792707  T  T  T
0.3333333333333357  0.6666666666666643  0.0000000000000000  T  T  T
0.3333333333333357  0.6666666666666643  0.2583510003856253  T  T  T

0.00000000E+00  0.00000000E+00  0.00000000E+00
0.00000000E+00  0.00000000E+00  0.00000000E+00
0.00000000E+00  0.00000000E+00  0.00000000E+00
0.00000000E+00  0.00000000E+00  0.00000000E+00
0.00000000E+00  0.00000000E+00  0.00000000E+00
0.00000000E+00  0.00000000E+00  0.00000000E+00
0.00000000E+00  0.00000000E+00  0.00000000E+00
