Cr3N2  (n=2)
1.00000000000000
2.8555308142774636  0.0000000000000000  0.0000000000000000
-1.4277654071387318  2.4729622264095332  0.0000000000000000
0.0000000000000000  0.0000000000000000  33.4720365723956093
Cr  N  Cl
3  2  2
Selective  dynamics
Direct
-0.0000000000000000  -0.0000000000000000  0.0520074857349030  T  T  T
-0.0000000000000000  -0.0000000000000000  0.1265539453219662  T  T  T
-0.0000000000000000  -0.0000000000000000  0.2011004049090293  T  T  T
0.3333333333333357  0.6666666666666643  0.0870746993691011  T  T  T
0.3333333333333357  0.6666666666666643  0.1660331912748311  T  T  T
0.3333333333333357  0.6666666666666643  0.0000000000000000  T  T  T
0.3333333333333357  0.6666666666666643  0.2531078906439322  T  T  T

0.00000000E+00  0.00000000E+00  0.00000000E+00
0.00000000E+00  0.00000000E+00  0.00000000E+00
0.00000000E+00  0.00000000E+00  0.00000000E+00
0.00000000E+00  0.00000000E+00  0.00000000E+00
0.00000000E+00  0.00000000E+00  0.00000000E+00
0.00000000E+00  0.00000000E+00  0.00000000E+00
0.00000000E+00  0.00000000E+00  0.00000000E+00
