Nb3N2  (n=2)
1.00000000000000
3.0622471981253723  0.0000000000000001  0.0000000000000000
-1.5311235990626861  2.6519838666974023  0.0000000000000000
0.0000000000000000  0.0000000000000000  34.3418407679035695
Nb  N  Cl
3  2  2
Selective  dynamics
Direct
0.0000000000000000  0.0000000000000000  0.0526220880117264  T  T  T
0.0000000000000000  0.0000000000000000  0.1360125223199211  T  T  T
0.0000000000000000  0.0000000000000000  0.2194029566281230  T  T  T
0.3333333333333357  0.6666666666666643  0.0944669772060978  T  T  T
0.3333333333333357  0.6666666666666643  0.1775580674337444  T  T  T
0.3333333333333357  0.6666666666666643  0.0000000000000000  T  T  T
0.3333333333333357  0.6666666666666643  0.2720250446398494  T  T  T

0.00000000E+00  0.00000000E+00  0.00000000E+00
0.00000000E+00  0.00000000E+00  0.00000000E+00
0.00000000E+00  0.00000000E+00  0.00000000E+00
0.00000000E+00  0.00000000E+00  0.00000000E+00
0.00000000E+00  0.00000000E+00  0.00000000E+00
0.00000000E+00  0.00000000E+00  0.00000000E+00
0.00000000E+00  0.00000000E+00  0.00000000E+00
