Zr3C2  (n=2)
1.00000000000000
3.3326929883614076  -0.0000000000000002  -0.0000000000000000
-1.6663464941807042  2.8861967921672278  0.0000000000000000
-0.0000000000000000  0.0000000000000000  34.4308126387754783
Zr  C  Cl
3  2  2
Selective  dynamics
Direct
-0.0000000000000000  -0.0000000000000000  0.0540843052798202  T  T  T
-0.0000000000000000  -0.0000000000000000  0.1369530939876023  T  T  T
-0.0000000000000000  -0.0000000000000000  0.2198218826953844  T  T  T
0.3333333333333357  0.6666666666666643  0.0915726993192816  T  T  T
0.3333333333333357  0.6666666666666643  0.1823334886559230  T  T  T
0.3333333333333357  0.6666666666666643  0.0000000000000000  T  T  T
0.3333333333333357  0.6666666666666643  0.2739061879752044  T  T  T

0.00000000E+00  0.00000000E+00  0.00000000E+00
0.00000000E+00  0.00000000E+00  0.00000000E+00
0.00000000E+00  0.00000000E+00  0.00000000E+00
0.00000000E+00  0.00000000E+00  0.00000000E+00
0.00000000E+00  0.00000000E+00  0.00000000E+00
0.00000000E+00  0.00000000E+00  0.00000000E+00
0.00000000E+00  0.00000000E+00  0.00000000E+00
