Hf3C2  (n=2)
1.00000000000000
3.2831786161996224  -0.0000000000000001  -0.0000000000000000
-1.6415893080998112  2.8433160879434531  -0.0000000000000000
0.0000000000000000  0.0000000000000000  34.3337673167497357
Hf  C  Cl
3  2  2
Selective  dynamics
Direct
0.0000000000000000  0.0000000000000000  0.0539919102887305  T  T  T
0.0000000000000000  0.0000000000000000  0.1359269320875837  T  T  T
0.0000000000000000  0.0000000000000000  0.2178619538864443  T  T  T
0.3333333333333357  0.6666666666666643  0.0910673552389638  T  T  T
0.3333333333333357  0.6666666666666643  0.1807865089361959  T  T  T
0.3333333333333357  0.6666666666666643  0.0000000000000000  T  T  T
0.3333333333333357  0.6666666666666643  0.2718538641751748  T  T  T

0.00000000E+00  0.00000000E+00  0.00000000E+00
0.00000000E+00  0.00000000E+00  0.00000000E+00
0.00000000E+00  0.00000000E+00  0.00000000E+00
0.00000000E+00  0.00000000E+00  0.00000000E+00
0.00000000E+00  0.00000000E+00  0.00000000E+00
0.00000000E+00  0.00000000E+00  0.00000000E+00
0.00000000E+00  0.00000000E+00  0.00000000E+00
