Ti3C2  (n=2)
1.00000000000000
3.1219652864756839  -0.0000000000000000  0.0000000000000000
-1.5609826432378420  2.7037012482059231  -0.0000000000000000
0.0000000000000000  0.0000000000000000  33.7028689155867980
Ti  C  Cl
3  2  2
Selective  dynamics
Direct
0.0000000000000000  0.0000000000000000  0.0518476937919873  T  T  T
-0.0000000000000000  0.0000000000000000  0.1291116927966024  T  T  T
-0.0000000000000000  -0.0000000000000000  0.2063756918012175  T  T  T
0.3333333333333357  0.6666666666666643  0.0872728537709540  T  T  T
0.3333333333333357  0.6666666666666643  0.1709505318222507  T  T  T
0.3333333333333357  0.6666666666666643  0.0000000000000000  T  T  T
0.3333333333333357  0.6666666666666643  0.2582233855932046  T  T  T

0.00000000E+00  0.00000000E+00  0.00000000E+00
0.00000000E+00  0.00000000E+00  0.00000000E+00
0.00000000E+00  0.00000000E+00  0.00000000E+00
0.00000000E+00  0.00000000E+00  0.00000000E+00
0.00000000E+00  0.00000000E+00  0.00000000E+00
0.00000000E+00  0.00000000E+00  0.00000000E+00
0.00000000E+00  0.00000000E+00  0.00000000E+00
