Sc3N2  (n=2)
1.00000000000000
3.2235304079980929  -0.0000000000000001  0.0000000000000000
-1.6117652039990464  2.7916592237407820  0.0000000000000000
0.0000000000000000  0.0000000000000000  34.0412727079393136
Sc  N  Cl
3  2  2
Selective  dynamics
Direct
0.0000000000000000  0.0000000000000000  0.0525580468675870  T  T  T
0.0000000000000000  0.0000000000000000  0.1327986880148343  T  T  T
0.0000000000000000  0.0000000000000000  0.2130393291620816  T  T  T
0.3333333333333357  0.6666666666666643  0.0896537674100422  T  T  T
0.3333333333333357  0.6666666666666643  0.1759436086196265  T  T  T
0.3333333333333357  0.6666666666666643  0.0000000000000000  T  T  T
0.3333333333333357  0.6666666666666643  0.2655973760296762  T  T  T

0.00000000E+00  0.00000000E+00  0.00000000E+00
0.00000000E+00  0.00000000E+00  0.00000000E+00
0.00000000E+00  0.00000000E+00  0.00000000E+00
0.00000000E+00  0.00000000E+00  0.00000000E+00
0.00000000E+00  0.00000000E+00  0.00000000E+00
0.00000000E+00  0.00000000E+00  0.00000000E+00
0.00000000E+00  0.00000000E+00  0.00000000E+00
