Ta3C2  (n=2)
1.00000000000000
3.1114181877413944  -0.0000000000000001  -0.0000000000000000
-1.5557090938706974  2.6945671929272352  0.0000000000000000
0.0000000000000000  0.0000000000000000  34.2201044089410900
Ta  C  Cl
3  2  2
Selective  dynamics
Direct
0.0000000000000000  -0.0000000000000000  0.0523068223373183  T  T  T
0.0000000000000000  -0.0000000000000000  0.1347176545512205  T  T  T
-0.0000000000000000  -0.0000000000000000  0.2171284867651297  T  T  T
0.3333333333333357  0.6666666666666643  0.0914766878064951  T  T  T
0.3333333333333357  0.6666666666666643  0.1779586212959458  T  T  T
0.3333333333333357  0.6666666666666643  0.0000000000000000  T  T  T
0.3333333333333357  0.6666666666666643  0.2694353091024481  T  T  T

0.00000000E+00  0.00000000E+00  0.00000000E+00
0.00000000E+00  0.00000000E+00  0.00000000E+00
0.00000000E+00  0.00000000E+00  0.00000000E+00
0.00000000E+00  0.00000000E+00  0.00000000E+00
0.00000000E+00  0.00000000E+00  0.00000000E+00
0.00000000E+00  0.00000000E+00  0.00000000E+00
0.00000000E+00  0.00000000E+00  0.00000000E+00
