Ta3N2  (n=2)
1.00000000000000
3.0287237927697981  0.0000000000000001  0.0000000000000000
-1.5143618963848990  2.6229517460005898  0.0000000000000000
0.0000000000000000  0.0000000000000000  34.4009192208877934
Ta  N  Cl
3  2  2
Selective  dynamics
Direct
-0.0000000000000000  0.0000000000000000  0.0531016013058199  T  T  T
-0.0000000000000000  0.0000000000000000  0.1366376165782682  T  T  T
-0.0000000000000000  0.0000000000000000  0.2201736318507237  T  T  T
0.3333333333333357  0.6666666666666643  0.0952316657496403  T  T  T
0.3333333333333357  0.6666666666666643  0.1780435674069032  T  T  T
0.3333333333333357  0.6666666666666643  0.0000000000000000  T  T  T
0.3333333333333357  0.6666666666666643  0.2732752331565511  T  T  T

0.00000000E+00  0.00000000E+00  0.00000000E+00
0.00000000E+00  0.00000000E+00  0.00000000E+00
0.00000000E+00  0.00000000E+00  0.00000000E+00
0.00000000E+00  0.00000000E+00  0.00000000E+00
0.00000000E+00  0.00000000E+00  0.00000000E+00
0.00000000E+00  0.00000000E+00  0.00000000E+00
0.00000000E+00  0.00000000E+00  0.00000000E+00
