Mo3C2  (n=2)
1.00000000000000
3.0036037633805628  0.0000000000000001  -0.0000000000000000
-1.5018018816902814  2.6011971623130936  0.0000000000000000
0.0000000000000000  0.0000000000000000  34.2307348719768143
Mo  C  Cl
3  2  2
Selective  dynamics
Direct
-0.0000000000000000  0.0000000000000000  0.0539460306534187  T  T  T
-0.0000000000000000  0.0000000000000000  0.1348310941395151  T  T  T
-0.0000000000000000  -0.0000000000000000  0.2157161576256257  T  T  T
0.3333333333333357  0.6666666666666643  0.0930278223713240  T  T  T
0.3333333333333357  0.6666666666666643  0.1766343659077063  T  T  T
0.3333333333333357  0.6666666666666643  0.0000000000000000  T  T  T
0.3333333333333357  0.6666666666666643  0.2696621882790372  T  T  T

0.00000000E+00  0.00000000E+00  0.00000000E+00
0.00000000E+00  0.00000000E+00  0.00000000E+00
0.00000000E+00  0.00000000E+00  0.00000000E+00
0.00000000E+00  0.00000000E+00  0.00000000E+00
0.00000000E+00  0.00000000E+00  0.00000000E+00
0.00000000E+00  0.00000000E+00  0.00000000E+00
0.00000000E+00  0.00000000E+00  0.00000000E+00
