Zr3N2  (n=2)
1.00000000000000
3.2229328181410137  0.0000000000000002  0.0000000000000000
-1.6114664090705069  2.7911416959639244  0.0000000000000000
0.0000000000000000  0.0000000000000000  34.4638853229690909
Zr  N  Cl
3  2  2
Selective  dynamics
Direct
0.0000000000000000  0.0000000000000000  0.0526466569914993  T  T  T
0.0000000000000000  0.0000000000000000  0.1373014858058017  T  T  T
0.0000000000000000  0.0000000000000000  0.2219563146201115  T  T  T
0.3333333333333357  0.6666666666666643  0.0941600207305426  T  T  T
0.3333333333333357  0.6666666666666643  0.1804429508810682  T  T  T
0.3333333333333357  0.6666666666666643  0.0000000000000000  T  T  T
0.3333333333333357  0.6666666666666643  0.2746029716116108  T  T  T

0.00000000E+00  0.00000000E+00  0.00000000E+00
0.00000000E+00  0.00000000E+00  0.00000000E+00
0.00000000E+00  0.00000000E+00  0.00000000E+00
0.00000000E+00  0.00000000E+00  0.00000000E+00
0.00000000E+00  0.00000000E+00  0.00000000E+00
0.00000000E+00  0.00000000E+00  0.00000000E+00
0.00000000E+00  0.00000000E+00  0.00000000E+00
