Nb3C2  (n=2)
1.00000000000000
3.1333664999413324  0.0000000000000002  0.0000000000000000
-1.5666832499706662  2.7135749889889578  0.0000000000000000
0.0000000000000000  0.0000000000000000  34.2235879640068248
Nb  C  Cl
3  2  2
Selective  dynamics
Direct
0.0000000000000000  -0.0000000000000000  0.0520987485325734  T  T  T
0.0000000000000000  -0.0000000000000000  0.1347548359585695  T  T  T
-0.0000000000000000  0.0000000000000000  0.2174109233845656  T  T  T
0.3333333333333357  0.6666666666666643  0.0913835608800803  T  T  T
0.3333333333333357  0.6666666666666643  0.1781261110370587  T  T  T
0.3333333333333357  0.6666666666666643  0.0000000000000000  T  T  T
0.3333333333333357  0.6666666666666643  0.2695096719171390  T  T  T

0.00000000E+00  0.00000000E+00  0.00000000E+00
0.00000000E+00  0.00000000E+00  0.00000000E+00
0.00000000E+00  0.00000000E+00  0.00000000E+00
0.00000000E+00  0.00000000E+00  0.00000000E+00
0.00000000E+00  0.00000000E+00  0.00000000E+00
0.00000000E+00  0.00000000E+00  0.00000000E+00
0.00000000E+00  0.00000000E+00  0.00000000E+00
