Cr3C2  (n=2)
1.00000000000000
2.8622644169413056  -0.0000000000000001  0.0000000000000000
-1.4311322084706528  2.4787936973407865  0.0000000000000000
0.0000000000000000  0.0000000000000000  33.4376937937200012
Cr  C  Cl
3  2  2
Selective  dynamics
Direct
0.0000000000000000  0.0000000000000000  0.0506628481829560  T  T  T
0.0000000000000000  0.0000000000000000  0.1261703909033381  T  T  T
0.0000000000000000  0.0000000000000000  0.2016779336237337  T  T  T
0.3333333333333357  0.6666666666666643  0.0872012467958531  T  T  T
0.3333333333333357  0.6666666666666643  0.1651395350108232  T  T  T
0.3333333333333357  0.6666666666666643  0.0000000000000000  T  T  T
0.3333333333333357  0.6666666666666643  0.2523407818066897  T  T  T

0.00000000E+00  0.00000000E+00  0.00000000E+00
0.00000000E+00  0.00000000E+00  0.00000000E+00
0.00000000E+00  0.00000000E+00  0.00000000E+00
0.00000000E+00  0.00000000E+00  0.00000000E+00
0.00000000E+00  0.00000000E+00  0.00000000E+00
0.00000000E+00  0.00000000E+00  0.00000000E+00
0.00000000E+00  0.00000000E+00  0.00000000E+00
