Ta3C2  (n=2)
1.00000000000000
3.0729340942759555  0.0000000000000001  0.0000000000000000
-1.5364670471379775  2.6612389899784588  -0.0000000000000001
0.0000000000000004  -0.0000000000000006  34.9811221091901601
Ta  C  O  H
3  2  2  2
Selective  dynamics
Direct
0.0000000000000000  0.0000000000000000  0.0681430127718540  T  T  T
0.6666666666666643  0.3333333333333357  0.1426644073628494  T  T  T
0.3333333333333357  0.6666666666666643  0.2171858019538446  T  T  T
0.3333333333333357  0.6666666666666643  0.1041208931106815  T  T  T
-0.0000000000000000  -0.0000000000000000  0.1812079216150093  T  T  T
0.3333333333333357  0.6666666666666643  0.0280712326535062  T  T  T
-0.0000000000000000  -0.0000000000000000  0.2572575820721925  T  T  T
0.3333333333333357  0.6666666666666643  0.0000000000000000  T  T  T
-0.0000000000000000  0.0000000000000000  0.2853288147256986  T  T  T

0.00000000E+00  0.00000000E+00  0.00000000E+00
0.00000000E+00  0.00000000E+00  0.00000000E+00
0.00000000E+00  0.00000000E+00  0.00000000E+00
0.00000000E+00  0.00000000E+00  0.00000000E+00
0.00000000E+00  0.00000000E+00  0.00000000E+00
0.00000000E+00  0.00000000E+00  0.00000000E+00
0.00000000E+00  0.00000000E+00  0.00000000E+00
0.00000000E+00  0.00000000E+00  0.00000000E+00
0.00000000E+00  0.00000000E+00  0.00000000E+00
