Zr3N2  (n=2)
1.00000000000000
3.1977753437092185  0.0000000000000003  0.0000000000000000
-1.5988876718546090  2.7693546835223795  0.0000000000000000
-0.0000000000000001  0.0000000000000001  35.0939574501799854
Zr  N  O  H
3  2  2  2
Selective  dynamics
Direct
-0.0000000000000000  -0.0000000000000000  0.0674240579931858  T  T  T
0.6666666666666643  0.3333333333333357  0.1438133254778871  T  T  T
0.3333333333333357  0.6666666666666643  0.2202025929625964  T  T  T
0.3333333333333357  0.6666666666666643  0.1056518530618407  T  T  T
0.0000000000000000  0.0000000000000000  0.1819747978939415  T  T  T
0.3333333333333357  0.6666666666666643  0.0277790539693094  T  T  T
0.0000000000000000  0.0000000000000000  0.2598475969864728  T  T  T
0.3333333333333357  0.6666666666666643  0.0000000000000000  T  T  T
0.0000000000000000  0.0000000000000000  0.2876266509557820  T  T  T

0.00000000E+00  0.00000000E+00  0.00000000E+00
0.00000000E+00  0.00000000E+00  0.00000000E+00
0.00000000E+00  0.00000000E+00  0.00000000E+00
0.00000000E+00  0.00000000E+00  0.00000000E+00
0.00000000E+00  0.00000000E+00  0.00000000E+00
0.00000000E+00  0.00000000E+00  0.00000000E+00
0.00000000E+00  0.00000000E+00  0.00000000E+00
0.00000000E+00  0.00000000E+00  0.00000000E+00
0.00000000E+00  0.00000000E+00  0.00000000E+00
