Hf3C2  (n=2)
1.00000000000000
3.2345998522173387  -0.0000000000000005  -0.0000000000000002
-1.6172999261086696  2.8012456433202044  0.0000000000000002
-0.0000000000000023  -0.0000000000000010  34.9681883789125081
Hf  C  O  H
3  2  2  2
Selective  dynamics
Direct
-0.0000000000000000  0.0000000000000000  0.0681994265101181  T  T  T
0.6666666666666643  0.3333333333333357  0.1425322391726121  T  T  T
0.3333333333333357  0.6666666666666643  0.2168650518351140  T  T  T
0.3333333333333357  0.6666666666666643  0.1031019436681370  T  T  T
0.0000000000000000  0.0000000000000000  0.1819625346770872  T  T  T
0.3333333333333357  0.6666666666666643  0.0279500051723415  T  T  T
-0.0000000000000000  0.0000000000000000  0.2571144731728908  T  T  T
0.3333333333333357  0.6666666666666643  0.0000000000000000  T  T  T
-0.0000000000000000  -0.0000000000000000  0.2850644783452324  T  T  T

0.00000000E+00  0.00000000E+00  0.00000000E+00
0.00000000E+00  0.00000000E+00  0.00000000E+00
0.00000000E+00  0.00000000E+00  0.00000000E+00
0.00000000E+00  0.00000000E+00  0.00000000E+00
0.00000000E+00  0.00000000E+00  0.00000000E+00
0.00000000E+00  0.00000000E+00  0.00000000E+00
0.00000000E+00  0.00000000E+00  0.00000000E+00
0.00000000E+00  0.00000000E+00  0.00000000E+00
0.00000000E+00  0.00000000E+00  0.00000000E+00
