Mo3C2  (n=2)
1.00000000000000
3.0313858223025560  -0.0000000000000004  0.0000000000000000
-1.5156929111512782  2.6252571308816828  0.0000000000000000
-0.0000000000000002  0.0000000000000005  34.8500578617195913
Mo  C  O  H
3  2  2  2
Selective  dynamics
Direct
-0.0000000000000000  0.0000000000000000  0.0702007900700281  T  T  T
0.6666666666666643  0.3333333333333357  0.1413205381294168  T  T  T
0.3333333333333357  0.6666666666666643  0.2124402861888133  T  T  T
0.3333333333333357  0.6666666666666643  0.1031778222274097  T  T  T
-0.0000000000000000  0.0000000000000000  0.1794632540314239  T  T  T
0.3333333333333357  0.6666666666666643  0.0282293989216697  T  T  T
-0.0000000000000000  0.0000000000000000  0.2544116773371796  T  T  T
0.3333333333333357  0.6666666666666643  0.0000000000000000  T  T  T
-0.0000000000000000  -0.0000000000000000  0.2826410762588492  T  T  T

0.00000000E+00  0.00000000E+00  0.00000000E+00
0.00000000E+00  0.00000000E+00  0.00000000E+00
0.00000000E+00  0.00000000E+00  0.00000000E+00
0.00000000E+00  0.00000000E+00  0.00000000E+00
0.00000000E+00  0.00000000E+00  0.00000000E+00
0.00000000E+00  0.00000000E+00  0.00000000E+00
0.00000000E+00  0.00000000E+00  0.00000000E+00
0.00000000E+00  0.00000000E+00  0.00000000E+00
0.00000000E+00  0.00000000E+00  0.00000000E+00
