Sc3C2  (n=2)
1.00000000000000
3.2136433911125120  0.0000000000000000  0.0000000000000000
-1.6068216955562560  2.7830968155170108  -0.0000000000000001
0.0000000000000006  -0.0000000000000003  35.0963106250939916
Sc  C  O  H
3  2  2  2
Selective  dynamics
Direct
-0.0000000000000000  -0.0000000000000000  0.0656930408933185  T  T  T
0.6666666666666643  0.3333333333333357  0.1438372074624066  T  T  T
0.3333333333333357  0.6666666666666643  0.2219813740315112  T  T  T
0.3333333333333357  0.6666666666666643  0.1037214823808024  T  T  T
0.0000000000000000  0.0000000000000000  0.1839529325440274  T  T  T
0.3333333333333357  0.6666666666666643  0.0277797029365931  T  T  T
-0.0000000000000000  -0.0000000000000000  0.2598947119882365  T  T  T
0.3333333333333357  0.6666666666666643  0.0000000000000000  T  T  T
0.0000000000000000  0.0000000000000000  0.2876744149248295  T  T  T

0.00000000E+00  0.00000000E+00  0.00000000E+00
0.00000000E+00  0.00000000E+00  0.00000000E+00
0.00000000E+00  0.00000000E+00  0.00000000E+00
0.00000000E+00  0.00000000E+00  0.00000000E+00
0.00000000E+00  0.00000000E+00  0.00000000E+00
0.00000000E+00  0.00000000E+00  0.00000000E+00
0.00000000E+00  0.00000000E+00  0.00000000E+00
0.00000000E+00  0.00000000E+00  0.00000000E+00
0.00000000E+00  0.00000000E+00  0.00000000E+00
