Sc3N2  (n=2)
1.00000000000000
3.1489747074604928  -0.0000000000000001  0.0000000000000000
-1.5744873537302464  2.7270920927138969  -0.0000000000000001
0.0000000000000000  -0.0000000000000003  34.7620752911535504
Sc  N  O  H
3  2  2  2
Selective  dynamics
Direct
0.0000000000000000  0.0000000000000000  0.0663619006981156  T  T  T
0.6666666666666643  0.3333333333333357  0.1404127229083738  T  T  T
0.3333333333333357  0.6666666666666643  0.2144635451186241  T  T  T
0.3333333333333357  0.6666666666666643  0.1018055293914828  T  T  T
-0.0000000000000000  -0.0000000000000000  0.1790199164252649  T  T  T
0.3333333333333357  0.6666666666666643  0.0279734990929466  T  T  T
0.0000000000000000  0.0000000000000000  0.2528519467238010  T  T  T
0.3333333333333357  0.6666666666666643  0.0000000000000000  T  T  T
-0.0000000000000000  0.0000000000000000  0.2808254458167479  T  T  T

0.00000000E+00  0.00000000E+00  0.00000000E+00
0.00000000E+00  0.00000000E+00  0.00000000E+00
0.00000000E+00  0.00000000E+00  0.00000000E+00
0.00000000E+00  0.00000000E+00  0.00000000E+00
0.00000000E+00  0.00000000E+00  0.00000000E+00
0.00000000E+00  0.00000000E+00  0.00000000E+00
0.00000000E+00  0.00000000E+00  0.00000000E+00
0.00000000E+00  0.00000000E+00  0.00000000E+00
0.00000000E+00  0.00000000E+00  0.00000000E+00
