Hf3N2  (n=2)
1.00000000000000
3.1376880164410634  -0.0000000000000002  0.0000000000000000
-1.5688440082205319  2.7173175316426335  0.0000000000000000
0.0000000000000000  0.0000000000000000  34.9963960088492598
Hf  N  O  H
3  2  2  2
Selective  dynamics
Direct
-0.0000000000000000  -0.0000000000000000  0.0671355533582255  T  T  T
0.6666666666666643  0.3333333333333357  0.1428203636500312  T  T  T
0.3333333333333357  0.6666666666666643  0.2185051739418448  T  T  T
0.3333333333333357  0.6666666666666643  0.1054312570542221  T  T  T
-0.0000000000000000  -0.0000000000000000  0.1802094702458481  T  T  T
0.3333333333333357  0.6666666666666643  0.0279667458017940  T  T  T
0.0000000000000000  0.0000000000000000  0.2576739814982840  T  T  T
0.3333333333333357  0.6666666666666643  0.0000000000000000  T  T  T
-0.0000000000000000  -0.0000000000000000  0.2856407273000782  T  T  T

0.00000000E+00  0.00000000E+00  0.00000000E+00
0.00000000E+00  0.00000000E+00  0.00000000E+00
0.00000000E+00  0.00000000E+00  0.00000000E+00
0.00000000E+00  0.00000000E+00  0.00000000E+00
0.00000000E+00  0.00000000E+00  0.00000000E+00
0.00000000E+00  0.00000000E+00  0.00000000E+00
0.00000000E+00  0.00000000E+00  0.00000000E+00
0.00000000E+00  0.00000000E+00  0.00000000E+00
0.00000000E+00  0.00000000E+00  0.00000000E+00
