Ti3C2  (n=2)
1.00000000000000
3.0244747768584390  0.0000000000000003  0.0000000000000000
-1.5122373884292195  2.6192719899546186  0.0000000000000000
0.0000000000000001  0.0000000000000007  34.4893044515708027
Ti  C  O  H
3  2  2  2
Selective  dynamics
Direct
-0.0000000000000000  -0.0000000000000000  0.0667837001252113  T  T  T
0.6666666666666643  0.3333333333333357  0.1375687999868988  T  T  T
0.3333333333333357  0.6666666666666643  0.2083538998485944  T  T  T
0.3333333333333357  0.6666666666666643  0.1004547290702834  T  T  T
-0.0000000000000000  -0.0000000000000000  0.1746828709034978  T  T  T
0.3333333333333357  0.6666666666666643  0.0282843625006702  T  T  T
0.0000000000000000  -0.0000000000000000  0.2468532374731356  T  T  T
0.3333333333333357  0.6666666666666643  0.0000000000000000  T  T  T
-0.0000000000000000  0.0000000000000000  0.2751375999737977  T  T  T

0.00000000E+00  0.00000000E+00  0.00000000E+00
0.00000000E+00  0.00000000E+00  0.00000000E+00
0.00000000E+00  0.00000000E+00  0.00000000E+00
0.00000000E+00  0.00000000E+00  0.00000000E+00
0.00000000E+00  0.00000000E+00  0.00000000E+00
0.00000000E+00  0.00000000E+00  0.00000000E+00
0.00000000E+00  0.00000000E+00  0.00000000E+00
0.00000000E+00  0.00000000E+00  0.00000000E+00
0.00000000E+00  0.00000000E+00  0.00000000E+00
