Ta3N2  (n=2)
1.00000000000000
2.9545089482185234  0.0000000000000000  0.0000000000000000
-1.4772544741092617  2.5586798049617783  0.0000000000000000
0.0000000000000000  0.0000000000000000  35.4062048397844364
Ta  N  O  H
3  2  2  2
Selective  dynamics
Direct
-0.0000000000000000  -0.0000000000000000  0.0670278077667664  T  T  T
0.6666666666666643  0.3333333333333357  0.1469545364558695  T  T  T
0.3333333333333357  0.6666666666666643  0.2268812651449803  T  T  T
0.3333333333333357  0.6666666666666643  0.1045534335215444  T  T  T
-0.0000000000000000  -0.0000000000000000  0.1893556393901944  T  T  T
0.3333333333333357  0.6666666666666643  0.0279839530776372  T  T  T
0.0000000000000000  0.0000000000000000  0.2659251198341093  T  T  T
0.3333333333333357  0.6666666666666643  0.0000000000000000  T  T  T
-0.0000000000000000  -0.0000000000000000  0.2939090729117464  T  T  T

0.00000000E+00  0.00000000E+00  0.00000000E+00
0.00000000E+00  0.00000000E+00  0.00000000E+00
0.00000000E+00  0.00000000E+00  0.00000000E+00
0.00000000E+00  0.00000000E+00  0.00000000E+00
0.00000000E+00  0.00000000E+00  0.00000000E+00
0.00000000E+00  0.00000000E+00  0.00000000E+00
0.00000000E+00  0.00000000E+00  0.00000000E+00
0.00000000E+00  0.00000000E+00  0.00000000E+00
0.00000000E+00  0.00000000E+00  0.00000000E+00
