Cr3N2  (n=2)
1.00000000000000
2.8276101692858111  0.0000000000000000  0.0000000000000000
-1.4138050846429053  2.4487822386109421  0.0000000000000000
-0.0000000000000001  -0.0000000000000001  34.4148280420840322
Cr  N  O  H
3  2  2  2
Selective  dynamics
Direct
-0.0000000000000000  0.0000000000000000  0.0664786189182320  T  T  T
0.6666666666666643  0.3333333333333357  0.1367844702081702  T  T  T
0.3333333333333357  0.6666666666666643  0.2070903214981243  T  T  T
0.3333333333333357  0.6666666666666643  0.0999527206572619  T  T  T
-0.0000000000000000  -0.0000000000000000  0.1736162197590864  T  T  T
0.3333333333333357  0.6666666666666643  0.0284531122715412  T  T  T
-0.0000000000000000  -0.0000000000000000  0.2451158281448150  T  T  T
0.3333333333333357  0.6666666666666643  0.0000000000000000  T  T  T
0.0000000000000000  0.0000000000000000  0.2735689404163563  T  T  T

0.00000000E+00  0.00000000E+00  0.00000000E+00
0.00000000E+00  0.00000000E+00  0.00000000E+00
0.00000000E+00  0.00000000E+00  0.00000000E+00
0.00000000E+00  0.00000000E+00  0.00000000E+00
0.00000000E+00  0.00000000E+00  0.00000000E+00
0.00000000E+00  0.00000000E+00  0.00000000E+00
0.00000000E+00  0.00000000E+00  0.00000000E+00
0.00000000E+00  0.00000000E+00  0.00000000E+00
0.00000000E+00  0.00000000E+00  0.00000000E+00
