Ti3N2  (n=2)
1.00000000000000
2.9446080462642632  0.0000000000000001  0.0000000000000000
-1.4723040231321316  2.5501053723038369  0.0000000000000000
-0.0000000000000003  -0.0000000000000008  34.4890421876582849
Ti  N  O  H
3  2  2  2
Selective  dynamics
Direct
-0.0000000000000000  -0.0000000000000000  0.0658778202483872  T  T  T
0.6666666666666643  0.3333333333333357  0.1375660439629955  T  T  T
0.3333333333333357  0.6666666666666643  0.2092542676776040  T  T  T
0.3333333333333357  0.6666666666666643  0.1016041635036187  T  T  T
-0.0000000000000000  -0.0000000000000000  0.1735279244223725  T  T  T
0.3333333333333357  0.6666666666666643  0.0282591930736582  T  T  T
-0.0000000000000000  0.0000000000000000  0.2468728948523406  T  T  T
0.3333333333333357  0.6666666666666643  0.0000000000000000  T  T  T
0.0000000000000000  0.0000000000000000  0.2751320879259988  T  T  T

0.00000000E+00  0.00000000E+00  0.00000000E+00
0.00000000E+00  0.00000000E+00  0.00000000E+00
0.00000000E+00  0.00000000E+00  0.00000000E+00
0.00000000E+00  0.00000000E+00  0.00000000E+00
0.00000000E+00  0.00000000E+00  0.00000000E+00
0.00000000E+00  0.00000000E+00  0.00000000E+00
0.00000000E+00  0.00000000E+00  0.00000000E+00
0.00000000E+00  0.00000000E+00  0.00000000E+00
0.00000000E+00  0.00000000E+00  0.00000000E+00
