Zr3C2  (n=2)
1.00000000000000
3.2894133295828576  0.0000000000000000  0.0000000000000000
-1.6447066647914288  2.8487155072735706  -0.0000000000000001
0.0000000000000000  -0.0000000000000015  35.0865073753876402
Zr  C  O  H
3  2  2  2
Selective  dynamics
Direct
0.0000000000000000  0.0000000000000000  0.0683674672417512  T  T  T
0.6666666666666643  0.3333333333333357  0.1437376947707084  T  T  T
0.3333333333333357  0.6666666666666643  0.2191079222996737  T  T  T
0.3333333333333357  0.6666666666666643  0.1036928378266461  T  T  T
0.0000000000000000  0.0000000000000000  0.1837825517147786  T  T  T
0.3333333333333357  0.6666666666666643  0.0277827516162602  T  T  T
-0.0000000000000000  -0.0000000000000000  0.2596926379251647  T  T  T
0.3333333333333357  0.6666666666666643  0.0000000000000000  T  T  T
-0.0000000000000000  -0.0000000000000000  0.2874753895414250  T  T  T

0.00000000E+00  0.00000000E+00  0.00000000E+00
0.00000000E+00  0.00000000E+00  0.00000000E+00
0.00000000E+00  0.00000000E+00  0.00000000E+00
0.00000000E+00  0.00000000E+00  0.00000000E+00
0.00000000E+00  0.00000000E+00  0.00000000E+00
0.00000000E+00  0.00000000E+00  0.00000000E+00
0.00000000E+00  0.00000000E+00  0.00000000E+00
0.00000000E+00  0.00000000E+00  0.00000000E+00
0.00000000E+00  0.00000000E+00  0.00000000E+00
