Mo3N2  (n=2)
1.00000000000000
2.8344789547494300  0.0000000000000000  0.0000000000000000
-1.4172394773747150  2.4547307814630468  0.0000000000000001
0.0000000000000007  -0.0000000000000004  35.7676203493987970
Mo  N  O  H
3  2  2  2
Selective  dynamics
Direct
0.0000000000000000  0.0000000000000000  0.0695662153455095  T  T  T
0.6666666666666643  0.3333333333333357  0.1505185710672833  T  T  T
0.3333333333333357  0.6666666666666643  0.2314775847232249  T  T  T
0.3333333333333357  0.6666666666666643  0.1077817012829347  T  T  T
0.0000000000000000  0.0000000000000000  0.1932578577191234  T  T  T
0.3333333333333357  0.6666666666666643  0.0278210692500458  T  T  T
0.0000000000000000  0.0000000000000000  0.2732227308186885  T  T  T
0.3333333333333357  0.6666666666666643  0.0000000000000000  T  T  T
0.0000000000000000  0.0000000000000000  0.3010438000687342  T  T  T

0.00000000E+00  0.00000000E+00  0.00000000E+00
0.00000000E+00  0.00000000E+00  0.00000000E+00
0.00000000E+00  0.00000000E+00  0.00000000E+00
0.00000000E+00  0.00000000E+00  0.00000000E+00
0.00000000E+00  0.00000000E+00  0.00000000E+00
0.00000000E+00  0.00000000E+00  0.00000000E+00
0.00000000E+00  0.00000000E+00  0.00000000E+00
0.00000000E+00  0.00000000E+00  0.00000000E+00
0.00000000E+00  0.00000000E+00  0.00000000E+00
