Nb3N2  (n=2)
1.00000000000000
2.9815700412684922  0.0000000000000000  0.0000000000000001
-1.4907850206342468  2.5821153990089876  0.0000000000000000
0.0000000000000001  -0.0000000000000009  35.3817653445114502
Nb  N  O  H
3  2  2  2
Selective  dynamics
Direct
0.0000000000000000  -0.0000000000000000  0.0670731632807718  T  T  T
0.6666666666666643  0.3333333333333357  0.1467106748832888  T  T  T
0.3333333333333357  0.6666666666666643  0.2263481864858139  T  T  T
0.3333333333333357  0.6666666666666643  0.1044768192148941  T  T  T
0.0000000000000000  -0.0000000000000000  0.1889445305516757  T  T  T
0.3333333333333357  0.6666666666666643  0.0278496574736262  T  T  T
0.0000000000000000  -0.0000000000000000  0.2655716922929596  T  T  T
0.3333333333333357  0.6666666666666643  0.0000000000000000  T  T  T
-0.0000000000000000  0.0000000000000000  0.2934213497665941  T  T  T

0.00000000E+00  0.00000000E+00  0.00000000E+00
0.00000000E+00  0.00000000E+00  0.00000000E+00
0.00000000E+00  0.00000000E+00  0.00000000E+00
0.00000000E+00  0.00000000E+00  0.00000000E+00
0.00000000E+00  0.00000000E+00  0.00000000E+00
0.00000000E+00  0.00000000E+00  0.00000000E+00
0.00000000E+00  0.00000000E+00  0.00000000E+00
0.00000000E+00  0.00000000E+00  0.00000000E+00
0.00000000E+00  0.00000000E+00  0.00000000E+00
