Cr3C2  (n=2)
1.00000000000000
2.8156351041607555  0.0000000000000000  0.0000000000000000
-1.4078175520803777  2.4384115279974559  -0.0000000000000001
0.0000000000000000  -0.0000000000000003  34.2580432852569885
Cr  C  O  H
3  2  2  2
Selective  dynamics
Direct
-0.0000000000000000  -0.0000000000000000  0.0665158999963983  T  T  T
0.6666666666666643  0.3333333333333357  0.1351221844191101  T  T  T
0.3333333333333357  0.6666666666666643  0.2037284688418303  T  T  T
0.3333333333333357  0.6666666666666643  0.0994199608016409  T  T  T
0.0000000000000000  0.0000000000000000  0.1708244080365795  T  T  T
0.3333333333333357  0.6666666666666643  0.0286654321667846  T  T  T
-0.0000000000000000  -0.0000000000000000  0.2415789366714441  T  T  T
0.3333333333333357  0.6666666666666643  0.0000000000000000  T  T  T
0.0000000000000000  0.0000000000000000  0.2702443688382287  T  T  T

0.00000000E+00  0.00000000E+00  0.00000000E+00
0.00000000E+00  0.00000000E+00  0.00000000E+00
0.00000000E+00  0.00000000E+00  0.00000000E+00
0.00000000E+00  0.00000000E+00  0.00000000E+00
0.00000000E+00  0.00000000E+00  0.00000000E+00
0.00000000E+00  0.00000000E+00  0.00000000E+00
0.00000000E+00  0.00000000E+00  0.00000000E+00
0.00000000E+00  0.00000000E+00  0.00000000E+00
0.00000000E+00  0.00000000E+00  0.00000000E+00
