Nb3C2  (n=2)
1.00000000000000
3.0966947530668474  0.0000000000000000  0.0000000000000001
-1.5483473765334237  2.6818163240889072  -0.0000000000000001
0.0000000000000005  -0.0000000000000008  34.9864424970771992
Nb  C  O  H
3  2  2  2
Selective  dynamics
Direct
-0.0000000000000000  -0.0000000000000000  0.0680507809955570  T  T  T
0.6666666666666643  0.3333333333333357  0.1427187473820963  T  T  T
0.3333333333333357  0.6666666666666643  0.2173867137686435  T  T  T
0.3333333333333357  0.6666666666666643  0.1040411503805944  T  T  T
0.0000000000000000  0.0000000000000000  0.1813963443835901  T  T  T
0.3333333333333357  0.6666666666666643  0.0279348059160912  T  T  T
0.0000000000000000  0.0000000000000000  0.2575026888481015  T  T  T
0.3333333333333357  0.6666666666666643  0.0000000000000000  T  T  T
-0.0000000000000000  0.0000000000000000  0.2854374947641926  T  T  T

0.00000000E+00  0.00000000E+00  0.00000000E+00
0.00000000E+00  0.00000000E+00  0.00000000E+00
0.00000000E+00  0.00000000E+00  0.00000000E+00
0.00000000E+00  0.00000000E+00  0.00000000E+00
0.00000000E+00  0.00000000E+00  0.00000000E+00
0.00000000E+00  0.00000000E+00  0.00000000E+00
0.00000000E+00  0.00000000E+00  0.00000000E+00
0.00000000E+00  0.00000000E+00  0.00000000E+00
0.00000000E+00  0.00000000E+00  0.00000000E+00
