Sc3N2  (n=2)
1.00000000000000
3.1050257594891706  0.0000000000000000  0.0000000000000000
-1.5525128797445853  2.6890311872167572  -0.0000000000000001
0.0000000000000000  0.0000000000000005  32.8095511819333723
Sc  N  F
3  2  2
Selective  dynamics
Direct
-0.0000000000000000  -0.0000000000000000  0.0398598916832959  T  T  T
0.6666666666666643  0.3333333333333357  0.1190133802597274  T  T  T
0.3333333333333357  0.6666666666666643  0.1981668688361669  T  T  T
0.3333333333333357  0.6666666666666643  0.0779688168899141  T  T  T
-0.0000000000000000  -0.0000000000000000  0.1600579436295486  T  T  T
0.3333333333333357  0.6666666666666643  0.0000000000000000  T  T  T
-0.0000000000000000  -0.0000000000000000  0.2380267605194707  T  T  T

0.00000000E+00  0.00000000E+00  0.00000000E+00
0.00000000E+00  0.00000000E+00  0.00000000E+00
0.00000000E+00  0.00000000E+00  0.00000000E+00
0.00000000E+00  0.00000000E+00  0.00000000E+00
0.00000000E+00  0.00000000E+00  0.00000000E+00
0.00000000E+00  0.00000000E+00  0.00000000E+00
0.00000000E+00  0.00000000E+00  0.00000000E+00
