Mo3C2  (n=2)
1.00000000000000
3.0028999723086964  0.0000000000000002  0.0000000000000000
-1.5014499861543480  2.6005876611335497  0.0000000000000000
-0.0000000000000002  0.0000000000000005  32.9986823224623436
Mo  C  F
3  2  2
Selective  dynamics
Direct
0.0000000000000000  0.0000000000000000  0.0458464455867985  T  T  T
0.6666666666666643  0.3333333333333357  0.1211969957512073  T  T  T
0.3333333333333357  0.6666666666666643  0.1965475459156239  T  T  T
0.3333333333333357  0.6666666666666643  0.0805036352009799  T  T  T
-0.0000000000000000  -0.0000000000000000  0.1618903563014426  T  T  T
0.3333333333333357  0.6666666666666643  0.0000000000000000  T  T  T
0.0000000000000000  0.0000000000000000  0.2423939915024305  T  T  T

0.00000000E+00  0.00000000E+00  0.00000000E+00
0.00000000E+00  0.00000000E+00  0.00000000E+00
0.00000000E+00  0.00000000E+00  0.00000000E+00
0.00000000E+00  0.00000000E+00  0.00000000E+00
0.00000000E+00  0.00000000E+00  0.00000000E+00
0.00000000E+00  0.00000000E+00  0.00000000E+00
0.00000000E+00  0.00000000E+00  0.00000000E+00
