Zr3N2  (n=2)
1.00000000000000
3.1600580563304317  0.0000000000000000  0.0000000000000000
-1.5800290281652158  2.7366905543637032  0.0000000000000000
-0.0000000000000001  -0.0000000000000002  33.2019071328904545
Zr  N  F
3  2  2
Selective  dynamics
Direct
-0.0000000000000000  0.0000000000000000  0.0419073955719615  T  T  T
0.6666666666666643  0.3333333333333357  0.1235156025836384  T  T  T
0.3333333333333357  0.6666666666666643  0.2051238095953311  T  T  T
0.3333333333333357  0.6666666666666643  0.0826802870695889  T  T  T
0.0000000000000000  0.0000000000000000  0.1643509180976958  T  T  T
0.3333333333333357  0.6666666666666643  0.0000000000000000  T  T  T
-0.0000000000000000  -0.0000000000000000  0.2470312051672926  T  T  T

0.00000000E+00  0.00000000E+00  0.00000000E+00
0.00000000E+00  0.00000000E+00  0.00000000E+00
0.00000000E+00  0.00000000E+00  0.00000000E+00
0.00000000E+00  0.00000000E+00  0.00000000E+00
0.00000000E+00  0.00000000E+00  0.00000000E+00
0.00000000E+00  0.00000000E+00  0.00000000E+00
0.00000000E+00  0.00000000E+00  0.00000000E+00
