Nb3C2  (n=2)
1.00000000000000
3.0631003205238243  0.0000000000000001  0.0000000000000000
-1.5315501602619119  2.6527226920234557  -0.0000000000000001
0.0000000000000000  0.0000000000000010  33.1461075413537074
Nb  C  F
3  2  2
Selective  dynamics
Direct
0.0000000000000000  -0.0000000000000000  0.0435583370218848  T  T  T
0.6666666666666643  0.3333333333333357  0.1228818124600373  T  T  T
0.3333333333333357  0.6666666666666643  0.2022052878981898  T  T  T
0.3333333333333357  0.6666666666666643  0.0815919947061964  T  T  T
-0.0000000000000000  -0.0000000000000000  0.1641716302138699  T  T  T
0.3333333333333357  0.6666666666666643  0.0000000000000000  T  T  T
-0.0000000000000000  -0.0000000000000000  0.2457636249200746  T  T  T

0.00000000E+00  0.00000000E+00  0.00000000E+00
0.00000000E+00  0.00000000E+00  0.00000000E+00
0.00000000E+00  0.00000000E+00  0.00000000E+00
0.00000000E+00  0.00000000E+00  0.00000000E+00
0.00000000E+00  0.00000000E+00  0.00000000E+00
0.00000000E+00  0.00000000E+00  0.00000000E+00
0.00000000E+00  0.00000000E+00  0.00000000E+00
