Zr3C2  (n=2)
1.00000000000000
3.2551050499506768  -0.0000000000000001  0.0000000000000000
-1.6275525249753380  2.8190036654234181  0.0000000000000001
-0.0000000000000008  -0.0000000000000015  33.1571926427252919
Zr  C  F
3  2  2
Selective  dynamics
Direct
-0.0000000000000000  -0.0000000000000000  0.0426340035098410  T  T  T
0.6666666666666643  0.3333333333333357  0.1230078904842836  T  T  T
0.3333333333333357  0.6666666666666643  0.2033817774587261  T  T  T
0.3333333333333357  0.6666666666666643  0.0804888854619611  T  T  T
0.0000000000000000  -0.0000000000000000  0.1655268955065979  T  T  T
0.3333333333333357  0.6666666666666643  0.0000000000000000  T  T  T
-0.0000000000000000  -0.0000000000000000  0.2460157809685671  T  T  T

0.00000000E+00  0.00000000E+00  0.00000000E+00
0.00000000E+00  0.00000000E+00  0.00000000E+00
0.00000000E+00  0.00000000E+00  0.00000000E+00
0.00000000E+00  0.00000000E+00  0.00000000E+00
0.00000000E+00  0.00000000E+00  0.00000000E+00
0.00000000E+00  0.00000000E+00  0.00000000E+00
0.00000000E+00  0.00000000E+00  0.00000000E+00
