Ta3C2  (n=2)
1.00000000000000
3.0451133095091207  0.0000000000000000  0.0000000000000000
-1.5225566547545606  2.6371454835569303  0.0000000000000000
0.0000000000000001  0.0000000000000000  33.1523795163448298
Ta  C  F
3  2  2
Selective  dynamics
Direct
-0.0000000000000000  -0.0000000000000000  0.0441103959420387  T  T  T
0.6666666666666643  0.3333333333333357  0.1229531580429283  T  T  T
0.3333333333333357  0.6666666666666643  0.2017959201438259  T  T  T
0.3333333333333357  0.6666666666666643  0.0819665080203448  T  T  T
-0.0000000000000000  0.0000000000000000  0.1639398080655118  T  T  T
0.3333333333333357  0.6666666666666643  0.0000000000000000  T  T  T
-0.0000000000000000  -0.0000000000000000  0.2459063160858645  T  T  T

0.00000000E+00  0.00000000E+00  0.00000000E+00
0.00000000E+00  0.00000000E+00  0.00000000E+00
0.00000000E+00  0.00000000E+00  0.00000000E+00
0.00000000E+00  0.00000000E+00  0.00000000E+00
0.00000000E+00  0.00000000E+00  0.00000000E+00
0.00000000E+00  0.00000000E+00  0.00000000E+00
0.00000000E+00  0.00000000E+00  0.00000000E+00
