Mo3N2  (n=2)
1.00000000000000
2.7926132741874432  0.0000000000000000  0.0000000000000000
-1.3963066370937218  2.4184740384856616  0.0000000000000001
0.0000000000000001  0.0000000000000011  34.0447978061173586
Mo  N  F
3  2  2
Selective  dynamics
Direct
-0.0000000000000000  0.0000000000000000  0.0466074438775271  T  T  T
0.6666666666666643  0.3333333333333357  0.1328331689841088  T  T  T
0.3333333333333357  0.6666666666666643  0.2190659743529710  T  T  T
0.3333333333333357  0.6666666666666643  0.0869597901440403  T  T  T
0.0000000000000000  0.0000000000000000  0.1787091179991528  T  T  T
0.3333333333333357  0.6666666666666643  0.0000000000000000  T  T  T
0.0000000000000000  0.0000000000000000  0.2656734182304981  T  T  T

0.00000000E+00  0.00000000E+00  0.00000000E+00
0.00000000E+00  0.00000000E+00  0.00000000E+00
0.00000000E+00  0.00000000E+00  0.00000000E+00
0.00000000E+00  0.00000000E+00  0.00000000E+00
0.00000000E+00  0.00000000E+00  0.00000000E+00
0.00000000E+00  0.00000000E+00  0.00000000E+00
0.00000000E+00  0.00000000E+00  0.00000000E+00
