Nb3N2  (n=2)
1.00000000000000
2.9442630421195322  0.0000000000000001  0.0000000000000000
-1.4721315210597663  2.5498065899587741  0.0000000000000000
0.0000000000000000  0.0000000000000002  33.6125533207872564
Nb  N  F
3  2  2
Selective  dynamics
Direct
-0.0000000000000000  0.0000000000000000  0.0433359720583346  T  T  T
0.6666666666666643  0.3333333333333357  0.1281151306565752  T  T  T
0.3333333333333357  0.6666666666666643  0.2128942892548158  T  T  T
0.3333333333333357  0.6666666666666643  0.0828893915513181  T  T  T
0.0000000000000000  0.0000000000000000  0.1733408697618244  T  T  T
0.3333333333333357  0.6666666666666643  0.0000000000000000  T  T  T
-0.0000000000000000  -0.0000000000000000  0.2562302613131425  T  T  T

0.00000000E+00  0.00000000E+00  0.00000000E+00
0.00000000E+00  0.00000000E+00  0.00000000E+00
0.00000000E+00  0.00000000E+00  0.00000000E+00
0.00000000E+00  0.00000000E+00  0.00000000E+00
0.00000000E+00  0.00000000E+00  0.00000000E+00
0.00000000E+00  0.00000000E+00  0.00000000E+00
0.00000000E+00  0.00000000E+00  0.00000000E+00
