Cr3N2  (n=2)
1.00000000000000
2.7767748025373491  0.0000000000000001  0.0000000000000000
-1.3883874012686745  2.4047575195948174  0.0000000000000000
-0.0000000000000002  0.0000000000000000  32.6565790780228582
Cr  N  F
3  2  2
Selective  dynamics
Direct
-0.0000000000000000  -0.0000000000000000  0.0418266278792223  T  T  T
0.6666666666666643  0.3333333333333357  0.1172287375804018  T  T  T
0.3333333333333357  0.6666666666666643  0.1926308472815889  T  T  T
0.3333333333333357  0.6666666666666643  0.0774377463247210  T  T  T
0.0000000000000000  -0.0000000000000000  0.1570197288360827  T  T  T
0.3333333333333357  0.6666666666666643  0.0000000000000000  T  T  T
-0.0000000000000000  0.0000000000000000  0.2344574751608187  T  T  T

0.00000000E+00  0.00000000E+00  0.00000000E+00
0.00000000E+00  0.00000000E+00  0.00000000E+00
0.00000000E+00  0.00000000E+00  0.00000000E+00
0.00000000E+00  0.00000000E+00  0.00000000E+00
0.00000000E+00  0.00000000E+00  0.00000000E+00
0.00000000E+00  0.00000000E+00  0.00000000E+00
0.00000000E+00  0.00000000E+00  0.00000000E+00
