Hf3C2  (n=2)
1.00000000000000
3.2009584079304667  -0.0000000000000003  0.0000000000000000
-1.6004792039652331  2.7721112978677174  0.0000000000000000
0.0000000000000004  -0.0000000000000015  33.0652026265585306
Hf  C  F
3  2  2
Selective  dynamics
Direct
0.0000000000000000  0.0000000000000000  0.0428012080751455  T  T  T
0.6666666666666643  0.3333333333333357  0.1219590685357002  T  T  T
0.3333333333333357  0.6666666666666643  0.2011169289962548  T  T  T
0.3333333333333357  0.6666666666666643  0.0800833758480742  T  T  T
0.0000000000000000  0.0000000000000000  0.1638347612233261  T  T  T
0.3333333333333357  0.6666666666666643  0.0000000000000000  T  T  T
-0.0000000000000000  -0.0000000000000000  0.2439181370714004  T  T  T

0.00000000E+00  0.00000000E+00  0.00000000E+00
0.00000000E+00  0.00000000E+00  0.00000000E+00
0.00000000E+00  0.00000000E+00  0.00000000E+00
0.00000000E+00  0.00000000E+00  0.00000000E+00
0.00000000E+00  0.00000000E+00  0.00000000E+00
0.00000000E+00  0.00000000E+00  0.00000000E+00
0.00000000E+00  0.00000000E+00  0.00000000E+00
