Cr3C2  (n=2)
1.00000000000000
2.7752424321160678  -0.0000000000000001  0.0000000000000001
-1.3876212160580337  2.4034304478760236  -0.0000000000000001
0.0000000000000009  -0.0000000000000011  32.4605981507888970
Cr  C  F
3  2  2
Selective  dynamics
Direct
-0.0000000000000000  -0.0000000000000000  0.0422013731060882  T  T  T
0.6666666666666643  0.3333333333333357  0.1149177553064756  T  T  T
0.3333333333333357  0.6666666666666643  0.1876341375068708  T  T  T
0.3333333333333357  0.6666666666666643  0.0767072279895443  T  T  T
0.0000000000000000  0.0000000000000000  0.1531282826234147  T  T  T
0.3333333333333357  0.6666666666666643  0.0000000000000000  T  T  T
-0.0000000000000000  -0.0000000000000000  0.2298355106129669  T  T  T

0.00000000E+00  0.00000000E+00  0.00000000E+00
0.00000000E+00  0.00000000E+00  0.00000000E+00
0.00000000E+00  0.00000000E+00  0.00000000E+00
0.00000000E+00  0.00000000E+00  0.00000000E+00
0.00000000E+00  0.00000000E+00  0.00000000E+00
0.00000000E+00  0.00000000E+00  0.00000000E+00
0.00000000E+00  0.00000000E+00  0.00000000E+00
