Sc3C2  (n=2)
1.00000000000000
3.1673752300230240  -0.0000000000000002  0.0000000000000000
-1.5836876150115118  2.7430274125692722  0.0000000000000000
0.0000000000000005  -0.0000000000000012  33.1312964509706802
Sc  C  F
3  2  2
Selective  dynamics
Direct
-0.0000000000000000  -0.0000000000000000  0.0391454035989540  T  T  T
0.6666666666666643  0.3333333333333357  0.1227132246847595  T  T  T
0.3333333333333357  0.6666666666666643  0.2062810457705650  T  T  T
0.3333333333333357  0.6666666666666643  0.0800106494737146  T  T  T
0.0000000000000000  0.0000000000000000  0.1654157998957962  T  T  T
0.3333333333333357  0.6666666666666643  0.0000000000000000  T  T  T
-0.0000000000000000  -0.0000000000000000  0.2454264493695191  T  T  T

0.00000000E+00  0.00000000E+00  0.00000000E+00
0.00000000E+00  0.00000000E+00  0.00000000E+00
0.00000000E+00  0.00000000E+00  0.00000000E+00
0.00000000E+00  0.00000000E+00  0.00000000E+00
0.00000000E+00  0.00000000E+00  0.00000000E+00
0.00000000E+00  0.00000000E+00  0.00000000E+00
0.00000000E+00  0.00000000E+00  0.00000000E+00
