Ti3N2  (n=2)
1.00000000000000
2.9014092891917591  0.0000000000000001  0.0000000000000000
-1.4507046445958798  2.5126941512463365  0.0000000000000000
0.0000000000000000  -0.0000000000000006  32.6167604890031768
Ti  N  F
3  2  2
Selective  dynamics
Direct
-0.0000000000000000  -0.0000000000000000  0.0402336449800330  T  T  T
0.6666666666666643  0.3333333333333357  0.1167614498621180  T  T  T
0.3333333333333357  0.6666666666666643  0.1932892547442110  T  T  T
0.3333333333333357  0.6666666666666643  0.0782829968698763  T  T  T
-0.0000000000000000  -0.0000000000000000  0.1552399028543677  T  T  T
0.3333333333333357  0.6666666666666643  0.0000000000000000  T  T  T
0.0000000000000000  0.0000000000000000  0.2335228997242441  T  T  T

0.00000000E+00  0.00000000E+00  0.00000000E+00
0.00000000E+00  0.00000000E+00  0.00000000E+00
0.00000000E+00  0.00000000E+00  0.00000000E+00
0.00000000E+00  0.00000000E+00  0.00000000E+00
0.00000000E+00  0.00000000E+00  0.00000000E+00
0.00000000E+00  0.00000000E+00  0.00000000E+00
0.00000000E+00  0.00000000E+00  0.00000000E+00
