Hf3N2  (n=2)
1.00000000000000
3.0993288337615903  0.0000000000000001  0.0000000000000000
-1.5496644168807951  2.6840975048693911  0.0000000000000000
0.0000000000000000  0.0000000000000001  33.1379258217621455
Hf  N  F
3  2  2
Selective  dynamics
Direct
-0.0000000000000000  -0.0000000000000000  0.0419429650459166  T  T  T
0.6666666666666643  0.3333333333333357  0.1227887023698064  T  T  T
0.3333333333333357  0.6666666666666643  0.2036344396937040  T  T  T
0.3333333333333357  0.6666666666666643  0.0827627298521309  T  T  T
-0.0000000000000000  -0.0000000000000000  0.1628146748874819  T  T  T
0.3333333333333357  0.6666666666666643  0.0000000000000000  T  T  T
-0.0000000000000000  -0.0000000000000000  0.2455774047396127  T  T  T

0.00000000E+00  0.00000000E+00  0.00000000E+00
0.00000000E+00  0.00000000E+00  0.00000000E+00
0.00000000E+00  0.00000000E+00  0.00000000E+00
0.00000000E+00  0.00000000E+00  0.00000000E+00
0.00000000E+00  0.00000000E+00  0.00000000E+00
0.00000000E+00  0.00000000E+00  0.00000000E+00
0.00000000E+00  0.00000000E+00  0.00000000E+00
