Ta3N2  (n=2)
1.00000000000000
2.9196751142236739  -0.0000000000000001  0.0000000000000000
-1.4598375571118372  2.5285128197489413  0.0000000000000000
0.0000000000000004  -0.0000000000000003  33.6704021333682064
Ta  N  F
3  2  2
Selective  dynamics
Direct
-0.0000000000000000  -0.0000000000000000  0.0438133649743644  T  T  T
0.6666666666666643  0.3333333333333357  0.1287540626783251  T  T  T
0.3333333333333357  0.6666666666666643  0.2136947603822858  T  T  T
0.3333333333333357  0.6666666666666643  0.0834148078438120  T  T  T
-0.0000000000000000  -0.0000000000000000  0.1740933175128382  T  T  T
0.3333333333333357  0.6666666666666643  0.0000000000000000  T  T  T
0.0000000000000000  -0.0000000000000000  0.2575081253566503  T  T  T

0.00000000E+00  0.00000000E+00  0.00000000E+00
0.00000000E+00  0.00000000E+00  0.00000000E+00
0.00000000E+00  0.00000000E+00  0.00000000E+00
0.00000000E+00  0.00000000E+00  0.00000000E+00
0.00000000E+00  0.00000000E+00  0.00000000E+00
0.00000000E+00  0.00000000E+00  0.00000000E+00
0.00000000E+00  0.00000000E+00  0.00000000E+00
