Ta2N  (n=1)
1.00000000000000
3.1635764755406286  0.0000000000000000  0.0000000000000000
-1.5817882377703143  2.7397375946754479  0.0000000000000000
0.0000000000000000  0.0000000000000000  31.7108074777091815
Ta  N  Br
2  1  2
Selective  dynamics
Direct
0.0000000000000000  -0.0000000000000000  0.0619114132182312  T  T  T
0.0000000000000000  -0.0000000000000000  0.1488751947935435  T  T  T
0.3333333333333357  0.6666666666666643  0.1032063345986505  T  T  T
0.3333333333333357  0.6666666666666643  0.0000000000000000  T  T  T
0.6666666666666643  0.3333333333333357  0.2116252473995335  T  T  T

0.00000000E+00  0.00000000E+00  0.00000000E+00
0.00000000E+00  0.00000000E+00  0.00000000E+00
0.00000000E+00  0.00000000E+00  0.00000000E+00
0.00000000E+00  0.00000000E+00  0.00000000E+00
0.00000000E+00  0.00000000E+00  0.00000000E+00
