Nb2C  (n=1)
1.00000000000000
3.2287211033981738  -0.0000000000000000  -0.0000000000000000
-1.6143605516990873  2.7961544978623349  0.0000000000000001
-0.0000000000000010  0.0000000000000007  31.6674473134902854
Nb  C  Br
2  1  2
Selective  dynamics
Direct
0.0000000000000000  0.0000000000000000  0.0604262171477236  T  T  T
-0.0000000000000000  -0.0000000000000000  0.1486349245873466  T  T  T
0.3333333333333357  0.6666666666666643  0.1028010804481070  T  T  T
0.3333333333333357  0.6666666666666643  0.0000000000000000  T  T  T
0.6666666666666643  0.3333333333333357  0.2105457774188816  T  T  T

0.00000000E+00  0.00000000E+00  0.00000000E+00
0.00000000E+00  0.00000000E+00  0.00000000E+00
0.00000000E+00  0.00000000E+00  0.00000000E+00
0.00000000E+00  0.00000000E+00  0.00000000E+00
0.00000000E+00  0.00000000E+00  0.00000000E+00
