Sc2N  (n=1)
1.00000000000000
3.4026830963082744  0.0000000000000000  0.0000000000000000
-1.7013415481541376  2.9468100031038182  0.0000000000000000
0.0000000000000000  0.0000000000000001  31.3969632366863323
Sc  N  Br
2  1  2
Selective  dynamics
Direct
0.0000000000000000  -0.0000000000000000  0.0593368973596603  T  T  T
0.0000000000000000  -0.0000000000000000  0.1442971195362913  T  T  T
0.3333333333333357  0.6666666666666643  0.1058039813471000  T  T  T
0.3333333333333357  0.6666666666666643  0.0000000000000000  T  T  T
0.6666666666666643  0.3333333333333357  0.2037446484382186  T  T  T

0.00000000E+00  0.00000000E+00  0.00000000E+00
0.00000000E+00  0.00000000E+00  0.00000000E+00
0.00000000E+00  0.00000000E+00  0.00000000E+00
0.00000000E+00  0.00000000E+00  0.00000000E+00
0.00000000E+00  0.00000000E+00  0.00000000E+00
