Cr2C  (n=1)
1.00000000000000
3.2020919839535273  0.0000000000000004  0.0000000000000000
-1.6010459919767632  2.7730930035334507  0.0000000000000000
0.0000000000000001  0.0000000000000002  30.8522135146955634
Cr  C  Br
2  1  2
Selective  dynamics
Direct
0.0000000000000000  0.0000000000000000  0.0583625096535501  T  T  T
0.0000000000000000  0.0000000000000000  0.1321825170322637  T  T  T
0.3333333333333357  0.6666666666666643  0.0961174728277974  T  T  T
0.3333333333333357  0.6666666666666643  0.0000000000000000  T  T  T
0.6666666666666643  0.3333333333333357  0.1896853693141994  T  T  T

0.00000000E+00  0.00000000E+00  0.00000000E+00
0.00000000E+00  0.00000000E+00  0.00000000E+00
0.00000000E+00  0.00000000E+00  0.00000000E+00
0.00000000E+00  0.00000000E+00  0.00000000E+00
0.00000000E+00  0.00000000E+00  0.00000000E+00
