Mo2N  (n=1)
1.00000000000000
3.1911903914720812  0.0000000000000000  0.0000000000000000
-1.5955951957360406  2.7636519474766121  0.0000000000000000
0.0000000000000000  0.0000000000000000  31.4191441944915262
Mo  N  Br
2  1  2
Selective  dynamics
Direct
0.0000000000000000  0.0000000000000000  0.0632374742113710  T  T  T
0.0000000000000000  0.0000000000000000  0.1415410936801959  T  T  T
0.3333333333333357  0.6666666666666643  0.1018523583378820  T  T  T
0.3333333333333357  0.6666666666666643  0.0000000000000000  T  T  T
0.6666666666666643  0.3333333333333357  0.2043067804379263  T  T  T

0.00000000E+00  0.00000000E+00  0.00000000E+00
0.00000000E+00  0.00000000E+00  0.00000000E+00
0.00000000E+00  0.00000000E+00  0.00000000E+00
0.00000000E+00  0.00000000E+00  0.00000000E+00
0.00000000E+00  0.00000000E+00  0.00000000E+00
