Mo2C  (n=1)
1.00000000000000
3.1598950550129210  -0.0000000000000002  -0.0000000000000001
-1.5799475275064605  2.7365493909881735  0.0000000000000001
-0.0000000000000003  -0.0000000000000001  31.5214430846510041
Mo  C  Br
2  1  2
Selective  dynamics
Direct
0.0000000000000000  0.0000000000000000  0.0625231993154076  T  T  T
0.0000000000000000  0.0000000000000000  0.1441029252327285  T  T  T
0.3333333333333357  0.6666666666666643  0.1026205966232130  T  T  T
0.3333333333333357  0.6666666666666643  0.0000000000000000  T  T  T
0.6666666666666643  0.3333333333333357  0.2068891029873739  T  T  T

0.00000000E+00  0.00000000E+00  0.00000000E+00
0.00000000E+00  0.00000000E+00  0.00000000E+00
0.00000000E+00  0.00000000E+00  0.00000000E+00
0.00000000E+00  0.00000000E+00  0.00000000E+00
0.00000000E+00  0.00000000E+00  0.00000000E+00
