Ta2C  (n=1)
1.00000000000000
3.1988092260248444  -0.0000000000000027  0.0000000000000002
-1.5994046130124238  2.7702500519721243  -0.0000000000000001
0.0000000000000020  -0.0000000000000004  31.6847206469214626
Ta  C  Br
2  1  2
Selective  dynamics
Direct
0.0000000000000000  -0.0000000000000000  0.0608289158929879  T  T  T
-0.0000000000000000  0.0000000000000000  0.1485918293829274  T  T  T
0.3333333333333357  0.6666666666666643  0.1033225603703123  T  T  T
0.3333333333333357  0.6666666666666643  0.0000000000000000  T  T  T
0.6666666666666643  0.3333333333333357  0.2109761585532856  T  T  T

0.00000000E+00  0.00000000E+00  0.00000000E+00
0.00000000E+00  0.00000000E+00  0.00000000E+00
0.00000000E+00  0.00000000E+00  0.00000000E+00
0.00000000E+00  0.00000000E+00  0.00000000E+00
0.00000000E+00  0.00000000E+00  0.00000000E+00
