Sc2C  (n=1)
1.00000000000000
3.4674560796871843  -0.0000000000000000  0.0000000000000000
-1.7337280398435921  3.0029050522862737  0.0000000000000000
-0.0000000000000000  0.0000000000000000  31.4725283982453199
Sc  C  Br
2  1  2
Selective  dynamics
Direct
-0.0000000000000000  0.0000000000000000  0.0608529697613538  T  T  T
0.0000000000000000  0.0000000000000000  0.1465970085558821  T  T  T
0.3333333333333357  0.6666666666666643  0.1045474401799517  T  T  T
0.3333333333333357  0.6666666666666643  0.0000000000000000  T  T  T
0.6666666666666643  0.3333333333333357  0.2056564479454463  T  T  T

0.00000000E+00  0.00000000E+00  0.00000000E+00
0.00000000E+00  0.00000000E+00  0.00000000E+00
0.00000000E+00  0.00000000E+00  0.00000000E+00
0.00000000E+00  0.00000000E+00  0.00000000E+00
0.00000000E+00  0.00000000E+00  0.00000000E+00
