Hf2N  (n=1)
1.00000000000000
3.2765923328374895  0.0000000000000000  -0.0000000000000000
-1.6382961664187448  2.8376121988411351  -0.0000000000000000
0.0000000000000001  -0.0000000000000006  31.7585567543654328
Hf  N  Br
2  1  2
Selective  dynamics
Direct
-0.0000000000000000  -0.0000000000000000  0.0609412445111736  T  T  T
0.0000000000000000  0.0000000000000000  0.1513536195381963  T  T  T
0.3333333333333357  0.6666666666666643  0.1054712997773528  T  T  T
0.3333333333333357  0.6666666666666643  0.0000000000000000  T  T  T
0.6666666666666643  0.3333333333333357  0.2128105759540355  T  T  T

0.00000000E+00  0.00000000E+00  0.00000000E+00
0.00000000E+00  0.00000000E+00  0.00000000E+00
0.00000000E+00  0.00000000E+00  0.00000000E+00
0.00000000E+00  0.00000000E+00  0.00000000E+00
0.00000000E+00  0.00000000E+00  0.00000000E+00
