Cr2N  (n=1)
1.00000000000000
3.1696657323912802  0.0000000000000000  0.0000000000000000
-1.5848328661956401  2.7450110458051813  0.0000000000000000
0.0000000000000000  0.0000000000000000  30.7911471583426390
Cr  N  Br
2  1  2
Selective  dynamics
Direct
0.0000000000000000  -0.0000000000000000  0.0604658293203651  T  T  T
-0.0000000000000000  -0.0000000000000000  0.1310179903474495  T  T  T
0.3333333333333357  0.6666666666666643  0.0947432721195389  T  T  T
0.3333333333333357  0.6666666666666643  0.0000000000000000  T  T  T
0.6666666666666643  0.3333333333333357  0.1880783177243063  T  T  T

0.00000000E+00  0.00000000E+00  0.00000000E+00
0.00000000E+00  0.00000000E+00  0.00000000E+00
0.00000000E+00  0.00000000E+00  0.00000000E+00
0.00000000E+00  0.00000000E+00  0.00000000E+00
0.00000000E+00  0.00000000E+00  0.00000000E+00
