Zr2N  (n=1)
1.00000000000000
3.3345083377671587  -0.0000000000000002  0.0000000000000000
-1.6672541688835796  2.8877689305576424  -0.0000000000000001
0.0000000000000002  -0.0000000000000010  31.8012575159827833
Zr  N  Br
2  1  2
Selective  dynamics
Direct
-0.0000000000000000  -0.0000000000000000  0.0614571692600160  T  T  T
-0.0000000000000000  -0.0000000000000000  0.1521624761166319  T  T  T
0.3333333333333357  0.6666666666666643  0.1061143506556587  T  T  T
0.3333333333333357  0.6666666666666643  0.0000000000000000  T  T  T
0.6666666666666643  0.3333333333333357  0.2138675652233119  T  T  T

0.00000000E+00  0.00000000E+00  0.00000000E+00
0.00000000E+00  0.00000000E+00  0.00000000E+00
0.00000000E+00  0.00000000E+00  0.00000000E+00
0.00000000E+00  0.00000000E+00  0.00000000E+00
0.00000000E+00  0.00000000E+00  0.00000000E+00
