Hf2C  (n=1)
1.00000000000000
3.3940267434269593  0.0000000000000003  0.0000000000000000
-1.6970133717134792  2.9393133818343915  0.0000000000000000
-0.0000000000000000  0.0000000000000004  31.6236757695695303
Hf  C  Br
2  1  2
Selective  dynamics
Direct
-0.0000000000000000  -0.0000000000000000  0.0611099701288099  T  T  T
0.0000000000000000  0.0000000000000000  0.1483900266176907  T  T  T
0.3333333333333357  0.6666666666666643  0.1070962180173678  T  T  T
0.3333333333333357  0.6666666666666643  0.0000000000000000  T  T  T
0.6666666666666643  0.3333333333333357  0.2094530635158891  T  T  T

0.00000000E+00  0.00000000E+00  0.00000000E+00
0.00000000E+00  0.00000000E+00  0.00000000E+00
0.00000000E+00  0.00000000E+00  0.00000000E+00
0.00000000E+00  0.00000000E+00  0.00000000E+00
0.00000000E+00  0.00000000E+00  0.00000000E+00
