Ti2N  (n=1)
1.00000000000000
3.2083023585427424  0.0000000000000002  -0.0000000000000001
-1.6041511792713707  2.7784713457595176  0.0000000000000000
-0.0000000000000003  0.0000000000000009  31.1761869673289347
Ti  N  Br
2  1  2
Selective  dynamics
Direct
0.0000000000000000  -0.0000000000000000  0.0583995063682477  T  T  T
0.0000000000000000  -0.0000000000000000  0.1401405691953470  T  T  T
0.3333333333333357  0.6666666666666643  0.0993955256980625  T  T  T
0.3333333333333357  0.6666666666666643  0.0000000000000000  T  T  T
0.6666666666666643  0.3333333333333357  0.1981059124966522  T  T  T

0.00000000E+00  0.00000000E+00  0.00000000E+00
0.00000000E+00  0.00000000E+00  0.00000000E+00
0.00000000E+00  0.00000000E+00  0.00000000E+00
0.00000000E+00  0.00000000E+00  0.00000000E+00
0.00000000E+00  0.00000000E+00  0.00000000E+00
