Zr2C  (n=1)
1.00000000000000
3.4433054750458307  -0.0000000000000003  0.0000000000000001
-1.7216527375229156  2.9819900153792815  -0.0000000000000001
0.0000000000000004  -0.0000000000000003  31.7001418287024173
Zr  C  Br
2  1  2
Selective  dynamics
Direct
-0.0000000000000000  -0.0000000000000000  0.0615157268189898  T  T  T
0.0000000000000000  -0.0000000000000000  0.1499790769868234  T  T  T
0.3333333333333357  0.6666666666666643  0.1071700489432782  T  T  T
0.3333333333333357  0.6666666666666643  0.0000000000000000  T  T  T
0.6666666666666643  0.3333333333333357  0.2113599953245595  T  T  T

0.00000000E+00  0.00000000E+00  0.00000000E+00
0.00000000E+00  0.00000000E+00  0.00000000E+00
0.00000000E+00  0.00000000E+00  0.00000000E+00
0.00000000E+00  0.00000000E+00  0.00000000E+00
0.00000000E+00  0.00000000E+00  0.00000000E+00
