Nb2N  (n=1)
1.00000000000000
3.1990069229874143  0.0000000000000002  0.0000000000000000
-1.5995034614937071  2.7704212620942075  0.0000000000000000
0.0000000000000002  0.0000000000000007  31.6513360897177272
Nb  N  Br
2  1  2
Selective  dynamics
Direct
0.0000000000000000  -0.0000000000000000  0.0615662657311188  T  T  T
0.0000000000000000  -0.0000000000000000  0.1481718123446982  T  T  T
0.3333333333333357  0.6666666666666643  0.1025331858150875  T  T  T
0.3333333333333357  0.6666666666666643  0.0000000000000000  T  T  T
0.6666666666666643  0.3333333333333357  0.2101439279171056  T  T  T

0.00000000E+00  0.00000000E+00  0.00000000E+00
0.00000000E+00  0.00000000E+00  0.00000000E+00
0.00000000E+00  0.00000000E+00  0.00000000E+00
0.00000000E+00  0.00000000E+00  0.00000000E+00
0.00000000E+00  0.00000000E+00  0.00000000E+00
