Cr4N3  (n=3)
1.00000000000000
2.7667336699210336  0.0000000000000000  0.0000000000000000
-1.3833668349605168  2.3960616436613131  0.0000000000000000
-0.0000000000000002  0.0000000000000000  35.8195612589686760
Cr  N  S
4  3  2
Selective  dynamics
Direct
0.0000000000000000  0.0000000000000000  0.0432961206905653  T  T  T
0.0000000000000000  0.0000000000000000  0.1149656724820788  T  T  T
0.0000000000000000  0.0000000000000000  0.1871072745266266  T  T  T
0.0000000000000000  0.0000000000000000  0.2586170879137207  T  T  T
0.3333333333333357  0.6666666666666643  0.0792576926638425  T  T  T
0.3333333333333357  0.6666666666666643  0.1503076457405182  T  T  T
0.3333333333333357  0.6666666666666643  0.2210666450165348  T  T  T
0.3333333333333357  0.6666666666666643  0.0000000000000000  T  T  T
0.6666666666666643  0.3333333333333357  0.3020573362343913  T  T  T

0.00000000E+00  0.00000000E+00  0.00000000E+00
0.00000000E+00  0.00000000E+00  0.00000000E+00
0.00000000E+00  0.00000000E+00  0.00000000E+00
0.00000000E+00  0.00000000E+00  0.00000000E+00
0.00000000E+00  0.00000000E+00  0.00000000E+00
0.00000000E+00  0.00000000E+00  0.00000000E+00
0.00000000E+00  0.00000000E+00  0.00000000E+00
0.00000000E+00  0.00000000E+00  0.00000000E+00
0.00000000E+00  0.00000000E+00  0.00000000E+00
