Ta4N3  (n=3)
1.00000000000000
3.0346803685129520  -0.0000000000000001  0.0000000000000000
-1.5173401842564758  2.6281102921631496  -0.0000000000000001
-0.0000000000000002  -0.0000000000000006  36.9983703000705475
Ta  N  S
4  3  2
Selective  dynamics
Direct
0.0000000000000000  0.0000000000000000  0.0449883658573861  T  T  T
0.0000000000000000  0.0000000000000000  0.1227330376035645  T  T  T
0.0000000000000000  0.0000000000000000  0.2008086633737394  T  T  T
0.0000000000000000  0.0000000000000000  0.2787770003260008  T  T  T
0.3333333333333357  0.6666666666666643  0.0849602654166075  T  T  T
0.3333333333333357  0.6666666666666643  0.1618231438469221  T  T  T
0.3333333333333357  0.6666666666666643  0.2382432822924557  T  T  T
0.3333333333333357  0.6666666666666643  0.0000000000000000  T  T  T
0.6666666666666643  0.3333333333333357  0.3242945622404257  T  T  T

0.00000000E+00  0.00000000E+00  0.00000000E+00
0.00000000E+00  0.00000000E+00  0.00000000E+00
0.00000000E+00  0.00000000E+00  0.00000000E+00
0.00000000E+00  0.00000000E+00  0.00000000E+00
0.00000000E+00  0.00000000E+00  0.00000000E+00
0.00000000E+00  0.00000000E+00  0.00000000E+00
0.00000000E+00  0.00000000E+00  0.00000000E+00
0.00000000E+00  0.00000000E+00  0.00000000E+00
0.00000000E+00  0.00000000E+00  0.00000000E+00
