Sc4N3  (n=3)
1.00000000000000
3.1795686898047655  0.0000000000000000  0.0000000000000000
-1.5897843449023827  2.7535872594702582  0.0000000000000000
-0.0000000000000002  0.0000000000000001  36.9330298081151938
Sc  N  S
4  3  2
Selective  dynamics
Direct
-0.0000000000000000  -0.0000000000000000  0.0465130415393179  T  T  T
-0.0000000000000000  -0.0000000000000000  0.1227874610933941  T  T  T
-0.0000000000000000  -0.0000000000000000  0.1993480681868677  T  T  T
-0.0000000000000000  -0.0000000000000000  0.2750173925340587  T  T  T
0.3333333333333357  0.6666666666666643  0.0860449506040572  T  T  T
0.3333333333333357  0.6666666666666643  0.1627837497522166  T  T  T
0.3333333333333357  0.6666666666666643  0.2397132739614417  T  T  T
0.3333333333333357  0.6666666666666643  0.0000000000000000  T  T  T
0.6666666666666643  0.3333333333333357  0.3230991302395987  T  T  T

0.00000000E+00  0.00000000E+00  0.00000000E+00
0.00000000E+00  0.00000000E+00  0.00000000E+00
0.00000000E+00  0.00000000E+00  0.00000000E+00
0.00000000E+00  0.00000000E+00  0.00000000E+00
0.00000000E+00  0.00000000E+00  0.00000000E+00
0.00000000E+00  0.00000000E+00  0.00000000E+00
0.00000000E+00  0.00000000E+00  0.00000000E+00
0.00000000E+00  0.00000000E+00  0.00000000E+00
0.00000000E+00  0.00000000E+00  0.00000000E+00
