Hf4N3  (n=3)
1.00000000000000
3.2196932643833920  -0.0000000000000008  0.0000000000000000
-1.6098466321916964  2.7883361606227157  0.0000000000000000
-0.0000000000000001  0.0000000000000001  36.8612168712020036
Hf  N  S
4  3  2
Selective  dynamics
Direct
-0.0000000000000000  -0.0000000000000000  0.0441507999466392  T  T  T
-0.0000000000000000  -0.0000000000000000  0.1227559819800503  T  T  T
-0.0000000000000000  -0.0000000000000000  0.2006643445836481  T  T  T
-0.0000000000000000  -0.0000000000000000  0.2780811156225993  T  T  T
0.3333333333333357  0.6666666666666643  0.0843607598049234  T  T  T
0.3333333333333357  0.6666666666666643  0.1619317293763113  T  T  T
0.3333333333333357  0.6666666666666643  0.2405835876665848  T  T  T
0.3333333333333357  0.6666666666666643  0.0000000000000000  T  T  T
0.6666666666666643  0.3333333333333357  0.3217803935406331  T  T  T

0.00000000E+00  0.00000000E+00  0.00000000E+00
0.00000000E+00  0.00000000E+00  0.00000000E+00
0.00000000E+00  0.00000000E+00  0.00000000E+00
0.00000000E+00  0.00000000E+00  0.00000000E+00
0.00000000E+00  0.00000000E+00  0.00000000E+00
0.00000000E+00  0.00000000E+00  0.00000000E+00
0.00000000E+00  0.00000000E+00  0.00000000E+00
0.00000000E+00  0.00000000E+00  0.00000000E+00
0.00000000E+00  0.00000000E+00  0.00000000E+00
