Zr4C3  (n=3)
1.00000000000000
3.3552117064252394  0.0000000000000003  0.0000000000000001
-1.6776058532126197  2.9056985789788379  -0.0000000000000000
0.0000000000000003  -0.0000000000000002  37.1450726066677603
Zr  C  S
4  3  2
Selective  dynamics
Direct
-0.0000000000000000  -0.0000000000000000  0.0434557527613104  T  T  T
-0.0000000000000000  -0.0000000000000000  0.1229449819662271  T  T  T
0.0000000000000000  -0.0000000000000000  0.2016775089942350  T  T  T
0.0000000000000000  0.0000000000000000  0.2818145582844536  T  T  T
0.3333333333333357  0.6666666666666643  0.0844524815050290  T  T  T
0.3333333333333357  0.6666666666666643  0.1646844953067859  T  T  T
0.3333333333333357  0.6666666666666643  0.2452512017784995  T  T  T
0.3333333333333357  0.6666666666666643  0.0000000000000000  T  T  T
0.6666666666666643  0.3333333333333357  0.3269632216168463  T  T  T

0.00000000E+00  0.00000000E+00  0.00000000E+00
0.00000000E+00  0.00000000E+00  0.00000000E+00
0.00000000E+00  0.00000000E+00  0.00000000E+00
0.00000000E+00  0.00000000E+00  0.00000000E+00
0.00000000E+00  0.00000000E+00  0.00000000E+00
0.00000000E+00  0.00000000E+00  0.00000000E+00
0.00000000E+00  0.00000000E+00  0.00000000E+00
0.00000000E+00  0.00000000E+00  0.00000000E+00
0.00000000E+00  0.00000000E+00  0.00000000E+00
