Zr4N3  (n=3)
1.00000000000000
3.2676653054703459  0.0000000000000004  0.0000000000000000
-1.6338326527351728  2.8298811672016080  0.0000000000000000
0.0000000000000000  -0.0000000000000001  36.9996294756010613
Zr  N  S
4  3  2
Selective  dynamics
Direct
-0.0000000000000000  -0.0000000000000000  0.0445382568461537  T  T  T
-0.0000000000000000  -0.0000000000000000  0.1234787687049814  T  T  T
-0.0000000000000000  -0.0000000000000000  0.2021067758279859  T  T  T
-0.0000000000000000  -0.0000000000000000  0.2801587910707178  T  T  T
0.3333333333333357  0.6666666666666643  0.0849655417568057  T  T  T
0.3333333333333357  0.6666666666666643  0.1629472069442512  T  T  T
0.3333333333333357  0.6666666666666643  0.2418744864660700  T  T  T
0.3333333333333357  0.6666666666666643  0.0000000000000000  T  T  T
0.6666666666666643  0.3333333333333357  0.3243175579234939  T  T  T

0.00000000E+00  0.00000000E+00  0.00000000E+00
0.00000000E+00  0.00000000E+00  0.00000000E+00
0.00000000E+00  0.00000000E+00  0.00000000E+00
0.00000000E+00  0.00000000E+00  0.00000000E+00
0.00000000E+00  0.00000000E+00  0.00000000E+00
0.00000000E+00  0.00000000E+00  0.00000000E+00
0.00000000E+00  0.00000000E+00  0.00000000E+00
0.00000000E+00  0.00000000E+00  0.00000000E+00
0.00000000E+00  0.00000000E+00  0.00000000E+00
