Hf4C3  (n=3)
1.00000000000000
3.3095535619072933  -0.0000000000000000  0.0000000000000000
-1.6547767809536467  2.8661574645918617  -0.0000000000000001
-0.0000000000000002  0.0000000000000002  36.9926772395216830
Hf  C  S
4  3  2
Selective  dynamics
Direct
-0.0000000000000000  -0.0000000000000000  0.0432891383744705  T  T  T
-0.0000000000000000  0.0000000000000000  0.1218746545006812  T  T  T
0.0000000000000000  0.0000000000000000  0.1999261795924948  T  T  T
0.0000000000000000  0.0000000000000000  0.2790966522212731  T  T  T
0.3333333333333357  0.6666666666666643  0.0838373984361019  T  T  T
0.3333333333333357  0.6666666666666643  0.1633683480618929  T  T  T
0.3333333333333357  0.6666666666666643  0.2432819017384603  T  T  T
0.3333333333333357  0.6666666666666643  0.0000000000000000  T  T  T
0.6666666666666643  0.3333333333333357  0.3241905732280747  T  T  T

0.00000000E+00  0.00000000E+00  0.00000000E+00
0.00000000E+00  0.00000000E+00  0.00000000E+00
0.00000000E+00  0.00000000E+00  0.00000000E+00
0.00000000E+00  0.00000000E+00  0.00000000E+00
0.00000000E+00  0.00000000E+00  0.00000000E+00
0.00000000E+00  0.00000000E+00  0.00000000E+00
0.00000000E+00  0.00000000E+00  0.00000000E+00
0.00000000E+00  0.00000000E+00  0.00000000E+00
0.00000000E+00  0.00000000E+00  0.00000000E+00
