Nb4N3  (n=3)
1.00000000000000
3.0513028777060276  0.0000000000000000  0.0000000000000000
-1.5256514388530138  2.6425058075010490  0.0000000000000002
-0.0000000000000004  0.0000000000000000  37.0077233212705892
Nb  N  S
4  3  2
Selective  dynamics
Direct
-0.0000000000000000  -0.0000000000000000  0.0451618346438633  T  T  T
-0.0000000000000000  -0.0000000000000000  0.1227156486094202  T  T  T
-0.0000000000000000  -0.0000000000000000  0.2006680017940178  T  T  T
-0.0000000000000000  -0.0000000000000000  0.2786522909411777  T  T  T
0.3333333333333357  0.6666666666666643  0.0852457676003248  T  T  T
0.3333333333333357  0.6666666666666643  0.1616282963483931  T  T  T
0.3333333333333357  0.6666666666666643  0.2377894439564822  T  T  T
0.3333333333333357  0.6666666666666643  0.0000000000000000  T  T  T
0.6666666666666643  0.3333333333333357  0.3244653343581669  T  T  T

0.00000000E+00  0.00000000E+00  0.00000000E+00
0.00000000E+00  0.00000000E+00  0.00000000E+00
0.00000000E+00  0.00000000E+00  0.00000000E+00
0.00000000E+00  0.00000000E+00  0.00000000E+00
0.00000000E+00  0.00000000E+00  0.00000000E+00
0.00000000E+00  0.00000000E+00  0.00000000E+00
0.00000000E+00  0.00000000E+00  0.00000000E+00
0.00000000E+00  0.00000000E+00  0.00000000E+00
0.00000000E+00  0.00000000E+00  0.00000000E+00
