Mo4N3  (n=3)
1.00000000000000
2.9613415648508719  0.0000000000000010  0.0000000000000000
-1.4806707824254353  2.5645970246920249  0.0000000000000000
0.0000000000000004  0.0000000000000004  36.7641327514851000
Mo  N  S
4  3  2
Selective  dynamics
Direct
0.0000000000000000  0.0000000000000000  0.0442114039708812  T  T  T
0.0000000000000000  -0.0000000000000000  0.1210221002147460  T  T  T
0.0000000000000000  -0.0000000000000000  0.1977783149348921  T  T  T
0.0000000000000000  0.0000000000000000  0.2756225519049739  T  T  T
0.3333333333333357  0.6666666666666643  0.0835161403361568  T  T  T
0.3333333333333357  0.6666666666666643  0.1582694345146984  T  T  T
0.3333333333333357  0.6666666666666643  0.2324577288950299  T  T  T
0.3333333333333357  0.6666666666666643  0.0000000000000000  T  T  T
0.6666666666666643  0.3333333333333357  0.3199893992062109  T  T  T

0.00000000E+00  0.00000000E+00  0.00000000E+00
0.00000000E+00  0.00000000E+00  0.00000000E+00
0.00000000E+00  0.00000000E+00  0.00000000E+00
0.00000000E+00  0.00000000E+00  0.00000000E+00
0.00000000E+00  0.00000000E+00  0.00000000E+00
0.00000000E+00  0.00000000E+00  0.00000000E+00
0.00000000E+00  0.00000000E+00  0.00000000E+00
0.00000000E+00  0.00000000E+00  0.00000000E+00
0.00000000E+00  0.00000000E+00  0.00000000E+00
