Ti4N3  (n=3)
1.00000000000000
3.0203342389957717  0.0000000000000001  0.0000000000000000
-1.5101671194978858  2.6156861791122554  0.0000000000000000
0.0000000000000000  0.0000000000000000  36.1377838392043174
Ti  N  S
4  3  2
Selective  dynamics
Direct
-0.0000000000000000  -0.0000000000000000  0.0443465348411746  T  T  T
-0.0000000000000000  -0.0000000000000000  0.1178860953527447  T  T  T
-0.0000000000000000  -0.0000000000000000  0.1917705698381946  T  T  T
-0.0000000000000000  -0.0000000000000000  0.2645060189870093  T  T  T
0.3333333333333357  0.6666666666666643  0.0810793907667090  T  T  T
0.3333333333333357  0.6666666666666643  0.1548780646685941  T  T  T
0.3333333333333357  0.6666666666666643  0.2291486439166423  T  T  T
0.3333333333333357  0.6666666666666643  0.0000000000000000  T  T  T
0.6666666666666643  0.3333333333333357  0.3082032890772182  T  T  T

0.00000000E+00  0.00000000E+00  0.00000000E+00
0.00000000E+00  0.00000000E+00  0.00000000E+00
0.00000000E+00  0.00000000E+00  0.00000000E+00
0.00000000E+00  0.00000000E+00  0.00000000E+00
0.00000000E+00  0.00000000E+00  0.00000000E+00
0.00000000E+00  0.00000000E+00  0.00000000E+00
0.00000000E+00  0.00000000E+00  0.00000000E+00
0.00000000E+00  0.00000000E+00  0.00000000E+00
0.00000000E+00  0.00000000E+00  0.00000000E+00
