Cr4C3  (n=3)
1.00000000000000
2.7939710963770712  0.0000000000000001  -0.0000000000000001
-1.3969855481885356  2.4196499468730179  0.0000000000000001
-0.0000000000000016  0.0000000000000009  35.8742227089610850
Cr  C  S
4  3  2
Selective  dynamics
Direct
0.0000000000000000  0.0000000000000000  0.0433874465538287  T  T  T
0.0000000000000000  -0.0000000000000000  0.1151369141013093  T  T  T
0.0000000000000000  -0.0000000000000000  0.1875057330762203  T  T  T
0.0000000000000000  -0.0000000000000000  0.2592109322984077  T  T  T
0.3333333333333357  0.6666666666666643  0.0792120069451070  T  T  T
0.3333333333333357  0.6666666666666643  0.1511118171342514  T  T  T
0.3333333333333357  0.6666666666666643  0.2226184039234867  T  T  T
0.3333333333333357  0.6666666666666643  0.0000000000000000  T  T  T
0.6666666666666643  0.3333333333333357  0.3031207894643747  T  T  T

0.00000000E+00  0.00000000E+00  0.00000000E+00
0.00000000E+00  0.00000000E+00  0.00000000E+00
0.00000000E+00  0.00000000E+00  0.00000000E+00
0.00000000E+00  0.00000000E+00  0.00000000E+00
0.00000000E+00  0.00000000E+00  0.00000000E+00
0.00000000E+00  0.00000000E+00  0.00000000E+00
0.00000000E+00  0.00000000E+00  0.00000000E+00
0.00000000E+00  0.00000000E+00  0.00000000E+00
0.00000000E+00  0.00000000E+00  0.00000000E+00
