Ta4C3  (n=3)
1.00000000000000
3.1332517227435592  0.0000000000000001  0.0000000000000000
-1.5666258613717796  2.7134755896538043  0.0000000000000000
-0.0000000000000003  0.0000000000000001  36.8325592565499704
Ta  C  S
4  3  2
Selective  dynamics
Direct
0.0000000000000000  0.0000000000000000  0.0453164030021559  T  T  T
0.0000000000000000  0.0000000000000000  0.1224263846665673  T  T  T
0.0000000000000000  0.0000000000000000  0.1995990299575510  T  T  T
0.0000000000000000  0.0000000000000000  0.2765065157345031  T  T  T
0.3333333333333357  0.6666666666666643  0.0832430554489609  T  T  T
0.3333333333333357  0.6666666666666643  0.1614896767870939  T  T  T
0.3333333333333357  0.6666666666666643  0.2396568301347358  T  T  T
0.3333333333333357  0.6666666666666643  0.0000000000000000  T  T  T
0.6666666666666643  0.3333333333333357  0.3212527040038841  T  T  T

0.00000000E+00  0.00000000E+00  0.00000000E+00
0.00000000E+00  0.00000000E+00  0.00000000E+00
0.00000000E+00  0.00000000E+00  0.00000000E+00
0.00000000E+00  0.00000000E+00  0.00000000E+00
0.00000000E+00  0.00000000E+00  0.00000000E+00
0.00000000E+00  0.00000000E+00  0.00000000E+00
0.00000000E+00  0.00000000E+00  0.00000000E+00
0.00000000E+00  0.00000000E+00  0.00000000E+00
0.00000000E+00  0.00000000E+00  0.00000000E+00
