Nb4C3  (n=3)
1.00000000000000
3.1470327590243756  -0.0000000000000001  0.0000000000000000
-1.5735163795121876  2.7254103168845045  0.0000000000000000
0.0000000000000001  -0.0000000000000001  36.8639739525433470
Nb  C  S
4  3  2
Selective  dynamics
Direct
-0.0000000000000000  0.0000000000000000  0.0452553983938567  T  T  T
-0.0000000000000000  0.0000000000000000  0.1221312426387675  T  T  T
-0.0000000000000000  0.0000000000000000  0.1998596561684548  T  T  T
-0.0000000000000000  0.0000000000000000  0.2769261958610638  T  T  T
0.3333333333333357  0.6666666666666643  0.0836201377264470  T  T  T
0.3333333333333357  0.6666666666666643  0.1615957342481608  T  T  T
0.3333333333333357  0.6666666666666643  0.2392740084616416  T  T  T
0.3333333333333357  0.6666666666666643  0.0000000000000000  T  T  T
0.6666666666666643  0.3333333333333357  0.3218311180399698  T  T  T

0.00000000E+00  0.00000000E+00  0.00000000E+00
0.00000000E+00  0.00000000E+00  0.00000000E+00
0.00000000E+00  0.00000000E+00  0.00000000E+00
0.00000000E+00  0.00000000E+00  0.00000000E+00
0.00000000E+00  0.00000000E+00  0.00000000E+00
0.00000000E+00  0.00000000E+00  0.00000000E+00
0.00000000E+00  0.00000000E+00  0.00000000E+00
0.00000000E+00  0.00000000E+00  0.00000000E+00
0.00000000E+00  0.00000000E+00  0.00000000E+00
