Mo4C3  (n=3)
1.00000000000000
2.9882142083194942  0.0000000000000000  0.0000000000000000
-1.4941071041597473  2.5878694167524605  -0.0000000000000001
0.0000000000000002  0.0000000000000000  36.7392046213541548
Mo  C  S
4  3  2
Selective  dynamics
Direct
-0.0000000000000000  -0.0000000000000000  0.0446194181408611  T  T  T
-0.0000000000000000  -0.0000000000000000  0.1208736542083223  T  T  T
-0.0000000000000000  -0.0000000000000000  0.1976688935275640  T  T  T
-0.0000000000000000  -0.0000000000000000  0.2741522037821141  T  T  T
0.3333333333333357  0.6666666666666643  0.0828377048745463  T  T  T
0.3333333333333357  0.6666666666666643  0.1590455813161620  T  T  T
0.3333333333333357  0.6666666666666643  0.2345692521328404  T  T  T
0.3333333333333357  0.6666666666666643  0.0000000000000000  T  T  T
0.6666666666666643  0.3333333333333357  0.3195280012820666  T  T  T

0.00000000E+00  0.00000000E+00  0.00000000E+00
0.00000000E+00  0.00000000E+00  0.00000000E+00
0.00000000E+00  0.00000000E+00  0.00000000E+00
0.00000000E+00  0.00000000E+00  0.00000000E+00
0.00000000E+00  0.00000000E+00  0.00000000E+00
0.00000000E+00  0.00000000E+00  0.00000000E+00
0.00000000E+00  0.00000000E+00  0.00000000E+00
0.00000000E+00  0.00000000E+00  0.00000000E+00
0.00000000E+00  0.00000000E+00  0.00000000E+00
