Ti4C3  (n=3)
1.00000000000000
3.1051318216745494  -0.0000000000000002  0.0000000000000000
-1.5525659108372747  2.6891230404106148  -0.0000000000000001
-0.0000000000000001  0.0000000000000001  36.2791096490633009
Ti  C  S
4  3  2
Selective  dynamics
Direct
0.0000000000000000  0.0000000000000000  0.0428566480092886  T  T  T
0.0000000000000000  0.0000000000000000  0.1174237524751345  T  T  T
0.0000000000000000  0.0000000000000000  0.1914395100234554  T  T  T
-0.0000000000000000  -0.0000000000000000  0.2658569017235502  T  T  T
0.3333333333333357  0.6666666666666643  0.0811237890786742  T  T  T
0.3333333333333357  0.6666666666666643  0.1563331036502796  T  T  T
0.3333333333333357  0.6666666666666643  0.2319307115359974  T  T  T
0.3333333333333357  0.6666666666666643  0.0000000000000000  T  T  T
0.6666666666666643  0.3333333333333357  0.3108981934278126  T  T  T

0.00000000E+00  0.00000000E+00  0.00000000E+00
0.00000000E+00  0.00000000E+00  0.00000000E+00
0.00000000E+00  0.00000000E+00  0.00000000E+00
0.00000000E+00  0.00000000E+00  0.00000000E+00
0.00000000E+00  0.00000000E+00  0.00000000E+00
0.00000000E+00  0.00000000E+00  0.00000000E+00
0.00000000E+00  0.00000000E+00  0.00000000E+00
0.00000000E+00  0.00000000E+00  0.00000000E+00
0.00000000E+00  0.00000000E+00  0.00000000E+00
