Sc4C3S2  (n=3)
1.00000000000000
3.5963234012686907  0.0000000000000000  0.0000000000000000
-1.7981617006343453  3.1145074257311558  0.0000000000000000
0.0000000000000000  0.0000000000000000  36.7122582192462943
Sc  C  S
4  3  2
Selective  dynamics
Direct
1.0000000000000000  0.0000000000000000  0.0356082530074244  T  T  T
0.0000000000000000  0.0000000000000000  0.1143406088923430  T  T  T
1.0000000000000000  0.0000000000000000  0.2058454445443095  T  T  T
1.0000000000000000  0.0000000000000000  0.2837895246750205  T  T  T
0.3333333333333357  0.6666666666666643  0.0898796580497322  T  T  T
0.3333333333333357  0.6666666666666643  0.1286860921590027  T  T  T
0.3333333333333357  0.6666666666666643  0.2313011375291053  T  T  T
0.3333333333333357  0.6666666666666643  0.0000000000000000  T  T  T
0.6666666666666643  0.3333333333333357  0.3190285421643220  T  T  T

0.00000000E+00  0.00000000E+00  0.00000000E+00
0.00000000E+00  0.00000000E+00  0.00000000E+00
0.00000000E+00  0.00000000E+00  0.00000000E+00
0.00000000E+00  0.00000000E+00  0.00000000E+00
0.00000000E+00  0.00000000E+00  0.00000000E+00
0.00000000E+00  0.00000000E+00  0.00000000E+00
0.00000000E+00  0.00000000E+00  0.00000000E+00
0.00000000E+00  0.00000000E+00  0.00000000E+00
0.00000000E+00  0.00000000E+00  0.00000000E+00
