Cr3N2  (n=2)
1.00000000000000
2.8065463822264713  0.0000000000000002  0.0000000000000000
-1.4032731911132355  2.4305404638802464  0.0000000000000000
0.0000000000000000  0.0000000000000000  33.1576574041281376
Cr  N  S
3  2  2
Selective  dynamics
Direct
0.0000000000000000  0.0000000000000000  0.0463094140718084  T  T  T
0.0000000000000000  0.0000000000000000  0.1230131746748868  T  T  T
0.0000000000000000  0.0000000000000000  0.1997169352779652  T  T  T
0.3333333333333357  0.6666666666666643  0.0850740301767887  T  T  T
0.3333333333333357  0.6666666666666643  0.1609523191729850  T  T  T
0.3333333333333357  0.6666666666666643  0.0000000000000000  T  T  T
0.3333333333333357  0.6666666666666643  0.2460263493497737  T  T  T

0.00000000E+00  0.00000000E+00  0.00000000E+00
0.00000000E+00  0.00000000E+00  0.00000000E+00
0.00000000E+00  0.00000000E+00  0.00000000E+00
0.00000000E+00  0.00000000E+00  0.00000000E+00
0.00000000E+00  0.00000000E+00  0.00000000E+00
0.00000000E+00  0.00000000E+00  0.00000000E+00
0.00000000E+00  0.00000000E+00  0.00000000E+00
