Nb3N2  (n=2)
1.00000000000000
3.0856544247949387  0.0000000000000000  0.0000000000000000
-1.5428272123974691  2.6722551196130766  0.0000000000000000
0.0000000000000000  0.0000000000000000  34.0506785849398668
Nb  N  S
3  2  2
Selective  dynamics
Direct
0.0000000000000000  0.0000000000000000  0.0486884139923429  T  T  T
0.0000000000000000  0.0000000000000000  0.1329001206593077  T  T  T
0.0000000000000000  0.0000000000000000  0.2171118273262796  T  T  T
0.3333333333333357  0.6666666666666643  0.0921511389089063  T  T  T
0.3333333333333357  0.6666666666666643  0.1736491024097092  T  T  T
0.3333333333333357  0.6666666666666643  0.0000000000000000  T  T  T
0.3333333333333357  0.6666666666666643  0.2658002413186225  T  T  T

0.00000000E+00  0.00000000E+00  0.00000000E+00
0.00000000E+00  0.00000000E+00  0.00000000E+00
0.00000000E+00  0.00000000E+00  0.00000000E+00
0.00000000E+00  0.00000000E+00  0.00000000E+00
0.00000000E+00  0.00000000E+00  0.00000000E+00
0.00000000E+00  0.00000000E+00  0.00000000E+00
0.00000000E+00  0.00000000E+00  0.00000000E+00
