Ta3C2  (n=2)
1.00000000000000
3.1399005225011609  -0.0000000000000000  0.0000000000000000
-1.5699502612505805  2.7192336184507000  -0.0000000000000000
0.0000000000000000  -0.0000000000000000  34.0150269622298964
Ta  C  S
3  2  2
Selective  dynamics
Direct
0.0000000000000000  -0.0000000000000000  0.0491101608524824  T  T  T
0.0000000000000000  0.0000000000000000  0.1325153581715501  T  T  T
0.0000000000000000  0.0000000000000000  0.2159205554906249  T  T  T
0.3333333333333357  0.6666666666666643  0.0900173076456228  T  T  T
0.3333333333333357  0.6666666666666643  0.1750134086974773  T  T  T
0.3333333333333357  0.6666666666666643  0.0000000000000000  T  T  T
0.3333333333333357  0.6666666666666643  0.2650307163431073  T  T  T

0.00000000E+00  0.00000000E+00  0.00000000E+00
0.00000000E+00  0.00000000E+00  0.00000000E+00
0.00000000E+00  0.00000000E+00  0.00000000E+00
0.00000000E+00  0.00000000E+00  0.00000000E+00
0.00000000E+00  0.00000000E+00  0.00000000E+00
0.00000000E+00  0.00000000E+00  0.00000000E+00
0.00000000E+00  0.00000000E+00  0.00000000E+00
