Ti3N2  (n=2)
1.00000000000000
3.0485477057697095  0.0000000000000001  0.0000000000000000
-1.5242738528848545  2.6401197580559974  0.0000000000000000
0.0000000000000000  0.0000000000000000  33.4977400110675347
Ti  N  S
3  2  2
Selective  dynamics
Direct
-0.0000000000000000  -0.0000000000000000  0.0477048817114652  T  T  T
-0.0000000000000000  -0.0000000000000000  0.1268404974225112  T  T  T
-0.0000000000000000  -0.0000000000000000  0.2059761131335573  T  T  T
0.3333333333333357  0.6666666666666643  0.0872624957013092  T  T  T
0.3333333333333357  0.6666666666666643  0.1664184991437060  T  T  T
0.3333333333333357  0.6666666666666643  0.0000000000000000  T  T  T
0.3333333333333357  0.6666666666666643  0.2536809948450227  T  T  T

0.00000000E+00  0.00000000E+00  0.00000000E+00
0.00000000E+00  0.00000000E+00  0.00000000E+00
0.00000000E+00  0.00000000E+00  0.00000000E+00
0.00000000E+00  0.00000000E+00  0.00000000E+00
0.00000000E+00  0.00000000E+00  0.00000000E+00
0.00000000E+00  0.00000000E+00  0.00000000E+00
0.00000000E+00  0.00000000E+00  0.00000000E+00
