Hf3N2  (n=2)
1.00000000000000
3.2459051690344278  0.0000000000000000  0.0000000000000000
-1.6229525845172139  2.8110363354457690  0.0000000000000000
0.0000000000000000  0.0000000000000000  33.9934487012045921
Hf  N  S
3  2  2
Selective  dynamics
Direct
-0.0000000000000000  0.0000000000000000  0.0478856181534692  T  T  T
-0.0000000000000000  0.0000000000000000  0.1322820873553482  T  T  T
-0.0000000000000000  0.0000000000000000  0.2166785565572272  T  T  T
0.3333333333333357  0.6666666666666643  0.0907812252156422  T  T  T
0.3333333333333357  0.6666666666666643  0.1737829494950613  T  T  T
0.3333333333333357  0.6666666666666643  0.0000000000000000  T  T  T
0.3333333333333357  0.6666666666666643  0.2645641747106965  T  T  T

0.00000000E+00  0.00000000E+00  0.00000000E+00
0.00000000E+00  0.00000000E+00  0.00000000E+00
0.00000000E+00  0.00000000E+00  0.00000000E+00
0.00000000E+00  0.00000000E+00  0.00000000E+00
0.00000000E+00  0.00000000E+00  0.00000000E+00
0.00000000E+00  0.00000000E+00  0.00000000E+00
0.00000000E+00  0.00000000E+00  0.00000000E+00
