Ti3C2S2  (n=2)
1.00000000000000
3.1562010700192156  0.0000000000000000  0.0000000000000000
-1.5781005350096078  2.7333503060953004  0.0000000000000000
0.0000000000000000  0.0000000000000000  33.4846371199617181
Ti  C  S
3  2  2
Selective  dynamics
Direct
0.0000000000000000  0.0000000000000000  0.0458265196833349  T  T  T
0.0000000000000000  0.0000000000000000  0.1266944761797034  T  T  T
0.0000000000000000  0.0000000000000000  0.2075624326760722  T  T  T
0.3333333333333357  0.6666666666666643  0.0866412321702237  T  T  T
0.3333333333333357  0.6666666666666643  0.1667477201891743  T  T  T
0.3333333333333357  0.6666666666666643  0.0000000000000000  T  T  T
0.3333333333333357  0.6666666666666643  0.2533889523593981  T  T  T

0.00000000E+00  0.00000000E+00  0.00000000E+00
0.00000000E+00  0.00000000E+00  0.00000000E+00
0.00000000E+00  0.00000000E+00  0.00000000E+00
0.00000000E+00  0.00000000E+00  0.00000000E+00
0.00000000E+00  0.00000000E+00  0.00000000E+00
0.00000000E+00  0.00000000E+00  0.00000000E+00
0.00000000E+00  0.00000000E+00  0.00000000E+00
