Zr3C2  (n=2)
1.00000000000000
3.3840370038783445  -0.0000000000000000  0.0000000000000000
-1.6920185019391722  2.9306620143176474  -0.0000000000000000
0.0000000000000000  0.0000000000000000  34.1633873023010395
Zr  C  S
3  2  2
Selective  dynamics
Direct
0.0000000000000000  0.0000000000000000  0.0470135282220399  T  T  T
0.0000000000000000  0.0000000000000000  0.1341112229477879  T  T  T
0.0000000000000000  0.0000000000000000  0.2212089176735360  T  T  T
0.3333333333333357  0.6666666666666643  0.0909407896885344  T  T  T
0.3333333333333357  0.6666666666666643  0.1772816562070413  T  T  T
0.3333333333333357  0.6666666666666643  0.0000000000000000  T  T  T
0.3333333333333357  0.6666666666666643  0.2682224458955758  T  T  T

0.00000000E+00  0.00000000E+00  0.00000000E+00
0.00000000E+00  0.00000000E+00  0.00000000E+00
0.00000000E+00  0.00000000E+00  0.00000000E+00
0.00000000E+00  0.00000000E+00  0.00000000E+00
0.00000000E+00  0.00000000E+00  0.00000000E+00
0.00000000E+00  0.00000000E+00  0.00000000E+00
0.00000000E+00  0.00000000E+00  0.00000000E+00
