Sc3N2  (n=2)
1.00000000000000
3.1856482837439466  -0.0000000000000001  0.0000000000000000
-1.5928241418719737  2.7588523417908966  0.0000000000000000
0.0000000000000000  0.0000000000000000  34.1932354367732998
Sc  N  S
3  2  2
Selective  dynamics
Direct
-0.0000000000000000  -0.0000000000000000  0.0519834547511801  T  T  T
-0.0000000000000000  -0.0000000000000000  0.1344306164558813  T  T  T
-0.0000000000000000  -0.0000000000000000  0.2168777781605824  T  T  T
0.3333333333333357  0.6666666666666643  0.0929226401317564  T  T  T
0.3333333333333357  0.6666666666666643  0.1759385927800061  T  T  T
0.3333333333333357  0.6666666666666643  0.0000000000000000  T  T  T
0.3333333333333357  0.6666666666666643  0.2688612329117701  T  T  T

0.00000000E+00  0.00000000E+00  0.00000000E+00
0.00000000E+00  0.00000000E+00  0.00000000E+00
0.00000000E+00  0.00000000E+00  0.00000000E+00
0.00000000E+00  0.00000000E+00  0.00000000E+00
0.00000000E+00  0.00000000E+00  0.00000000E+00
0.00000000E+00  0.00000000E+00  0.00000000E+00
0.00000000E+00  0.00000000E+00  0.00000000E+00
