Mo3N2  (n=2)
1.00000000000000
3.0048730963227728  0.0000000000000000  0.0000000000000000
-1.5024365481613862  2.6022964367924413  0.0000000000000000
0.0000000000000000  0.0000000000000000  33.7912151240335703
Mo  N  S
3  2  2
Selective  dynamics
Direct
-0.0000000000000000  -0.0000000000000000  0.0475614981714966  T  T  T
-0.0000000000000000  -0.0000000000000000  0.1300813701396155  T  T  T
-0.0000000000000000  -0.0000000000000000  0.2126012421077345  T  T  T
0.3333333333333357  0.6666666666666643  0.0900881137854155  T  T  T
0.3333333333333357  0.6666666666666643  0.1700746264938085  T  T  T
0.3333333333333357  0.6666666666666643  0.0000000000000000  T  T  T
0.3333333333333357  0.6666666666666643  0.2601627402792311  T  T  T

0.00000000E+00  0.00000000E+00  0.00000000E+00
0.00000000E+00  0.00000000E+00  0.00000000E+00
0.00000000E+00  0.00000000E+00  0.00000000E+00
0.00000000E+00  0.00000000E+00  0.00000000E+00
0.00000000E+00  0.00000000E+00  0.00000000E+00
0.00000000E+00  0.00000000E+00  0.00000000E+00
0.00000000E+00  0.00000000E+00  0.00000000E+00
