Cr3C2  (n=2)
1.00000000000000
2.8241575263292904  0.0000000000000002  0.0000000000000000
-1.4120787631646452  2.4457921620317968  0.0000000000000000
0.0000000000000000  0.0000000000000000  33.2179361892455489
Cr  C  S
3  2  2
Selective  dynamics
Direct
0.0000000000000000  0.0000000000000000  0.0465098554966529  T  T  T
0.0000000000000000  0.0000000000000000  0.1236972721969656  T  T  T
0.0000000000000000  0.0000000000000000  0.2008846888972922  T  T  T
0.3333333333333357  0.6666666666666643  0.0850226556231497  T  T  T
0.3333333333333357  0.6666666666666643  0.1623718887707815  T  T  T
0.3333333333333357  0.6666666666666643  0.0000000000000000  T  T  T
0.3333333333333357  0.6666666666666643  0.2473945443939453  T  T  T

0.00000000E+00  0.00000000E+00  0.00000000E+00
0.00000000E+00  0.00000000E+00  0.00000000E+00
0.00000000E+00  0.00000000E+00  0.00000000E+00
0.00000000E+00  0.00000000E+00  0.00000000E+00
0.00000000E+00  0.00000000E+00  0.00000000E+00
0.00000000E+00  0.00000000E+00  0.00000000E+00
0.00000000E+00  0.00000000E+00  0.00000000E+00
