Mo3C2  (n=2)
1.00000000000000
3.0153322161060050  0.0000000000000001  -0.0000000000000000
-1.5076661080530025  2.6113543002220645  0.0000000000000000
0.0000000000000000  -0.0000000000000000  33.8287341047703762
Mo  C  S
3  2  2
Selective  dynamics
Direct
-0.0000000000000000  -0.0000000000000000  0.0482004250850264  T  T  T
-0.0000000000000000  -0.0000000000000000  0.1304916417715605  T  T  T
-0.0000000000000000  -0.0000000000000000  0.2127828584581090  T  T  T
0.3333333333333357  0.6666666666666643  0.0892457239301300  T  T  T
0.3333333333333357  0.6666666666666643  0.1717375596129911  T  T  T
0.3333333333333357  0.6666666666666643  0.0000000000000000  T  T  T
0.3333333333333357  0.6666666666666643  0.2609832835431282  T  T  T

0.00000000E+00  0.00000000E+00  0.00000000E+00
0.00000000E+00  0.00000000E+00  0.00000000E+00
0.00000000E+00  0.00000000E+00  0.00000000E+00
0.00000000E+00  0.00000000E+00  0.00000000E+00
0.00000000E+00  0.00000000E+00  0.00000000E+00
0.00000000E+00  0.00000000E+00  0.00000000E+00
0.00000000E+00  0.00000000E+00  0.00000000E+00
