Nb3C2  (n=2)
1.00000000000000
3.1578650356935478  -0.0000000000000001  -0.0000000000000000
-1.5789325178467741  2.7347913432853201  0.0000000000000000
0.0000000000000000  0.0000000000000000  34.0176891628375770
Nb  C  S
3  2  2
Selective  dynamics
Direct
0.0000000000000000  0.0000000000000000  0.0489557028529146  T  T  T
0.0000000000000000  0.0000000000000000  0.1325441172630988  T  T  T
0.0000000000000000  0.0000000000000000  0.2161325316732831  T  T  T
0.3333333333333357  0.6666666666666643  0.0905822350463969  T  T  T
0.3333333333333357  0.6666666666666643  0.1745059994798008  T  T  T
0.3333333333333357  0.6666666666666643  0.0000000000000000  T  T  T
0.3333333333333357  0.6666666666666643  0.2650882345261976  T  T  T

0.00000000E+00  0.00000000E+00  0.00000000E+00
0.00000000E+00  0.00000000E+00  0.00000000E+00
0.00000000E+00  0.00000000E+00  0.00000000E+00
0.00000000E+00  0.00000000E+00  0.00000000E+00
0.00000000E+00  0.00000000E+00  0.00000000E+00
0.00000000E+00  0.00000000E+00  0.00000000E+00
0.00000000E+00  0.00000000E+00  0.00000000E+00
