Sc3C2S2  (n=2)
1.00000000000000
3.6579549946280396  0.0000000000000000  0.0000000000000000
-1.8289774973140198  3.1678819512562026  0.0000000000000000
0.0000000000000000  0.0000000000000000  33.0988738724673226
Sc  C  S
3  2  2
Selective  dynamics
Direct
0.0000000000000000  0.0000000000000000  0.0382317150427730  T  T  T
0.0000000000000000  0.0000000000000000  0.1223436468514496  T  T  T
0.0000000000000000  0.0000000000000000  0.2064555786601263  T  T  T
0.3333333333333357  0.6666666666666643  0.0997941423702616  T  T  T
0.3333333333333357  0.6666666666666643  0.1448931513326284  T  T  T
0.3333333333333357  0.6666666666666643  0.0000000000000000  T  T  T
0.3333333333333357  0.6666666666666643  0.2446872937028900  T  T  T

0.00000000E+00  0.00000000E+00  0.00000000E+00
0.00000000E+00  0.00000000E+00  0.00000000E+00
0.00000000E+00  0.00000000E+00  0.00000000E+00
0.00000000E+00  0.00000000E+00  0.00000000E+00
0.00000000E+00  0.00000000E+00  0.00000000E+00
0.00000000E+00  0.00000000E+00  0.00000000E+00
0.00000000E+00  0.00000000E+00  0.00000000E+00
