Zr3N2  (n=2)
1.00000000000000
3.2903838378914481  -0.0000000000000000  0.0000000000000000
-1.6451919189457240  2.8495559927213265  -0.0000000000000000
0.0000000000000000  -0.0000000000000000  34.0983483185206708
Zr  N  S
3  2  2
Selective  dynamics
Direct
-0.0000000000000000  0.0000000000000000  0.0483817061849944  T  T  T
-0.0000000000000000  0.0000000000000000  0.1334133289027759  T  T  T
-0.0000000000000000  0.0000000000000000  0.2184449516205644  T  T  T
0.3333333333333357  0.6666666666666643  0.0915219035327606  T  T  T
0.3333333333333357  0.6666666666666643  0.1753047542727982  T  T  T
0.3333333333333357  0.6666666666666643  0.0000000000000000  T  T  T
0.3333333333333357  0.6666666666666643  0.2668266578055589  T  T  T

0.00000000E+00  0.00000000E+00  0.00000000E+00
0.00000000E+00  0.00000000E+00  0.00000000E+00
0.00000000E+00  0.00000000E+00  0.00000000E+00
0.00000000E+00  0.00000000E+00  0.00000000E+00
0.00000000E+00  0.00000000E+00  0.00000000E+00
0.00000000E+00  0.00000000E+00  0.00000000E+00
0.00000000E+00  0.00000000E+00  0.00000000E+00
