Ta3N2  (n=2)
1.00000000000000
3.0665474082526210  -0.0000000000000004  0.0000000000000000
-1.5332737041263105  2.6557079578603155  0.0000000000000000
0.0000000000000000  0.0000000000000000  34.0596098847869726
Ta  N  S
3  2  2
Selective  dynamics
Direct
-0.0000000000000000  0.0000000000000000  0.0486002388876671  T  T  T
-0.0000000000000000  0.0000000000000000  0.1329963836261237  T  T  T
-0.0000000000000000  0.0000000000000000  0.2173925283645874  T  T  T
0.3333333333333357  0.6666666666666643  0.0920285829207965  T  T  T
0.3333333333333357  0.6666666666666643  0.1739641843314579  T  T  T
0.3333333333333357  0.6666666666666643  0.0000000000000000  T  T  T
0.3333333333333357  0.6666666666666643  0.2659927672522617  T  T  T

0.00000000E+00  0.00000000E+00  0.00000000E+00
0.00000000E+00  0.00000000E+00  0.00000000E+00
0.00000000E+00  0.00000000E+00  0.00000000E+00
0.00000000E+00  0.00000000E+00  0.00000000E+00
0.00000000E+00  0.00000000E+00  0.00000000E+00
0.00000000E+00  0.00000000E+00  0.00000000E+00
0.00000000E+00  0.00000000E+00  0.00000000E+00
