Hf3C2  (n=2)
1.00000000000000
3.3345589108198377  -0.0000000000000000  -0.0000000000000000
-1.6672794554099188  2.8878127285159718  -0.0000000000000000
-0.0000000000000000  -0.0000000000000000  34.0635412206309383
Hf  C  S
3  2  2
Selective  dynamics
Direct
-0.0000000000000000  -0.0000000000000000  0.0469568478488203  T  T  T
-0.0000000000000000  -0.0000000000000000  0.1330387401874304  T  T  T
-0.0000000000000000  -0.0000000000000000  0.2191206325260479  T  T  T
0.3333333333333357  0.6666666666666643  0.0902484098894227  T  T  T
0.3333333333333357  0.6666666666666643  0.1758290704854307  T  T  T
0.3333333333333357  0.6666666666666643  0.0000000000000000  T  T  T
0.3333333333333357  0.6666666666666643  0.2660774803748682  T  T  T

0.00000000E+00  0.00000000E+00  0.00000000E+00
0.00000000E+00  0.00000000E+00  0.00000000E+00
0.00000000E+00  0.00000000E+00  0.00000000E+00
0.00000000E+00  0.00000000E+00  0.00000000E+00
0.00000000E+00  0.00000000E+00  0.00000000E+00
0.00000000E+00  0.00000000E+00  0.00000000E+00
0.00000000E+00  0.00000000E+00  0.00000000E+00
