Ti2C  (n=1)
1.00000000000000
3.1544497383819716  0.0000000000000003  -0.0000000000000000
-1.5772248691909856  2.7318336086423884  0.0000000000000000
-0.0000000000000000  0.0000000000000000  30.9876138428292691
Ti  C  Cl
2  1  2
Selective  dynamics
Direct
-0.0000000000000000  -0.0000000000000000  0.0551372030459066  T  T  T
-0.0000000000000000  -0.0000000000000000  0.1380888347251442  T  T  T
0.3333333333333357  0.6666666666666643  0.0966130188855217  T  T  T
0.3333333333333357  0.6666666666666643  0.0000000000000000  T  T  T
0.3333333333333357  0.6666666666666643  0.1932260377710509  T  T  T

0.00000000E+00  0.00000000E+00  0.00000000E+00
0.00000000E+00  0.00000000E+00  0.00000000E+00
0.00000000E+00  0.00000000E+00  0.00000000E+00
0.00000000E+00  0.00000000E+00  0.00000000E+00
0.00000000E+00  0.00000000E+00  0.00000000E+00
