Nb2C  (n=1)
1.00000000000000
3.1612194241183835  0.0000000000000001  0.0000000000000000
-1.5806097120591920  2.7376963285730578  -0.0000000000000000
0.0000000000000000  -0.0000000000000000  31.3282087291426024
Nb  C  Cl
2  1  2
Selective  dynamics
Direct
0.0000000000000000  0.0000000000000000  0.0560484998295538  T  T  T
-0.0000000000000000  -0.0000000000000000  0.1459486454223508  T  T  T
0.3333333333333357  0.6666666666666643  0.1009985726259523  T  T  T
0.3333333333333357  0.6666666666666643  0.0000000000000000  T  T  T
0.3333333333333357  0.6666666666666643  0.2019971452519046  T  T  T

0.00000000E+00  0.00000000E+00  0.00000000E+00
0.00000000E+00  0.00000000E+00  0.00000000E+00
0.00000000E+00  0.00000000E+00  0.00000000E+00
0.00000000E+00  0.00000000E+00  0.00000000E+00
0.00000000E+00  0.00000000E+00  0.00000000E+00
