Mo2N  (n=1)
1.00000000000000
3.1137622304336645  0.0000000000000001  0.0000000000000000
-1.5568811152168323  2.6965971931366024  0.0000000000000000
0.0000000000000000  0.0000000000000000  31.1764975872198207
Mo  N  Cl
2  1  2
Selective  dynamics
Direct
-0.0000000000000000  -0.0000000000000000  0.0594043712838586  T  T  T
0.0000000000000000  -0.0000000000000000  0.1387095307008131  T  T  T
0.3333333333333357  0.6666666666666643  0.0990569509923391  T  T  T
0.3333333333333357  0.6666666666666643  0.0000000000000000  T  T  T
0.3333333333333357  0.6666666666666643  0.1981139019846717  T  T  T

0.00000000E+00  0.00000000E+00  0.00000000E+00
0.00000000E+00  0.00000000E+00  0.00000000E+00
0.00000000E+00  0.00000000E+00  0.00000000E+00
0.00000000E+00  0.00000000E+00  0.00000000E+00
0.00000000E+00  0.00000000E+00  0.00000000E+00
