Sc2N  (n=1)
1.00000000000000
3.2889199992776148  -0.0000000000000001  0.0000000000000000
-1.6444599996388074  2.8482882707882249  0.0000000000000000
0.0000000000000000  0.0000000000000000  31.1835222422991265
Sc  N  Cl
2  1  2
Selective  dynamics
Direct
-0.0000000000000000  -0.0000000000000000  0.0558997416243509  T  T  T
-0.0000000000000000  -0.0000000000000000  0.1423947997764739  T  T  T
0.3333333333333357  0.6666666666666643  0.0991472707004088  T  T  T
0.3333333333333357  0.6666666666666643  0.0000000000000000  T  T  T
0.3333333333333357  0.6666666666666643  0.1982945414008248  T  T  T

0.00000000E+00  0.00000000E+00  0.00000000E+00
0.00000000E+00  0.00000000E+00  0.00000000E+00
0.00000000E+00  0.00000000E+00  0.00000000E+00
0.00000000E+00  0.00000000E+00  0.00000000E+00
0.00000000E+00  0.00000000E+00  0.00000000E+00
