Ti2N  (n=1)
1.00000000000000
3.0833910801583415  0.0000000000000000  0.0000000000000000
-1.5416955400791710  2.6702950053895176  0.0000000000000000
0.0000000000000000  0.0000000000000000  30.9789551116988591
Ti  N  Cl
2  1  2
Selective  dynamics
Direct
0.0000000000000000  -0.0000000000000000  0.0543737622449588  T  T  T
0.0000000000000000  -0.0000000000000000  0.1386267792562358  T  T  T
0.3333333333333357  0.6666666666666643  0.0965002707505972  T  T  T
0.3333333333333357  0.6666666666666643  0.0000000000000000  T  T  T
0.3333333333333357  0.6666666666666643  0.1930005415011875  T  T  T

0.00000000E+00  0.00000000E+00  0.00000000E+00
0.00000000E+00  0.00000000E+00  0.00000000E+00
0.00000000E+00  0.00000000E+00  0.00000000E+00
0.00000000E+00  0.00000000E+00  0.00000000E+00
0.00000000E+00  0.00000000E+00  0.00000000E+00
