Mo2C  (n=1)
1.00000000000000
3.0906395683988248  -0.0000000000000001  0.0000000000000000
-1.5453197841994124  2.6765723803388384  0.0000000000000000
0.0000000000000000  -0.0000000000000000  31.2629488441164121
Mo  C  Cl
2  1  2
Selective  dynamics
Direct
0.0000000000000000  0.0000000000000000  0.0590007051037555  T  T  T
-0.0000000000000000  -0.0000000000000000  0.1413306480051526  T  T  T
0.3333333333333357  0.6666666666666643  0.1001656765544541  T  T  T
0.3333333333333357  0.6666666666666643  0.0000000000000000  T  T  T
0.3333333333333357  0.6666666666666643  0.2003313531089080  T  T  T

0.00000000E+00  0.00000000E+00  0.00000000E+00
0.00000000E+00  0.00000000E+00  0.00000000E+00
0.00000000E+00  0.00000000E+00  0.00000000E+00
0.00000000E+00  0.00000000E+00  0.00000000E+00
0.00000000E+00  0.00000000E+00  0.00000000E+00
