Ta2N  (n=1)
1.00000000000000
3.0912614822865505  0.0000000000000004  0.0000000000000000
-1.5456307411432748  2.6771109736450533  0.0000000000000000
0.0000000000000000  0.0000000000000000  31.4300175833353492
Ta  N  Cl
2  1  2
Selective  dynamics
Direct
0.0000000000000000  0.0000000000000000  0.0585084818589534  T  T  T
0.0000000000000000  0.0000000000000000  0.1460735730599290  T  T  T
0.3333333333333357  0.6666666666666643  0.1022910274594413  T  T  T
0.3333333333333357  0.6666666666666643  0.0000000000000000  T  T  T
0.3333333333333357  0.6666666666666643  0.2045820549188824  T  T  T

0.00000000E+00  0.00000000E+00  0.00000000E+00
0.00000000E+00  0.00000000E+00  0.00000000E+00
0.00000000E+00  0.00000000E+00  0.00000000E+00
0.00000000E+00  0.00000000E+00  0.00000000E+00
0.00000000E+00  0.00000000E+00  0.00000000E+00
