Zr2N  (n=1)
1.00000000000000
3.2709274760839970  0.0000000000000003  0.0000000000000000
-1.6354637380419985  2.8327062880415403  0.0000000000000000
0.0000000000000000  0.0000000000000000  31.4955824328749401
Zr  N  Cl
2  1  2
Selective  dynamics
Direct
0.0000000000000000  0.0000000000000000  0.0572192722946883  T  T  T
0.0000000000000000  0.0000000000000000  0.1490186166765245  T  T  T
0.3333333333333357  0.6666666666666643  0.1031189444856100  T  T  T
0.3333333333333357  0.6666666666666643  0.0000000000000000  T  T  T
0.3333333333333357  0.6666666666666643  0.2062378889712128  T  T  T

0.00000000E+00  0.00000000E+00  0.00000000E+00
0.00000000E+00  0.00000000E+00  0.00000000E+00
0.00000000E+00  0.00000000E+00  0.00000000E+00
0.00000000E+00  0.00000000E+00  0.00000000E+00
0.00000000E+00  0.00000000E+00  0.00000000E+00
