Cr2N  (n=1)
1.00000000000000
2.9609870840267738  0.0000000000000006  0.0000000000000000
-1.4804935420133853  2.5642900353674918  0.0000000000000000
0.0000000000000000  0.0000000000000000  30.6808254405891674
Cr  N  Cl
2  1  2
Selective  dynamics
Direct
-0.0000000000000000  -0.0000000000000000  0.0554626105864566  T  T  T
-0.0000000000000000  -0.0000000000000000  0.1296962095890178  T  T  T
0.3333333333333357  0.6666666666666643  0.0925794100877372  T  T  T
0.3333333333333357  0.6666666666666643  0.0000000000000000  T  T  T
0.3333333333333357  0.6666666666666643  0.1851588201754743  T  T  T

0.00000000E+00  0.00000000E+00  0.00000000E+00
0.00000000E+00  0.00000000E+00  0.00000000E+00
0.00000000E+00  0.00000000E+00  0.00000000E+00
0.00000000E+00  0.00000000E+00  0.00000000E+00
0.00000000E+00  0.00000000E+00  0.00000000E+00
