Sc2C  (n=1)
1.00000000000000
3.3670984972199349  0.0000000000000000  -0.0000000000000000
-1.6835492486099675  2.9159928361191900  -0.0000000000000000
-0.0000000000000000  0.0000000000000000  31.2765650974928242
Sc  C  Cl
2  1  2
Selective  dynamics
Direct
-0.0000000000000000  0.0000000000000000  0.0565226176413170  T  T  T
-0.0000000000000000  0.0000000000000000  0.1441568712324851  T  T  T
0.3333333333333357  0.6666666666666643  0.1003397444368973  T  T  T
0.3333333333333357  0.6666666666666643  0.0000000000000000  T  T  T
0.3333333333333357  0.6666666666666643  0.2006794888737946  T  T  T

0.00000000E+00  0.00000000E+00  0.00000000E+00
0.00000000E+00  0.00000000E+00  0.00000000E+00
0.00000000E+00  0.00000000E+00  0.00000000E+00
0.00000000E+00  0.00000000E+00  0.00000000E+00
0.00000000E+00  0.00000000E+00  0.00000000E+00
