Hf2N  (n=1)
1.00000000000000
3.2071387872462047  -0.0000000000000001  0.0000000000000000
-1.6035693936231024  2.7774636636607517  0.0000000000000000
0.0000000000000000  0.0000000000000000  31.4518704224825250
Hf  N  Cl
2  1  2
Selective  dynamics
Direct
0.0000000000000000  0.0000000000000000  0.0568458655557866  T  T  T
-0.0000000000000000  0.0000000000000000  0.1482888477638569  T  T  T
0.3333333333333357  0.6666666666666643  0.1025673566598182  T  T  T
0.3333333333333357  0.6666666666666643  0.0000000000000000  T  T  T
0.3333333333333357  0.6666666666666643  0.2051347133196434  T  T  T

0.00000000E+00  0.00000000E+00  0.00000000E+00
0.00000000E+00  0.00000000E+00  0.00000000E+00
0.00000000E+00  0.00000000E+00  0.00000000E+00
0.00000000E+00  0.00000000E+00  0.00000000E+00
0.00000000E+00  0.00000000E+00  0.00000000E+00
