Hf2C  (n=1)
1.00000000000000
3.2964519260991079  0.0000000000000001  0.0000000000000000
-1.6482259630495537  2.8548111108331327  -0.0000000000000000
-0.0000000000000000  -0.0000000000000000  31.4075691934604251
Hf  C  Cl
2  1  2
Selective  dynamics
Direct
-0.0000000000000000  0.0000000000000000  0.0575376818137728  T  T  T
-0.0000000000000000  0.0000000000000000  0.1464758524394475  T  T  T
0.3333333333333357  0.6666666666666643  0.1020067671266138  T  T  T
0.3333333333333357  0.6666666666666643  0.0000000000000000  T  T  T
0.3333333333333357  0.6666666666666643  0.2040135342532204  T  T  T

0.00000000E+00  0.00000000E+00  0.00000000E+00
0.00000000E+00  0.00000000E+00  0.00000000E+00
0.00000000E+00  0.00000000E+00  0.00000000E+00
0.00000000E+00  0.00000000E+00  0.00000000E+00
0.00000000E+00  0.00000000E+00  0.00000000E+00
