Zr2C  (n=1)
1.00000000000000
3.3450751591918642  -0.0000000000000001  -0.0000000000000000
-1.6725375795959319  2.8969200659973904  -0.0000000000000000
0.0000000000000000  0.0000000000000000  31.4733776933853839
Zr  C  Cl
2  1  2
Selective  dynamics
Direct
-0.0000000000000000  0.0000000000000000  0.0577638702338493  T  T  T
-0.0000000000000000  0.0000000000000000  0.1479140127200944  T  T  T
0.3333333333333357  0.6666666666666643  0.1028389414769718  T  T  T
0.3333333333333357  0.6666666666666643  0.0000000000000000  T  T  T
0.3333333333333357  0.6666666666666643  0.2056778829539438  T  T  T

0.00000000E+00  0.00000000E+00  0.00000000E+00
0.00000000E+00  0.00000000E+00  0.00000000E+00
0.00000000E+00  0.00000000E+00  0.00000000E+00
0.00000000E+00  0.00000000E+00  0.00000000E+00
0.00000000E+00  0.00000000E+00  0.00000000E+00
