Cr2C  (n=1)
1.00000000000000
2.9568562696859080  0.0000000000000003  0.0000000000000000
-1.4784281348429538  2.5607126450898932  0.0000000000000000
0.0000000000000000  0.0000000000000000  30.7398619668865187
Cr  C  Cl
2  1  2
Selective  dynamics
Direct
0.0000000000000000  0.0000000000000000  0.0546997757876961  T  T  T
-0.0000000000000000  0.0000000000000000  0.1320239633452120  T  T  T
0.3333333333333357  0.6666666666666643  0.0933618695664540  T  T  T
0.3333333333333357  0.6666666666666643  0.0000000000000000  T  T  T
0.3333333333333357  0.6666666666666643  0.1867237391329080  T  T  T

0.00000000E+00  0.00000000E+00  0.00000000E+00
0.00000000E+00  0.00000000E+00  0.00000000E+00
0.00000000E+00  0.00000000E+00  0.00000000E+00
0.00000000E+00  0.00000000E+00  0.00000000E+00
0.00000000E+00  0.00000000E+00  0.00000000E+00
