Nb2N  (n=1)
1.00000000000000
3.1260920284944436  -0.0000000000000001  0.0000000000000000
-1.5630460142472218  2.7072751115409921  0.0000000000000000
0.0000000000000000  0.0000000000000000  31.3815444821048786
Nb  N  Cl
2  1  2
Selective  dynamics
Direct
0.0000000000000000  0.0000000000000000  0.0574884416848825  T  T  T
0.0000000000000000  0.0000000000000000  0.1458649810806514  T  T  T
0.3333333333333357  0.6666666666666643  0.1016767113827704  T  T  T
0.3333333333333357  0.6666666666666643  0.0000000000000000  T  T  T
0.3333333333333357  0.6666666666666643  0.2033534227655339  T  T  T

0.00000000E+00  0.00000000E+00  0.00000000E+00
0.00000000E+00  0.00000000E+00  0.00000000E+00
0.00000000E+00  0.00000000E+00  0.00000000E+00
0.00000000E+00  0.00000000E+00  0.00000000E+00
0.00000000E+00  0.00000000E+00  0.00000000E+00
