Ta2C  (n=1)
1.00000000000000
3.1355526866035190  -0.0000000000000018  -0.0000000000000000
-1.5677763433017611  2.7154682817596991  -0.0000000000000000
0.0000000000000000  -0.0000000000000000  31.3352549137576091
Ta  C  Cl
2  1  2
Selective  dynamics
Direct
0.0000000000000000  0.0000000000000000  0.0564349150277191  T  T  T
-0.0000000000000000  0.0000000000000000  0.1457416726909319  T  T  T
0.3333333333333357  0.6666666666666643  0.1010882938593255  T  T  T
0.3333333333333357  0.6666666666666643  0.0000000000000000  T  T  T
0.3333333333333357  0.6666666666666643  0.2021765877186512  T  T  T

0.00000000E+00  0.00000000E+00  0.00000000E+00
0.00000000E+00  0.00000000E+00  0.00000000E+00
0.00000000E+00  0.00000000E+00  0.00000000E+00
0.00000000E+00  0.00000000E+00  0.00000000E+00
0.00000000E+00  0.00000000E+00  0.00000000E+00
