Nb4C3  (n=3)
1.00000000000000
3.1157418782468675  0.0000000000000000  0.0000000000000000
-1.5578709391234336  2.6983116194376966  0.0000000000000000
0.0000000000000000  0.0000000000000000  37.2239136511611974
Nb  C  Cl
4  3  2
Selective  dynamics
Direct
0.0000000000000000  -0.0000000000000000  0.0493377093682625  T  T  T
0.0000000000000000  0.0000000000000000  0.1258237015741373  T  T  T
0.0000000000000000  -0.0000000000000000  0.2025650263204070  T  T  T
0.0000000000000000  -0.0000000000000000  0.2790510185262819  T  T  T
0.3333333333333357  0.6666666666666643  0.0858541121538735  T  T  T
0.3333333333333357  0.6666666666666643  0.1641943639472686  T  T  T
0.3333333333333357  0.6666666666666643  0.2425346157406636  T  T  T
0.6666666666666643  0.3333333333333357  0.0000000000000000  T  T  T
0.6666666666666643  0.3333333333333357  0.3283887278945445  T  T  T

0.00000000E+00  0.00000000E+00  0.00000000E+00
0.00000000E+00  0.00000000E+00  0.00000000E+00
0.00000000E+00  0.00000000E+00  0.00000000E+00
0.00000000E+00  0.00000000E+00  0.00000000E+00
0.00000000E+00  0.00000000E+00  0.00000000E+00
0.00000000E+00  0.00000000E+00  0.00000000E+00
0.00000000E+00  0.00000000E+00  0.00000000E+00
0.00000000E+00  0.00000000E+00  0.00000000E+00
0.00000000E+00  0.00000000E+00  0.00000000E+00
