Cr4C3  (n=3)
1.00000000000000
2.8371492242162430  0.0000000000000000  0.0000000000000000
-1.4185746121081213  2.4570433024694327  0.0000000000000000
0.0000000000000000  0.0000000000000000  36.0198451879278991
Cr  C  Cl
4  3  2
Selective  dynamics
Direct
-0.0000000000000000  0.0000000000000000  0.0473715550987531  T  T  T
0.0000000000000000  0.0000000000000000  0.1173044776533662  T  T  T
0.0000000000000000  0.0000000000000000  0.1886336831142074  T  T  T
0.0000000000000000  0.0000000000000000  0.2585666056688343  T  T  T
0.3333333333333357  0.6666666666666643  0.0814829903169278  T  T  T
0.3333333333333357  0.6666666666666643  0.1529690803837938  T  T  T
0.3333333333333357  0.6666666666666643  0.2244551704506527  T  T  T
0.6666666666666643  0.3333333333333357  0.0000000000000000  T  T  T
0.6666666666666643  0.3333333333333357  0.3059381607675875  T  T  T

0.00000000E+00  0.00000000E+00  0.00000000E+00
0.00000000E+00  0.00000000E+00  0.00000000E+00
0.00000000E+00  0.00000000E+00  0.00000000E+00
0.00000000E+00  0.00000000E+00  0.00000000E+00
0.00000000E+00  0.00000000E+00  0.00000000E+00
0.00000000E+00  0.00000000E+00  0.00000000E+00
0.00000000E+00  0.00000000E+00  0.00000000E+00
0.00000000E+00  0.00000000E+00  0.00000000E+00
0.00000000E+00  0.00000000E+00  0.00000000E+00
