Ti4C3  (n=3)
1.00000000000000
3.1443502652353015  0.0000000000000001  0.0000000000000000
-1.5721751326176507  2.7230872087499653  0.0000000000000000
0.0000000000000000  0.0000000000000000  36.1764090686899422
Ti  C  Cl
4  3  2
Selective  dynamics
Direct
-0.0000000000000000  0.0000000000000000  0.0473510141507729  T  T  T
-0.0000000000000000  0.0000000000000000  0.1187974785225121  T  T  T
-0.0000000000000000  0.0000000000000000  0.1901444357362727  T  T  T
-0.0000000000000000  0.0000000000000000  0.2615909001080119  T  T  T
0.3333333333333357  0.6666666666666643  0.0781416131641937  T  T  T
0.3333333333333357  0.6666666666666643  0.1544709571293925  T  T  T
0.3333333333333357  0.6666666666666643  0.2308003010945837  T  T  T
0.6666666666666643  0.3333333333333357  0.0000000000000000  T  T  T
0.6666666666666643  0.3333333333333357  0.3089419142587850  T  T  T

0.00000000E+00  0.00000000E+00  0.00000000E+00
0.00000000E+00  0.00000000E+00  0.00000000E+00
0.00000000E+00  0.00000000E+00  0.00000000E+00
0.00000000E+00  0.00000000E+00  0.00000000E+00
0.00000000E+00  0.00000000E+00  0.00000000E+00
0.00000000E+00  0.00000000E+00  0.00000000E+00
0.00000000E+00  0.00000000E+00  0.00000000E+00
0.00000000E+00  0.00000000E+00  0.00000000E+00
0.00000000E+00  0.00000000E+00  0.00000000E+00
