Hf4N3  (n=3)
1.00000000000000
3.1303739948518388  0.0000000000000003  0.0000000000000000
-1.5651869974259185  2.7109834039515497  0.0000000000000000
0.0000000000000000  0.0000000000000000  37.3925426221510762
Hf  N  Cl
4  3  2
Selective  dynamics
Direct
-0.0000000000000000  -0.0000000000000000  0.0490469076685250  T  T  T
-0.0000000000000000  -0.0000000000000000  0.1266487722989036  T  T  T
-0.0000000000000000  -0.0000000000000000  0.2047687177438866  T  T  T
-0.0000000000000000  -0.0000000000000000  0.2823705823742651  T  T  T
0.3333333333333357  0.6666666666666643  0.0879228071494501  T  T  T
0.3333333333333357  0.6666666666666643  0.1657087450213914  T  T  T
0.3333333333333357  0.6666666666666643  0.2434946828933327  T  T  T
0.6666666666666643  0.3333333333333357  0.0000000000000000  T  T  T
0.6666666666666643  0.3333333333333357  0.3314174900427825  T  T  T

0.00000000E+00  0.00000000E+00  0.00000000E+00
0.00000000E+00  0.00000000E+00  0.00000000E+00
0.00000000E+00  0.00000000E+00  0.00000000E+00
0.00000000E+00  0.00000000E+00  0.00000000E+00
0.00000000E+00  0.00000000E+00  0.00000000E+00
0.00000000E+00  0.00000000E+00  0.00000000E+00
0.00000000E+00  0.00000000E+00  0.00000000E+00
0.00000000E+00  0.00000000E+00  0.00000000E+00
0.00000000E+00  0.00000000E+00  0.00000000E+00
