Zr4C3  (n=3)
1.00000000000000
3.3622743290053467  0.0000000000000001  0.0000000000000000
-1.6811371645026736  2.9118149892516278  0.0000000000000000
0.0000000000000000  0.0000000000000000  37.2020943871012904
Zr  C  Cl
4  3  2
Selective  dynamics
Direct
0.0000000000000000  -0.0000000000000000  0.0492829119613367  T  T  T
0.0000000000000000  -0.0000000000000000  0.1260631516106909  T  T  T
0.0000000000000000  -0.0000000000000000  0.2019316720176260  T  T  T
0.0000000000000000  -0.0000000000000000  0.2787119116669803  T  T  T
0.3333333333333357  0.6666666666666643  0.0817581912928347  T  T  T
0.3333333333333357  0.6666666666666643  0.1639974118141548  T  T  T
0.3333333333333357  0.6666666666666643  0.2462366323354749  T  T  T
0.6666666666666643  0.3333333333333357  0.0000000000000000  T  T  T
0.6666666666666643  0.3333333333333357  0.3279948236283170  T  T  T

0.00000000E+00  0.00000000E+00  0.00000000E+00
0.00000000E+00  0.00000000E+00  0.00000000E+00
0.00000000E+00  0.00000000E+00  0.00000000E+00
0.00000000E+00  0.00000000E+00  0.00000000E+00
0.00000000E+00  0.00000000E+00  0.00000000E+00
0.00000000E+00  0.00000000E+00  0.00000000E+00
0.00000000E+00  0.00000000E+00  0.00000000E+00
0.00000000E+00  0.00000000E+00  0.00000000E+00
0.00000000E+00  0.00000000E+00  0.00000000E+00
