Ti4N3  (n=3)
1.00000000000000
2.9983938949144622  0.0000000000000000  0.0000000000000000
-1.4991969474572306  2.5966852837807330  0.0000000000000000
0.0000000000000000  0.0000000000000000  36.4118989941564095
Ti  N  Cl
4  3  2
Selective  dynamics
Direct
-0.0000000000000000  -0.0000000000000000  0.0473467628858204  T  T  T
-0.0000000000000000  -0.0000000000000000  0.1199073025793711  T  T  T
-0.0000000000000000  -0.0000000000000000  0.1935039533396862  T  T  T
-0.0000000000000000  -0.0000000000000000  0.2660644930332368  T  T  T
0.3333333333333357  0.6666666666666643  0.0815179014231503  T  T  T
0.3333333333333357  0.6666666666666643  0.1567056279595285  T  T  T
0.3333333333333357  0.6666666666666643  0.2318933544958924  T  T  T
0.6666666666666643  0.3333333333333357  0.0000000000000000  T  T  T
0.6666666666666643  0.3333333333333357  0.3134112559190571  T  T  T

0.00000000E+00  0.00000000E+00  0.00000000E+00
0.00000000E+00  0.00000000E+00  0.00000000E+00
0.00000000E+00  0.00000000E+00  0.00000000E+00
0.00000000E+00  0.00000000E+00  0.00000000E+00
0.00000000E+00  0.00000000E+00  0.00000000E+00
0.00000000E+00  0.00000000E+00  0.00000000E+00
0.00000000E+00  0.00000000E+00  0.00000000E+00
0.00000000E+00  0.00000000E+00  0.00000000E+00
0.00000000E+00  0.00000000E+00  0.00000000E+00
