Hf4C3  (n=3)
1.00000000000000
3.3145645994466708  -0.0000000000000001  0.0000000000000000
-1.6572822997233350  2.8704971496121385  -0.0000000000000000
0.0000000000000000  0.0000000000000000  37.0432635915158244
Hf  C  Cl
4  3  2
Selective  dynamics
Direct
0.0000000000000000  -0.0000000000000000  0.0491108910387102  T  T  T
-0.0000000000000000  -0.0000000000000000  0.1250001695466256  T  T  T
-0.0000000000000000  -0.0000000000000000  0.2001132903342190  T  T  T
-0.0000000000000000  -0.0000000000000000  0.2760025688421416  T  T  T
0.3333333333333357  0.6666666666666643  0.0809175025854954  T  T  T
0.3333333333333357  0.6666666666666643  0.1625567299404223  T  T  T
0.3333333333333357  0.6666666666666643  0.2441959572953416  T  T  T
0.6666666666666643  0.3333333333333357  0.0000000000000000  T  T  T
0.6666666666666643  0.3333333333333357  0.3251134598808444  T  T  T

0.00000000E+00  0.00000000E+00  0.00000000E+00
0.00000000E+00  0.00000000E+00  0.00000000E+00
0.00000000E+00  0.00000000E+00  0.00000000E+00
0.00000000E+00  0.00000000E+00  0.00000000E+00
0.00000000E+00  0.00000000E+00  0.00000000E+00
0.00000000E+00  0.00000000E+00  0.00000000E+00
0.00000000E+00  0.00000000E+00  0.00000000E+00
0.00000000E+00  0.00000000E+00  0.00000000E+00
0.00000000E+00  0.00000000E+00  0.00000000E+00
