Ta4N3  (n=3)
1.00000000000000
2.9832658134093313  0.0000000000000005  0.0000000000000000
-1.4916329067046652  2.5835839811230352  0.0000000000000000
0.0000000000000000  0.0000000000000000  37.4578144640345130
Ta  N  Cl
4  3  2
Selective  dynamics
Direct
-0.0000000000000000  0.0000000000000000  0.0498956133145663  T  T  T
-0.0000000000000000  0.0000000000000000  0.1276713694639023  T  T  T
-0.0000000000000000  0.0000000000000000  0.2049111541639972  T  T  T
-0.0000000000000000  0.0000000000000000  0.2826869103133331  T  T  T
0.3333333333333357  0.6666666666666643  0.0899772526928908  T  T  T
0.3333333333333357  0.6666666666666643  0.1662912618139497  T  T  T
0.3333333333333357  0.6666666666666643  0.2426052709350086  T  T  T
0.6666666666666643  0.3333333333333357  0.0000000000000000  T  T  T
0.6666666666666643  0.3333333333333357  0.3325825236279069  T  T  T

0.00000000E+00  0.00000000E+00  0.00000000E+00
0.00000000E+00  0.00000000E+00  0.00000000E+00
0.00000000E+00  0.00000000E+00  0.00000000E+00
0.00000000E+00  0.00000000E+00  0.00000000E+00
0.00000000E+00  0.00000000E+00  0.00000000E+00
0.00000000E+00  0.00000000E+00  0.00000000E+00
0.00000000E+00  0.00000000E+00  0.00000000E+00
0.00000000E+00  0.00000000E+00  0.00000000E+00
0.00000000E+00  0.00000000E+00  0.00000000E+00
