Ta4C3  (n=3)
1.00000000000000
3.0928984447775596  0.0000000000000000  -0.0000000000000000
-1.5464492223887794  2.6785286257726226  0.0000000000000000
0.0000000000000000  -0.0000000000000000  37.2143232077552781
Ta  C  Cl
4  3  2
Selective  dynamics
Direct
-0.0000000000000000  -0.0000000000000000  0.0494989391123615  T  T  T
-0.0000000000000000  -0.0000000000000000  0.1258665416271537  T  T  T
-0.0000000000000000  -0.0000000000000000  0.2023491064061790  T  T  T
-0.0000000000000000  -0.0000000000000000  0.2787167089209712  T  T  T
0.3333333333333357  0.6666666666666643  0.0855473308624472  T  T  T
0.3333333333333357  0.6666666666666643  0.1641078240166663  T  T  T
0.3333333333333357  0.6666666666666643  0.2426683171708780  T  T  T
0.6666666666666643  0.3333333333333357  0.0000000000000000  T  T  T
0.6666666666666643  0.3333333333333357  0.3282156480333324  T  T  T

0.00000000E+00  0.00000000E+00  0.00000000E+00
0.00000000E+00  0.00000000E+00  0.00000000E+00
0.00000000E+00  0.00000000E+00  0.00000000E+00
0.00000000E+00  0.00000000E+00  0.00000000E+00
0.00000000E+00  0.00000000E+00  0.00000000E+00
0.00000000E+00  0.00000000E+00  0.00000000E+00
0.00000000E+00  0.00000000E+00  0.00000000E+00
0.00000000E+00  0.00000000E+00  0.00000000E+00
0.00000000E+00  0.00000000E+00  0.00000000E+00
