Sc4C3  (n=3)
1.00000000000000
3.4168878578450648  0.0000000000000000  0.0000000000000000
-1.7084439289225322  2.9591116891149896  0.0000000000000000
0.0000000000000000  0.0000000000000000  36.4167228454846565
Sc  C  Cl
4  3  2
Selective  dynamics
Direct
0.0000000000000000  0.0000000000000000  0.0462587585864204  T  T  T
0.0000000000000000  0.0000000000000000  0.1201072592402594  T  T  T
0.0000000000000000  0.0000000000000000  0.1933949439625263  T  T  T
0.0000000000000000  0.0000000000000000  0.2672434446163652  T  T  T
0.3333333333333357  0.6666666666666643  0.0817748081700852  T  T  T
0.3333333333333357  0.6666666666666643  0.1567511016013891  T  T  T
0.3333333333333357  0.6666666666666643  0.2317273950326857  T  T  T
0.6666666666666643  0.3333333333333357  0.0000000000000000  T  T  T
0.6666666666666643  0.3333333333333357  0.3135022032027856  T  T  T

0.00000000E+00  0.00000000E+00  0.00000000E+00
0.00000000E+00  0.00000000E+00  0.00000000E+00
0.00000000E+00  0.00000000E+00  0.00000000E+00
0.00000000E+00  0.00000000E+00  0.00000000E+00
0.00000000E+00  0.00000000E+00  0.00000000E+00
0.00000000E+00  0.00000000E+00  0.00000000E+00
0.00000000E+00  0.00000000E+00  0.00000000E+00
0.00000000E+00  0.00000000E+00  0.00000000E+00
0.00000000E+00  0.00000000E+00  0.00000000E+00
