Cr4N3  (n=3)
1.00000000000000
2.7931714580742062  0.0000000000000000  0.0000000000000000
-1.3965857290371033  2.4189574398228060  0.0000000000000000
0.0000000000000000  0.0000000000000000  36.0091507999148916
Cr  N  Cl
4  3  2
Selective  dynamics
Direct
0.0000000000000000  0.0000000000000000  0.0481513962996120  T  T  T
0.0000000000000000  0.0000000000000000  0.1170815466726705  T  T  T
0.0000000000000000  0.0000000000000000  0.1886504840849366  T  T  T
0.0000000000000000  0.0000000000000000  0.2575806344579880  T  T  T
0.3333333333333357  0.6666666666666643  0.0812900030864668  T  T  T
0.3333333333333357  0.6666666666666643  0.1528660153788035  T  T  T
0.3333333333333357  0.6666666666666643  0.2244420276711334  T  T  T
0.6666666666666643  0.3333333333333357  0.0000000000000000  T  T  T
0.6666666666666643  0.3333333333333357  0.3057320307576071  T  T  T

0.00000000E+00  0.00000000E+00  0.00000000E+00
0.00000000E+00  0.00000000E+00  0.00000000E+00
0.00000000E+00  0.00000000E+00  0.00000000E+00
0.00000000E+00  0.00000000E+00  0.00000000E+00
0.00000000E+00  0.00000000E+00  0.00000000E+00
0.00000000E+00  0.00000000E+00  0.00000000E+00
0.00000000E+00  0.00000000E+00  0.00000000E+00
0.00000000E+00  0.00000000E+00  0.00000000E+00
0.00000000E+00  0.00000000E+00  0.00000000E+00
