Nb4N3  (n=3)
1.00000000000000
3.0126726034702780  0.0000000000000002  0.0000000000000000
-1.5063363017351388  2.6090510085738594  0.0000000000000000
0.0000000000000000  0.0000000000000000  37.4017920101758676
Nb  N  Cl
4  3  2
Selective  dynamics
Direct
0.0000000000000000  -0.0000000000000000  0.0496398169501871  T  T  T
0.0000000000000000  0.0000000000000000  0.1270895604453218  T  T  T
0.0000000000000000  0.0000000000000000  0.2044932687090065  T  T  T
0.0000000000000000  -0.0000000000000000  0.2819430122041410  T  T  T
0.3333333333333357  0.6666666666666643  0.0895683116184605  T  T  T
0.3333333333333357  0.6666666666666643  0.1657914145771605  T  T  T
0.3333333333333357  0.6666666666666643  0.2420145175358605  T  T  T
0.6666666666666643  0.3333333333333357  0.0000000000000000  T  T  T
0.6666666666666643  0.3333333333333357  0.3315828291543283  T  T  T

0.00000000E+00  0.00000000E+00  0.00000000E+00
0.00000000E+00  0.00000000E+00  0.00000000E+00
0.00000000E+00  0.00000000E+00  0.00000000E+00
0.00000000E+00  0.00000000E+00  0.00000000E+00
0.00000000E+00  0.00000000E+00  0.00000000E+00
0.00000000E+00  0.00000000E+00  0.00000000E+00
0.00000000E+00  0.00000000E+00  0.00000000E+00
0.00000000E+00  0.00000000E+00  0.00000000E+00
0.00000000E+00  0.00000000E+00  0.00000000E+00
