Zr4N3  (n=3)
1.00000000000000
3.1890158331264375  0.0000000000000002  0.0000000000000000
-1.5945079165632190  2.7617687260912871  0.0000000000000000
0.0000000000000000  0.0000000000000000  37.4988177933970519
Zr  N  Cl
4  3  2
Selective  dynamics
Direct
0.0000000000000000  -0.0000000000000000  0.0493207416236248  T  T  T
0.0000000000000000  -0.0000000000000000  0.1273801027815216  T  T  T
0.0000000000000000  -0.0000000000000000  0.2059322128829368  T  T  T
0.0000000000000000  0.0000000000000000  0.2839915740408337  T  T  T
0.3333333333333357  0.6666666666666643  0.0882742338729495  T  T  T
0.3333333333333357  0.6666666666666643  0.1666561578322293  T  T  T
0.3333333333333357  0.6666666666666643  0.2450380817915089  T  T  T
0.6666666666666643  0.3333333333333357  0.0000000000000000  T  T  T
0.6666666666666643  0.3333333333333357  0.3333123156644660  T  T  T

0.00000000E+00  0.00000000E+00  0.00000000E+00
0.00000000E+00  0.00000000E+00  0.00000000E+00
0.00000000E+00  0.00000000E+00  0.00000000E+00
0.00000000E+00  0.00000000E+00  0.00000000E+00
0.00000000E+00  0.00000000E+00  0.00000000E+00
0.00000000E+00  0.00000000E+00  0.00000000E+00
0.00000000E+00  0.00000000E+00  0.00000000E+00
0.00000000E+00  0.00000000E+00  0.00000000E+00
0.00000000E+00  0.00000000E+00  0.00000000E+00
