Mo4N3  (n=3)
1.00000000000000
2.9450480816050355  0.0000000000000000  0.0000000000000000
-1.4725240408025178  2.5504864542465278  0.0000000000000000
0.0000000000000000  0.0000000000000000  37.0633289301373878
Mo  N  Cl
4  3  2
Selective  dynamics
Direct
0.0000000000000000  0.0000000000000000  0.0501230415368568  T  T  T
0.0000000000000000  0.0000000000000000  0.1244911061068405  T  T  T
0.0000000000000000  0.0000000000000000  0.2009877237326609  T  T  T
0.0000000000000000  -0.0000000000000000  0.2753557883026446  T  T  T
0.3333333333333357  0.6666666666666643  0.0876481344942721  T  T  T
0.3333333333333357  0.6666666666666643  0.1627394149197471  T  T  T
0.3333333333333357  0.6666666666666643  0.2378306953452148  T  T  T
0.6666666666666643  0.3333333333333357  0.0000000000000000  T  T  T
0.6666666666666643  0.3333333333333357  0.3254788298394943  T  T  T

0.00000000E+00  0.00000000E+00  0.00000000E+00
0.00000000E+00  0.00000000E+00  0.00000000E+00
0.00000000E+00  0.00000000E+00  0.00000000E+00
0.00000000E+00  0.00000000E+00  0.00000000E+00
0.00000000E+00  0.00000000E+00  0.00000000E+00
0.00000000E+00  0.00000000E+00  0.00000000E+00
0.00000000E+00  0.00000000E+00  0.00000000E+00
0.00000000E+00  0.00000000E+00  0.00000000E+00
0.00000000E+00  0.00000000E+00  0.00000000E+00
