Mo4C3  (n=3)
1.00000000000000
2.9774061037874273  -0.0000000000000003  0.0000000000000000
-1.4887030518937137  2.5785093237556880  0.0000000000000000
0.0000000000000000  0.0000000000000000  37.0864544349704843
Mo  C  Cl
4  3  2
Selective  dynamics
Direct
0.0000000000000000  0.0000000000000000  0.0499296792809705  T  T  T
0.0000000000000000  0.0000000000000000  0.1248730479079335  T  T  T
0.0000000000000000  0.0000000000000000  0.2010263840845094  T  T  T
0.0000000000000000  0.0000000000000000  0.2759697527114723  T  T  T
0.3333333333333357  0.6666666666666643  0.0871729937681371  T  T  T
0.3333333333333357  0.6666666666666643  0.1629497159962178  T  T  T
0.3333333333333357  0.6666666666666643  0.2387264382242985  T  T  T
0.6666666666666643  0.3333333333333357  0.0000000000000000  T  T  T
0.6666666666666643  0.3333333333333357  0.3258994319924426  T  T  T

0.00000000E+00  0.00000000E+00  0.00000000E+00
0.00000000E+00  0.00000000E+00  0.00000000E+00
0.00000000E+00  0.00000000E+00  0.00000000E+00
0.00000000E+00  0.00000000E+00  0.00000000E+00
0.00000000E+00  0.00000000E+00  0.00000000E+00
0.00000000E+00  0.00000000E+00  0.00000000E+00
0.00000000E+00  0.00000000E+00  0.00000000E+00
0.00000000E+00  0.00000000E+00  0.00000000E+00
0.00000000E+00  0.00000000E+00  0.00000000E+00
