Sc4N3  (n=3)
1.00000000000000
3.2262838412927706  0.0000000000000003  0.0000000000000000
-1.6131419206463844  2.7940437676221617  0.0000000000000000
0.0000000000000000  0.0000000000000000  36.7016928914804978
Sc  N  Cl
4  3  2
Selective  dynamics
Direct
0.0000000000000000  0.0000000000000000  0.0478245893246877  T  T  T
0.0000000000000000  0.0000000000000000  0.1224404688268765  T  T  T
0.0000000000000000  0.0000000000000000  0.1963920418717456  T  T  T
0.0000000000000000  0.0000000000000000  0.2710079213739343  T  T  T
0.3333333333333357  0.6666666666666643  0.0793275855521222  T  T  T
0.3333333333333357  0.6666666666666643  0.1594162553493074  T  T  T
0.3333333333333357  0.6666666666666643  0.2395049251464925  T  T  T
0.6666666666666643  0.3333333333333357  0.0000000000000000  T  T  T
0.6666666666666643  0.3333333333333357  0.3188325106986220  T  T  T

0.00000000E+00  0.00000000E+00  0.00000000E+00
0.00000000E+00  0.00000000E+00  0.00000000E+00
0.00000000E+00  0.00000000E+00  0.00000000E+00
0.00000000E+00  0.00000000E+00  0.00000000E+00
0.00000000E+00  0.00000000E+00  0.00000000E+00
0.00000000E+00  0.00000000E+00  0.00000000E+00
0.00000000E+00  0.00000000E+00  0.00000000E+00
0.00000000E+00  0.00000000E+00  0.00000000E+00
0.00000000E+00  0.00000000E+00  0.00000000E+00
