Zr3N2  (n=2)
1.00000000000000
3.3458021970211940  0.0000000000000000  0.0000000000000000
-1.6729010985105970  2.8975496994357663  0.0000000000000000
0.0000000000000004  -0.0000000000000010  33.6030847715463921
Zr  N  S
3  2  2
Selective  dynamics
Direct
0.0000000000000000  0.0000000000000000  0.0489160318423543  T  T  T
0.6666666666666643  0.3333333333333357  0.1280103423545004  T  T  T
0.3333333333333357  0.6666666666666643  0.2071046528666610  T  T  T
0.3333333333333357  0.6666666666666643  0.0901697461875616  T  T  T
0.0000000000000000  -0.0000000000000000  0.1658509385214465  T  T  T
0.3333333333333357  0.6666666666666643  0.0000000000000000  T  T  T
0.0000000000000000  0.0000000000000000  0.2560206847090152  T  T  T

0.00000000E+00  0.00000000E+00  0.00000000E+00
0.00000000E+00  0.00000000E+00  0.00000000E+00
0.00000000E+00  0.00000000E+00  0.00000000E+00
0.00000000E+00  0.00000000E+00  0.00000000E+00
0.00000000E+00  0.00000000E+00  0.00000000E+00
0.00000000E+00  0.00000000E+00  0.00000000E+00
0.00000000E+00  0.00000000E+00  0.00000000E+00
