Hf3C2  (n=2)
1.00000000000000
3.3741465742948278  -0.0000000000000001  -0.0000000000000000
-1.6870732871474141  2.9220966502723096  -0.0000000000000003
0.0000000000000001  -0.0000000000000034  33.5230725549164816
Hf  C  S
3  2  2
Selective  dynamics
Direct
-0.0000000000000000  -0.0000000000000000  0.0478532117665495  T  T  T
0.6666666666666643  0.3333333333333357  0.1271224846850516  T  T  T
0.3333333333333357  0.6666666666666643  0.2063917576035535  T  T  T
0.3333333333333357  0.6666666666666643  0.0882635271274217  T  T  T
0.0000000000000000  0.0000000000000000  0.1659814422426740  T  T  T
0.3333333333333357  0.6666666666666643  0.0000000000000000  T  T  T
0.0000000000000000  0.0000000000000000  0.2542449693701031  T  T  T

0.00000000E+00  0.00000000E+00  0.00000000E+00
0.00000000E+00  0.00000000E+00  0.00000000E+00
0.00000000E+00  0.00000000E+00  0.00000000E+00
0.00000000E+00  0.00000000E+00  0.00000000E+00
0.00000000E+00  0.00000000E+00  0.00000000E+00
0.00000000E+00  0.00000000E+00  0.00000000E+00
0.00000000E+00  0.00000000E+00  0.00000000E+00
