Nb3N2  (n=2)
1.00000000000000
3.1650960530772250  -0.0000000000000002  0.0000000000000001
-1.5825480265386127  2.7410535876797293  -0.0000000000000001
0.0000000000000019  0.0000000000000000  33.5140502111556771
Nb  N  S
3  2  2
Selective  dynamics
Direct
0.0000000000000000  -0.0000000000000000  0.0495382613549525  T  T  T
0.6666666666666643  0.3333333333333357  0.1270221020365012  T  T  T
0.3333333333333357  0.6666666666666643  0.2045059427180498  T  T  T
0.3333333333333357  0.6666666666666643  0.0888951568682772  T  T  T
-0.0000000000000000  0.0000000000000000  0.1651490472047178  T  T  T
0.3333333333333357  0.6666666666666643  0.0000000000000000  T  T  T
0.0000000000000000  0.0000000000000000  0.2540442040730023  T  T  T

0.00000000E+00  0.00000000E+00  0.00000000E+00
0.00000000E+00  0.00000000E+00  0.00000000E+00
0.00000000E+00  0.00000000E+00  0.00000000E+00
0.00000000E+00  0.00000000E+00  0.00000000E+00
0.00000000E+00  0.00000000E+00  0.00000000E+00
0.00000000E+00  0.00000000E+00  0.00000000E+00
0.00000000E+00  0.00000000E+00  0.00000000E+00
