Sc3C2  (n=2)
1.00000000000000
3.7186338279813613  0.0000000000000002  0.0000000000000000
-1.8593169139906807  3.2204313632209418  0.0000000000000000
0.0000000000000001  0.0000000000000008  31.8480699273868879
Sc  C  S
3  2  2
Selective  dynamics
Direct
0.0000000000000000  0.0000000000000000  0.0366014939661757  T  T  T
0.6666666666666643  0.3333333333333357  0.1075115374809271  T  T  T
0.3333333333333357  0.6666666666666643  0.1784215809956786  T  T  T
0.3333333333333357  0.6666666666666643  0.0658586128905392  T  T  T
-0.0000000000000000  -0.0000000000000000  0.1491644620713084  T  T  T
0.3333333333333357  0.6666666666666643  0.0000000000000000  T  T  T
-0.0000000000000000  -0.0000000000000000  0.2150230749618543  T  T  T

0.00000000E+00  0.00000000E+00  0.00000000E+00
0.00000000E+00  0.00000000E+00  0.00000000E+00
0.00000000E+00  0.00000000E+00  0.00000000E+00
0.00000000E+00  0.00000000E+00  0.00000000E+00
0.00000000E+00  0.00000000E+00  0.00000000E+00
0.00000000E+00  0.00000000E+00  0.00000000E+00
0.00000000E+00  0.00000000E+00  0.00000000E+00
