Ta3N2  (n=2)
1.00000000000000
3.1537469420560620  0.0000000000000000  0.0000000000000000
-1.5768734710280310  2.7312249692350248  0.0000000000000000
0.0000000000000000  -0.0000000000000002  33.4509790926081720
Ta  N  S
3  2  2
Selective  dynamics
Direct
-0.0000000000000000  -0.0000000000000000  0.0492386044977202  T  T  T
0.6666666666666643  0.3333333333333357  0.1263188600431075  T  T  T
0.3333333333333357  0.6666666666666643  0.2033991155884948  T  T  T
0.3333333333333357  0.6666666666666643  0.0889213776323485  T  T  T
0.0000000000000000  -0.0000000000000000  0.1637163424538591  T  T  T
0.3333333333333357  0.6666666666666643  0.0000000000000000  T  T  T
-0.0000000000000000  -0.0000000000000000  0.2526377200862149  T  T  T

0.00000000E+00  0.00000000E+00  0.00000000E+00
0.00000000E+00  0.00000000E+00  0.00000000E+00
0.00000000E+00  0.00000000E+00  0.00000000E+00
0.00000000E+00  0.00000000E+00  0.00000000E+00
0.00000000E+00  0.00000000E+00  0.00000000E+00
0.00000000E+00  0.00000000E+00  0.00000000E+00
0.00000000E+00  0.00000000E+00  0.00000000E+00
