Sc3N2  (n=2)
1.00000000000000
3.2291614236024579  -0.0000000000000001  0.0000000000000000
-1.6145807118012288  2.7965358262394138  0.0000000000000001
0.0000000000000001  0.0000000000000002  33.7859782034947784
Sc  N  S
3  2  2
Selective  dynamics
Direct
0.0000000000000000  0.0000000000000000  0.0524983027330325  T  T  T
0.6666666666666643  0.3333333333333357  0.1300240317236908  T  T  T
0.3333333333333357  0.6666666666666643  0.2075497607143567  T  T  T
0.3333333333333357  0.6666666666666643  0.0917060195202792  T  T  T
0.0000000000000000  -0.0000000000000000  0.1683420439271099  T  T  T
0.3333333333333357  0.6666666666666643  0.0000000000000000  T  T  T
-0.0000000000000000  0.0000000000000000  0.2600480634473968  T  T  T

0.00000000E+00  0.00000000E+00  0.00000000E+00
0.00000000E+00  0.00000000E+00  0.00000000E+00
0.00000000E+00  0.00000000E+00  0.00000000E+00
0.00000000E+00  0.00000000E+00  0.00000000E+00
0.00000000E+00  0.00000000E+00  0.00000000E+00
0.00000000E+00  0.00000000E+00  0.00000000E+00
0.00000000E+00  0.00000000E+00  0.00000000E+00
