Hf3N2  (n=2)
1.00000000000000
3.2945920346635291  0.0000000000000000  0.0000000000000000
-1.6472960173317646  2.8532003977698635  0.0000000000000000
0.0000000000000000  0.0000000000000000  33.5044850786505108
Hf  N  S
3  2  2
Selective  dynamics
Direct
0.0000000000000000  -0.0000000000000000  0.0483044230135863  T  T  T
0.6666666666666643  0.3333333333333357  0.1269156212770700  T  T  T
0.3333333333333357  0.6666666666666643  0.2055268195405610  T  T  T
0.3333333333333357  0.6666666666666643  0.0898668892372475  T  T  T
-0.0000000000000000  0.0000000000000000  0.1639643533168855  T  T  T
0.3333333333333357  0.6666666666666643  0.0000000000000000  T  T  T
0.0000000000000000  -0.0000000000000000  0.2538312425541402  T  T  T

0.00000000E+00  0.00000000E+00  0.00000000E+00
0.00000000E+00  0.00000000E+00  0.00000000E+00
0.00000000E+00  0.00000000E+00  0.00000000E+00
0.00000000E+00  0.00000000E+00  0.00000000E+00
0.00000000E+00  0.00000000E+00  0.00000000E+00
0.00000000E+00  0.00000000E+00  0.00000000E+00
0.00000000E+00  0.00000000E+00  0.00000000E+00
