Cr3C2  (n=2)
1.00000000000000
2.9216323147535919  0.0000000000000000  0.0000000000000000
-1.4608161573767959  2.5302078051227510  -0.0000000000000002
-0.0000000000000003  -0.0000000000000023  32.7444036031769272
Cr  C  S
3  2  2
Selective  dynamics
Direct
-0.0000000000000000  -0.0000000000000000  0.0469048354745230  T  T  T
0.6666666666666643  0.3333333333333357  0.1182553772704081  T  T  T
0.3333333333333357  0.6666666666666643  0.1896059190663013  T  T  T
0.3333333333333357  0.6666666666666643  0.0814293965647915  T  T  T
0.0000000000000000  0.0000000000000000  0.1550813579760328  T  T  T
0.3333333333333357  0.6666666666666643  0.0000000000000000  T  T  T
0.0000000000000000  -0.0000000000000000  0.2365107545408324  T  T  T

0.00000000E+00  0.00000000E+00  0.00000000E+00
0.00000000E+00  0.00000000E+00  0.00000000E+00
0.00000000E+00  0.00000000E+00  0.00000000E+00
0.00000000E+00  0.00000000E+00  0.00000000E+00
0.00000000E+00  0.00000000E+00  0.00000000E+00
0.00000000E+00  0.00000000E+00  0.00000000E+00
0.00000000E+00  0.00000000E+00  0.00000000E+00
