Mo3N2  (n=2)
1.00000000000000
2.9867139316991356  0.0000000000000002  0.0000000000000000
-1.4933569658495678  2.5865701389603637  0.0000000000000001
0.0000000000000001  0.0000000000000025  33.8272103171613097
Mo  N  S
3  2  2
Selective  dynamics
Direct
0.0000000000000000  0.0000000000000000  0.0483020729049111  T  T  T
0.6666666666666643  0.3333333333333357  0.1304717780827047  T  T  T
0.3333333333333357  0.6666666666666643  0.2126479207362454  T  T  T
0.3333333333333357  0.6666666666666643  0.0878484911611017  T  T  T
0.0000000000000000  0.0000000000000000  0.1730974018441614  T  T  T
0.3333333333333357  0.6666666666666643  0.0000000000000000  T  T  T
0.0000000000000000  0.0000000000000000  0.2609499936411565  T  T  T

0.00000000E+00  0.00000000E+00  0.00000000E+00
0.00000000E+00  0.00000000E+00  0.00000000E+00
0.00000000E+00  0.00000000E+00  0.00000000E+00
0.00000000E+00  0.00000000E+00  0.00000000E+00
0.00000000E+00  0.00000000E+00  0.00000000E+00
0.00000000E+00  0.00000000E+00  0.00000000E+00
0.00000000E+00  0.00000000E+00  0.00000000E+00
