Cr3N2  (n=2)
1.00000000000000
2.9148495195960420  0.0000000000000000  0.0000000000000000
-1.4574247597980210  2.5243337322034822  0.0000000000000000
0.0000000000000005  -0.0000000000000003  32.8471019904819954
Cr  N  S
3  2  2
Selective  dynamics
Direct
-0.0000000000000000  -0.0000000000000000  0.0463541003155123  T  T  T
0.6666666666666643  0.3333333333333357  0.1194489241814326  T  T  T
0.3333333333333357  0.6666666666666643  0.1925437480473610  T  T  T
0.3333333333333357  0.6666666666666643  0.0826029334051692  T  T  T
-0.0000000000000000  -0.0000000000000000  0.1562949149576960  T  T  T
0.3333333333333357  0.6666666666666643  0.0000000000000000  T  T  T
0.0000000000000000  0.0000000000000000  0.2388978483628732  T  T  T

0.00000000E+00  0.00000000E+00  0.00000000E+00
0.00000000E+00  0.00000000E+00  0.00000000E+00
0.00000000E+00  0.00000000E+00  0.00000000E+00
0.00000000E+00  0.00000000E+00  0.00000000E+00
0.00000000E+00  0.00000000E+00  0.00000000E+00
0.00000000E+00  0.00000000E+00  0.00000000E+00
0.00000000E+00  0.00000000E+00  0.00000000E+00
