Ti3C2  (n=2)
1.00000000000000
3.1742658343972772  -0.0000000000000000  0.0000000000000000
-1.5871329171986386  2.7489948512543125  0.0000000000000000
0.0000000000000001  0.0000000000000026  32.9899411083647607
Ti  C  S
3  2  2
Selective  dynamics
Direct
0.0000000000000000  0.0000000000000000  0.0470602194194087  T  T  T
0.6666666666666643  0.3333333333333357  0.1210966258187541  T  T  T
0.3333333333333357  0.6666666666666643  0.1951330322181069  T  T  T
0.3333333333333357  0.6666666666666643  0.0845049532305975  T  T  T
-0.0000000000000000  -0.0000000000000000  0.1576882984069031  T  T  T
0.3333333333333357  0.6666666666666643  0.0000000000000000  T  T  T
-0.0000000000000000  -0.0000000000000000  0.2421932516375082  T  T  T

0.00000000E+00  0.00000000E+00  0.00000000E+00
0.00000000E+00  0.00000000E+00  0.00000000E+00
0.00000000E+00  0.00000000E+00  0.00000000E+00
0.00000000E+00  0.00000000E+00  0.00000000E+00
0.00000000E+00  0.00000000E+00  0.00000000E+00
0.00000000E+00  0.00000000E+00  0.00000000E+00
0.00000000E+00  0.00000000E+00  0.00000000E+00
