Mo3C2  (n=2)
1.00000000000000
3.0896413074163962  -0.0000000000000001  0.0000000000000000
-1.5448206537081983  2.6757078610557516  -0.0000000000000000
0.0000000000000001  0.0000000000000000  33.3676905177968877
Mo  C  S
3  2  2
Selective  dynamics
Direct
0.0000000000000000  0.0000000000000000  0.0491165063349599  T  T  T
0.6666666666666643  0.3333333333333357  0.1253861203449699  T  T  T
0.3333333333333357  0.6666666666666643  0.2016557343549875  T  T  T
0.3333333333333357  0.6666666666666643  0.0864738700497700  T  T  T
-0.0000000000000000  -0.0000000000000000  0.1642983706401775  T  T  T
0.3333333333333357  0.6666666666666643  0.0000000000000000  T  T  T
0.0000000000000000  0.0000000000000000  0.2507722406899550  T  T  T

0.00000000E+00  0.00000000E+00  0.00000000E+00
0.00000000E+00  0.00000000E+00  0.00000000E+00
0.00000000E+00  0.00000000E+00  0.00000000E+00
0.00000000E+00  0.00000000E+00  0.00000000E+00
0.00000000E+00  0.00000000E+00  0.00000000E+00
0.00000000E+00  0.00000000E+00  0.00000000E+00
0.00000000E+00  0.00000000E+00  0.00000000E+00
