Ti3N2  (n=2)
1.00000000000000
3.0880562962410387  -0.0000000000000001  0.0000000000000001
-1.5440281481205194  2.6743352009915808  -0.0000000000000002
0.0000000000000024  -0.0000000000000034  33.0569067930128284
Ti  N  S
3  2  2
Selective  dynamics
Direct
-0.0000000000000000  0.0000000000000000  0.0486774125853828  T  T  T
0.6666666666666643  0.3333333333333357  0.1218641968448719  T  T  T
0.3333333333333357  0.6666666666666643  0.1950509811043682  T  T  T
0.3333333333333357  0.6666666666666643  0.0859002261678473  T  T  T
-0.0000000000000000  0.0000000000000000  0.1578281675219037  T  T  T
0.3333333333333357  0.6666666666666643  0.0000000000000000  T  T  T
0.0000000000000000  0.0000000000000000  0.2437283936897509  T  T  T

0.00000000E+00  0.00000000E+00  0.00000000E+00
0.00000000E+00  0.00000000E+00  0.00000000E+00
0.00000000E+00  0.00000000E+00  0.00000000E+00
0.00000000E+00  0.00000000E+00  0.00000000E+00
0.00000000E+00  0.00000000E+00  0.00000000E+00
0.00000000E+00  0.00000000E+00  0.00000000E+00
0.00000000E+00  0.00000000E+00  0.00000000E+00
