Nb3C2  (n=2)
1.00000000000000
3.2216518221067676  0.0000000000000000  0.0000000000000001
-1.6108259110533838  2.7900323206497952  -0.0000000000000004
0.0000000000000016  -0.0000000000000028  33.4412499898235680
Nb  C  S
3  2  2
Selective  dynamics
Direct
-0.0000000000000000  -0.0000000000000000  0.0499065241538988  T  T  T
0.6666666666666643  0.3333333333333357  0.1262101445429268  T  T  T
0.3333333333333357  0.6666666666666643  0.2025137649319550  T  T  T
0.3333333333333357  0.6666666666666643  0.0876564841789353  T  T  T
0.0000000000000000  0.0000000000000000  0.1647638049069106  T  T  T
0.3333333333333357  0.6666666666666643  0.0000000000000000  T  T  T
-0.0000000000000000  0.0000000000000000  0.2524202890858537  T  T  T

0.00000000E+00  0.00000000E+00  0.00000000E+00
0.00000000E+00  0.00000000E+00  0.00000000E+00
0.00000000E+00  0.00000000E+00  0.00000000E+00
0.00000000E+00  0.00000000E+00  0.00000000E+00
0.00000000E+00  0.00000000E+00  0.00000000E+00
0.00000000E+00  0.00000000E+00  0.00000000E+00
0.00000000E+00  0.00000000E+00  0.00000000E+00
