Zr3C2  (n=2)
1.00000000000000
3.4254412702664454  -0.0000000000000001  0.0000000000000000
-1.7127206351332227  2.9665191601756762  -0.0000000000000002
-0.0000000000000002  -0.0000000000000041  33.6315093501368239
Zr  C  S
3  2  2
Selective  dynamics
Direct
-0.0000000000000000  -0.0000000000000000  0.0480571413008438  T  T  T
0.6666666666666643  0.3333333333333357  0.1283247394619491  T  T  T
0.3333333333333357  0.6666666666666643  0.2085923376230544  T  T  T
0.3333333333333357  0.6666666666666643  0.0889521781422712  T  T  T
0.0000000000000000  0.0000000000000000  0.1676973007816195  T  T  T
0.3333333333333357  0.6666666666666643  0.0000000000000000  T  T  T
0.0000000000000000  0.0000000000000000  0.2566494789238981  T  T  T

0.00000000E+00  0.00000000E+00  0.00000000E+00
0.00000000E+00  0.00000000E+00  0.00000000E+00
0.00000000E+00  0.00000000E+00  0.00000000E+00
0.00000000E+00  0.00000000E+00  0.00000000E+00
0.00000000E+00  0.00000000E+00  0.00000000E+00
0.00000000E+00  0.00000000E+00  0.00000000E+00
0.00000000E+00  0.00000000E+00  0.00000000E+00
