Ta3C2  (n=2)
1.00000000000000
3.2070328896940694  0.0000000000000000  -0.0000000000000000
-1.6035164448470349  2.7773719537446913  0.0000000000000001
-0.0000000000000006  0.0000000000000001  33.3946068419272422
Ta  C  S
3  2  2
Selective  dynamics
Direct
-0.0000000000000000  0.0000000000000000  0.0493649653200354  T  T  T
0.6666666666666643  0.3333333333333357  0.1256880621721751  T  T  T
0.3333333333333357  0.6666666666666643  0.2020111590243223  T  T  T
0.3333333333333357  0.6666666666666643  0.0877617386236802  T  T  T
0.0000000000000000  -0.0000000000000000  0.1636143857206701  T  T  T
0.3333333333333357  0.6666666666666643  0.0000000000000000  T  T  T
0.0000000000000000  0.0000000000000000  0.2513761243443578  T  T  T

0.00000000E+00  0.00000000E+00  0.00000000E+00
0.00000000E+00  0.00000000E+00  0.00000000E+00
0.00000000E+00  0.00000000E+00  0.00000000E+00
0.00000000E+00  0.00000000E+00  0.00000000E+00
0.00000000E+00  0.00000000E+00  0.00000000E+00
0.00000000E+00  0.00000000E+00  0.00000000E+00
0.00000000E+00  0.00000000E+00  0.00000000E+00
