Cr4N3  (n=3)
1.00000000000000
2.7873244228521106  0.0000000000000001  0.0000000000000000
-1.3936622114260553  2.4138937587861991  0.0000000000000000
0.0000000000000000  0.0000000000000004  34.5906056125959580
Cr  N  H
4  3  2
Selective  dynamics
Direct
0.0000000000000000  0.0000000000000000  0.0309507669269208  T  T  T
0.6666666666666643  0.3333333333333357  0.1019972008646240  T  T  T
0.3333333333333357  0.6666666666666643  0.1752632125553677  T  T  T
0.0000000000000000  0.0000000000000000  0.2463096464930626  T  T  T
0.3333333333333357  0.6666666666666643  0.0653632604008367  T  T  T
0.0000000000000000  0.0000000000000000  0.1386302067100000  T  T  T
0.6666666666666643  0.3333333333333357  0.2118971530191468  T  T  T
0.3333333333333357  0.6666666666666643  0.0000000000000000  T  T  T
0.6666666666666643  0.3333333333333357  0.2772604134199835  T  T  T

0.00000000E+00  0.00000000E+00  0.00000000E+00
0.00000000E+00  0.00000000E+00  0.00000000E+00
0.00000000E+00  0.00000000E+00  0.00000000E+00
0.00000000E+00  0.00000000E+00  0.00000000E+00
0.00000000E+00  0.00000000E+00  0.00000000E+00
0.00000000E+00  0.00000000E+00  0.00000000E+00
0.00000000E+00  0.00000000E+00  0.00000000E+00
0.00000000E+00  0.00000000E+00  0.00000000E+00
0.00000000E+00  0.00000000E+00  0.00000000E+00
