Zr4C3  (n=3)
1.00000000000000
3.2976717494883854  0.0000000000000000  0.0000000000000000
-1.6488358747441927  2.8558675086435321  -0.0000000000000001
-0.0000000000000012  0.0000000000000019  35.4575552587149900
Zr  C  H
4  3  2
Selective  dynamics
Direct
0.0000000000000000  0.0000000000000000  0.0337878285362397  T  T  T
0.6666666666666643  0.3333333333333357  0.1097076105760395  T  T  T
0.3333333333333357  0.6666666666666643  0.1852240388964566  T  T  T
-0.0000000000000000  -0.0000000000000000  0.2611438209362563  T  T  T
0.3333333333333357  0.6666666666666643  0.0691733854535269  T  T  T
0.0000000000000000  -0.0000000000000000  0.1474658247362480  T  T  T
0.6666666666666643  0.3333333333333357  0.2257582640189609  T  T  T
0.3333333333333357  0.6666666666666643  0.0000000000000000  T  T  T
0.6666666666666643  0.3333333333333357  0.2949316494724962  T  T  T

0.00000000E+00  0.00000000E+00  0.00000000E+00
0.00000000E+00  0.00000000E+00  0.00000000E+00
0.00000000E+00  0.00000000E+00  0.00000000E+00
0.00000000E+00  0.00000000E+00  0.00000000E+00
0.00000000E+00  0.00000000E+00  0.00000000E+00
0.00000000E+00  0.00000000E+00  0.00000000E+00
0.00000000E+00  0.00000000E+00  0.00000000E+00
0.00000000E+00  0.00000000E+00  0.00000000E+00
0.00000000E+00  0.00000000E+00  0.00000000E+00
