Sc4C3  (n=3)
1.00000000000000
3.2601705178044873  0.0000000000000001  -0.0000000000000003
-1.6300852589022437  2.8233904891740940  0.0000000000000003
-0.0000000000000029  0.0000000000000007  35.3828205381067065
Sc  C  H
4  3  2
Selective  dynamics
Direct
0.0000000000000000  0.0000000000000000  0.0325997746809819  T  T  T
0.6666666666666643  0.3333333333333357  0.1070799810512685  T  T  T
0.3333333333333357  0.6666666666666643  0.1863624404460396  T  T  T
-0.0000000000000000  -0.0000000000000000  0.2608426468163176  T  T  T
0.3333333333333357  0.6666666666666643  0.0690289171794883  T  T  T
-0.0000000000000000  -0.0000000000000000  0.1467212107486540  T  T  T
0.6666666666666643  0.3333333333333357  0.2244135043178112  T  T  T
0.3333333333333357  0.6666666666666643  0.0000000000000000  T  T  T
0.6666666666666643  0.3333333333333357  0.2934424214973078  T  T  T

0.00000000E+00  0.00000000E+00  0.00000000E+00
0.00000000E+00  0.00000000E+00  0.00000000E+00
0.00000000E+00  0.00000000E+00  0.00000000E+00
0.00000000E+00  0.00000000E+00  0.00000000E+00
0.00000000E+00  0.00000000E+00  0.00000000E+00
0.00000000E+00  0.00000000E+00  0.00000000E+00
0.00000000E+00  0.00000000E+00  0.00000000E+00
0.00000000E+00  0.00000000E+00  0.00000000E+00
0.00000000E+00  0.00000000E+00  0.00000000E+00
