Sc4N3  (n=3)
1.00000000000000
3.1468483023791389  0.0000000000000000  0.0000000000000000
-1.5734241511895695  2.7252505718693807  -0.0000000000000002
-0.0000000000000001  -0.0000000000000040  35.1760797423384588
Sc  N  H
4  3  2
Selective  dynamics
Direct
-0.0000000000000000  -0.0000000000000000  0.0342114889379263  T  T  T
0.6666666666666643  0.3333333333333357  0.1081617739828086  T  T  T
0.3333333333333357  0.6666666666666643  0.1811279881759536  T  T  T
0.0000000000000000  0.0000000000000000  0.2550782732208358  T  T  T
0.3333333333333357  0.6666666666666643  0.0691925799621242  T  T  T
0.0000000000000000  -0.0000000000000000  0.1446448810793811  T  T  T
0.6666666666666643  0.3333333333333357  0.2200971821966299  T  T  T
0.3333333333333357  0.6666666666666643  0.0000000000000000  T  T  T
0.6666666666666643  0.3333333333333357  0.2892897621587540  T  T  T

0.00000000E+00  0.00000000E+00  0.00000000E+00
0.00000000E+00  0.00000000E+00  0.00000000E+00
0.00000000E+00  0.00000000E+00  0.00000000E+00
0.00000000E+00  0.00000000E+00  0.00000000E+00
0.00000000E+00  0.00000000E+00  0.00000000E+00
0.00000000E+00  0.00000000E+00  0.00000000E+00
0.00000000E+00  0.00000000E+00  0.00000000E+00
0.00000000E+00  0.00000000E+00  0.00000000E+00
0.00000000E+00  0.00000000E+00  0.00000000E+00
