Hf4N3  (n=3)
1.00000000000000
3.1404669109276795  0.0000000000000000  0.0000000000000000
-1.5702334554638397  2.7197241248168655  0.0000000000000000
0.0000000000000001  -0.0000000000000004  35.3212544042951535
Hf  N  H
4  3  2
Selective  dynamics
Direct
0.0000000000000000  0.0000000000000000  0.0327133200557357  T  T  T
0.6666666666666643  0.3333333333333357  0.1079259782523383  T  T  T
0.3333333333333357  0.6666666666666643  0.1842848896334961  T  T  T
-0.0000000000000000  -0.0000000000000000  0.2594975478300987  T  T  T
0.3333333333333357  0.6666666666666643  0.0710014802989449  T  T  T
0.0000000000000000  -0.0000000000000000  0.1461054339429173  T  T  T
0.6666666666666643  0.3333333333333357  0.2212093875868735  T  T  T
0.3333333333333357  0.6666666666666643  0.0000000000000000  T  T  T
0.6666666666666643  0.3333333333333357  0.2922108678858264  T  T  T

0.00000000E+00  0.00000000E+00  0.00000000E+00
0.00000000E+00  0.00000000E+00  0.00000000E+00
0.00000000E+00  0.00000000E+00  0.00000000E+00
0.00000000E+00  0.00000000E+00  0.00000000E+00
0.00000000E+00  0.00000000E+00  0.00000000E+00
0.00000000E+00  0.00000000E+00  0.00000000E+00
0.00000000E+00  0.00000000E+00  0.00000000E+00
0.00000000E+00  0.00000000E+00  0.00000000E+00
0.00000000E+00  0.00000000E+00  0.00000000E+00
