Ta4N3  (n=3)
1.00000000000000
3.0072142804878310  -0.0000000000000001  0.0000000000000000
-1.5036071402439155  2.6043239616185199  0.0000000000000000
-0.0000000000000001  0.0000000000000001  35.3682960728262827
Ta  N  H
4  3  2
Selective  dynamics
Direct
-0.0000000000000000  -0.0000000000000000  0.0322995605169478  T  T  T
0.6666666666666643  0.3333333333333357  0.1094576880538057  T  T  T
0.3333333333333357  0.6666666666666643  0.1836945760947802  T  T  T
0.0000000000000000  0.0000000000000000  0.2608527036316302  T  T  T
0.3333333333333357  0.6666666666666643  0.0700250680791879  T  T  T
0.0000000000000000  0.0000000000000000  0.1465761320742890  T  T  T
0.6666666666666643  0.3333333333333357  0.2231271960693822  T  T  T
0.3333333333333357  0.6666666666666643  0.0000000000000000  T  T  T
0.6666666666666643  0.3333333333333357  0.2931522641485780  T  T  T

0.00000000E+00  0.00000000E+00  0.00000000E+00
0.00000000E+00  0.00000000E+00  0.00000000E+00
0.00000000E+00  0.00000000E+00  0.00000000E+00
0.00000000E+00  0.00000000E+00  0.00000000E+00
0.00000000E+00  0.00000000E+00  0.00000000E+00
0.00000000E+00  0.00000000E+00  0.00000000E+00
0.00000000E+00  0.00000000E+00  0.00000000E+00
0.00000000E+00  0.00000000E+00  0.00000000E+00
0.00000000E+00  0.00000000E+00  0.00000000E+00
