Zr4N3  (n=3)
1.00000000000000
3.2018679725368493  0.0000000000000000  0.0000000000000000
-1.6009339862684246  2.7728990039984063  0.0000000000000001
-0.0000000000000006  -0.0000000000000009  35.4524192833907961
Zr  N  H
4  3  2
Selective  dynamics
Direct
-0.0000000000000000  -0.0000000000000000  0.0333763190560745  T  T  T
0.6666666666666643  0.3333333333333357  0.1086889509852083  T  T  T
0.3333333333333357  0.6666666666666643  0.1861405555666248  T  T  T
0.0000000000000000  0.0000000000000000  0.2614531874957667  T  T  T
0.3333333333333357  0.6666666666666643  0.0711437563452464  T  T  T
-0.0000000000000000  0.0000000000000000  0.1474147532759166  T  T  T
0.6666666666666643  0.3333333333333357  0.2236857502065786  T  T  T
0.3333333333333357  0.6666666666666643  0.0000000000000000  T  T  T
0.6666666666666643  0.3333333333333357  0.2948295065518330  T  T  T

0.00000000E+00  0.00000000E+00  0.00000000E+00
0.00000000E+00  0.00000000E+00  0.00000000E+00
0.00000000E+00  0.00000000E+00  0.00000000E+00
0.00000000E+00  0.00000000E+00  0.00000000E+00
0.00000000E+00  0.00000000E+00  0.00000000E+00
0.00000000E+00  0.00000000E+00  0.00000000E+00
0.00000000E+00  0.00000000E+00  0.00000000E+00
0.00000000E+00  0.00000000E+00  0.00000000E+00
0.00000000E+00  0.00000000E+00  0.00000000E+00
