Ti4N3  (n=3)
1.00000000000000
2.9391580490256093  0.0000000000000000  0.0000000000000000
-1.4695790245128046  2.5453855362340017  -0.0000000000000001
0.0000000000000001  0.0000000000000010  34.6723008768599072
Ti  N  H
4  3  2
Selective  dynamics
Direct
-0.0000000000000000  -0.0000000000000000  0.0328040275060870  T  T  T
0.6666666666666643  0.3333333333333357  0.1026692999023492  T  T  T
0.3333333333333357  0.6666666666666643  0.1762940406388938  T  T  T
0.0000000000000000  0.0000000000000000  0.2461593130351559  T  T  T
0.3333333333333357  0.6666666666666643  0.0677377298725148  T  T  T
-0.0000000000000000  0.0000000000000000  0.1394816702706175  T  T  T
0.6666666666666643  0.3333333333333357  0.2112256106687200  T  T  T
0.3333333333333357  0.6666666666666643  0.0000000000000000  T  T  T
0.6666666666666643  0.3333333333333357  0.2789633405412429  T  T  T

0.00000000E+00  0.00000000E+00  0.00000000E+00
0.00000000E+00  0.00000000E+00  0.00000000E+00
0.00000000E+00  0.00000000E+00  0.00000000E+00
0.00000000E+00  0.00000000E+00  0.00000000E+00
0.00000000E+00  0.00000000E+00  0.00000000E+00
0.00000000E+00  0.00000000E+00  0.00000000E+00
0.00000000E+00  0.00000000E+00  0.00000000E+00
0.00000000E+00  0.00000000E+00  0.00000000E+00
0.00000000E+00  0.00000000E+00  0.00000000E+00
