Mo4C3  (n=3)
1.00000000000000
3.0597754570151414  -0.0000000000000001  0.0000000000000000
-1.5298877285075707  2.6498432757587924  0.0000000000000000
-0.0000000000000001  -0.0000000000000010  34.7802732108184358
Mo  C  H
4  3  2
Selective  dynamics
Direct
0.0000000000000000  0.0000000000000000  0.0345540232319092  T  T  T
0.6666666666666643  0.3333333333333357  0.1027257012564537  T  T  T
0.3333333333333357  0.6666666666666643  0.1784760348982973  T  T  T
-0.0000000000000000  -0.0000000000000000  0.2466477129228336  T  T  T
0.3333333333333357  0.6666666666666643  0.0657402452364400  T  T  T
-0.0000000000000000  -0.0000000000000000  0.1406008680773713  T  T  T
0.6666666666666643  0.3333333333333357  0.2154614909183027  T  T  T
0.3333333333333357  0.6666666666666643  0.0000000000000000  T  T  T
0.6666666666666643  0.3333333333333357  0.2812017361547428  T  T  T

0.00000000E+00  0.00000000E+00  0.00000000E+00
0.00000000E+00  0.00000000E+00  0.00000000E+00
0.00000000E+00  0.00000000E+00  0.00000000E+00
0.00000000E+00  0.00000000E+00  0.00000000E+00
0.00000000E+00  0.00000000E+00  0.00000000E+00
0.00000000E+00  0.00000000E+00  0.00000000E+00
0.00000000E+00  0.00000000E+00  0.00000000E+00
0.00000000E+00  0.00000000E+00  0.00000000E+00
0.00000000E+00  0.00000000E+00  0.00000000E+00
