Nb4C3  (n=3)
1.00000000000000
3.1209300638204862  -0.0000000000000001  0.0000000000000000
-1.5604650319102431  2.7028047188771418  0.0000000000000000
0.0000000000000001  -0.0000000000000003  35.0902942516748269
Nb  C  H
4  3  2
Selective  dynamics
Direct
-0.0000000000000000  -0.0000000000000000  0.0329783401567183  T  T  T
0.6666666666666643  0.3333333333333357  0.1052921384377816  T  T  T
0.3333333333333357  0.6666666666666643  0.1822601453733816  T  T  T
0.0000000000000000  0.0000000000000000  0.2545739436544450  T  T  T
0.3333333333333357  0.6666666666666643  0.0679687858461961  T  T  T
-0.0000000000000000  -0.0000000000000000  0.1437761419055857  T  T  T
0.6666666666666643  0.3333333333333357  0.2195834979649590  T  T  T
0.3333333333333357  0.6666666666666643  0.0000000000000000  T  T  T
0.6666666666666643  0.3333333333333357  0.2875522838111632  T  T  T

0.00000000E+00  0.00000000E+00  0.00000000E+00
0.00000000E+00  0.00000000E+00  0.00000000E+00
0.00000000E+00  0.00000000E+00  0.00000000E+00
0.00000000E+00  0.00000000E+00  0.00000000E+00
0.00000000E+00  0.00000000E+00  0.00000000E+00
0.00000000E+00  0.00000000E+00  0.00000000E+00
0.00000000E+00  0.00000000E+00  0.00000000E+00
0.00000000E+00  0.00000000E+00  0.00000000E+00
0.00000000E+00  0.00000000E+00  0.00000000E+00
