Nb4N3  (n=3)
1.00000000000000
3.0528956800259461  -0.0000000000000001  0.0000000000000000
-1.5264478400129731  2.6438852140816342  0.0000000000000000
-0.0000000000000001  0.0000000000000000  35.2836797134723170
Nb  N  H
4  3  2
Selective  dynamics
Direct
-0.0000000000000000  -0.0000000000000000  0.0332687042144244  T  T  T
0.6666666666666643  0.3333333333333357  0.1084254084075533  T  T  T
0.3333333333333357  0.6666666666666643  0.1830317127595940  T  T  T
0.0000000000000000  0.0000000000000000  0.2581884169527229  T  T  T
0.3333333333333357  0.6666666666666643  0.0695003896236382  T  T  T
-0.0000000000000000  -0.0000000000000000  0.1457285605835778  T  T  T
0.6666666666666643  0.3333333333333357  0.2219567315435090  T  T  T
0.3333333333333357  0.6666666666666643  0.0000000000000000  T  T  T
0.6666666666666643  0.3333333333333357  0.2914571211671472  T  T  T

0.00000000E+00  0.00000000E+00  0.00000000E+00
0.00000000E+00  0.00000000E+00  0.00000000E+00
0.00000000E+00  0.00000000E+00  0.00000000E+00
0.00000000E+00  0.00000000E+00  0.00000000E+00
0.00000000E+00  0.00000000E+00  0.00000000E+00
0.00000000E+00  0.00000000E+00  0.00000000E+00
0.00000000E+00  0.00000000E+00  0.00000000E+00
0.00000000E+00  0.00000000E+00  0.00000000E+00
0.00000000E+00  0.00000000E+00  0.00000000E+00
