Ti4C3  (n=3)
1.00000000000000
3.0327382641969116  -0.0000000000000001  0.0000000000000000
-1.5163691320984558  2.6264283798775256  0.0000000000000000
0.0000000000000003  -0.0000000000000004  34.6332721682826445
Ti  C  H
4  3  2
Selective  dynamics
Direct
0.0000000000000000  0.0000000000000000  0.0328507654619777  T  T  T
0.6666666666666643  0.3333333333333357  0.1038289981955869  T  T  T
0.3333333333333357  0.6666666666666643  0.1743217962622596  T  T  T
0.0000000000000000  0.0000000000000000  0.2453000289958687  T  T  T
0.3333333333333357  0.6666666666666643  0.0659103373993732  T  T  T
-0.0000000000000000  -0.0000000000000000  0.1390753972289233  T  T  T
0.6666666666666643  0.3333333333333357  0.2122404570584651  T  T  T
0.3333333333333357  0.6666666666666643  0.0000000000000000  T  T  T
0.6666666666666643  0.3333333333333357  0.2781507944578467  T  T  T

0.00000000E+00  0.00000000E+00  0.00000000E+00
0.00000000E+00  0.00000000E+00  0.00000000E+00
0.00000000E+00  0.00000000E+00  0.00000000E+00
0.00000000E+00  0.00000000E+00  0.00000000E+00
0.00000000E+00  0.00000000E+00  0.00000000E+00
0.00000000E+00  0.00000000E+00  0.00000000E+00
0.00000000E+00  0.00000000E+00  0.00000000E+00
0.00000000E+00  0.00000000E+00  0.00000000E+00
0.00000000E+00  0.00000000E+00  0.00000000E+00
