Hf4C3  (n=3)
1.00000000000000
3.2418095565289526  0.0000000000000000  -0.0000000000000001
-1.6209047782644768  2.8074894304322524  -0.0000000000000002
-0.0000000000000004  0.0000000000000024  35.3354546368401543
Hf  C  H
4  3  2
Selective  dynamics
Direct
0.0000000000000000  0.0000000000000000  0.0338911840137865  T  T  T
0.6666666666666643  0.3333333333333357  0.1088534307864472  T  T  T
0.3333333333333357  0.6666666666666643  0.1836418757848903  T  T  T
-0.0000000000000000  -0.0000000000000000  0.2586041225575510  T  T  T
0.3333333333333357  0.6666666666666643  0.0690541083608292  T  T  T
-0.0000000000000000  0.0000000000000000  0.1462476532856728  T  T  T
0.6666666666666643  0.3333333333333357  0.2234411982105001  T  T  T
0.3333333333333357  0.6666666666666643  0.0000000000000000  T  T  T
0.6666666666666643  0.3333333333333357  0.2924953065713375  T  T  T

0.00000000E+00  0.00000000E+00  0.00000000E+00
0.00000000E+00  0.00000000E+00  0.00000000E+00
0.00000000E+00  0.00000000E+00  0.00000000E+00
0.00000000E+00  0.00000000E+00  0.00000000E+00
0.00000000E+00  0.00000000E+00  0.00000000E+00
0.00000000E+00  0.00000000E+00  0.00000000E+00
0.00000000E+00  0.00000000E+00  0.00000000E+00
0.00000000E+00  0.00000000E+00  0.00000000E+00
0.00000000E+00  0.00000000E+00  0.00000000E+00
