Ta4C3  (n=3)
1.00000000000000
3.0906509837421261  -0.0000000000000001  0.0000000000000000
-1.5453254918710631  2.6765822663039671  0.0000000000000000
-0.0000000000000001  -0.0000000000000002  35.1589324368414111
Ta  C  H
4  3  2
Selective  dynamics
Direct
-0.0000000000000000  -0.0000000000000000  0.0336599406088767  T  T  T
0.6666666666666643  0.3333333333333357  0.1067285481234068  T  T  T
0.3333333333333357  0.6666666666666643  0.1822145947063968  T  T  T
0.0000000000000000  0.0000000000000000  0.2552832022209190  T  T  T
0.3333333333333357  0.6666666666666643  0.0689631258304021  T  T  T
0.0000000000000000  0.0000000000000000  0.1444715714149019  T  T  T
0.6666666666666643  0.3333333333333357  0.2199800169993936  T  T  T
0.3333333333333357  0.6666666666666643  0.0000000000000000  T  T  T
0.6666666666666643  0.3333333333333357  0.2889431428297958  T  T  T

0.00000000E+00  0.00000000E+00  0.00000000E+00
0.00000000E+00  0.00000000E+00  0.00000000E+00
0.00000000E+00  0.00000000E+00  0.00000000E+00
0.00000000E+00  0.00000000E+00  0.00000000E+00
0.00000000E+00  0.00000000E+00  0.00000000E+00
0.00000000E+00  0.00000000E+00  0.00000000E+00
0.00000000E+00  0.00000000E+00  0.00000000E+00
0.00000000E+00  0.00000000E+00  0.00000000E+00
0.00000000E+00  0.00000000E+00  0.00000000E+00
