Mo4N3  (n=3)
1.00000000000000
2.8048482907688630  0.0000000000000000  0.0000000000000000
-1.4024241453844315  2.4290698736137970  0.0000000000000000
0.0000000000000001  -0.0000000000000011  36.1964927227438480
Mo  N  H
4  3  2
Selective  dynamics
Direct
0.0000000000000000  -0.0000000000000000  0.0324076361577628  T  T  T
0.6666666666666643  0.3333333333333357  0.1142274685367999  T  T  T
0.3333333333333357  0.6666666666666643  0.1950978798748874  T  T  T
0.0000000000000000  0.0000000000000000  0.2769177122539245  T  T  T
0.3333333333333357  0.6666666666666643  0.0716753835451946  T  T  T
0.0000000000000000  -0.0000000000000000  0.1546626742058437  T  T  T
0.6666666666666643  0.3333333333333357  0.2376499648664769  T  T  T
0.3333333333333357  0.6666666666666643  0.0000000000000000  T  T  T
0.6666666666666643  0.3333333333333357  0.3093253484116874  T  T  T

0.00000000E+00  0.00000000E+00  0.00000000E+00
0.00000000E+00  0.00000000E+00  0.00000000E+00
0.00000000E+00  0.00000000E+00  0.00000000E+00
0.00000000E+00  0.00000000E+00  0.00000000E+00
0.00000000E+00  0.00000000E+00  0.00000000E+00
0.00000000E+00  0.00000000E+00  0.00000000E+00
0.00000000E+00  0.00000000E+00  0.00000000E+00
0.00000000E+00  0.00000000E+00  0.00000000E+00
0.00000000E+00  0.00000000E+00  0.00000000E+00
