Cr4C3  (n=3)
1.00000000000000
2.7995114159817116  0.0000000000000000  0.0000000000000000
-1.3997557079908558  2.4244480044215893  0.0000000000000001
-0.0000000000000001  -0.0000000000000006  34.3436129168281639
Cr  C  H
4  3  2
Selective  dynamics
Direct
0.0000000000000000  0.0000000000000000  0.0310956745344581  T  T  T
0.6666666666666643  0.3333333333333357  0.0999947579047852  T  T  T
0.3333333333333357  0.6666666666666643  0.1720678506348612  T  T  T
-0.0000000000000000  -0.0000000000000000  0.2409669340051883  T  T  T
0.3333333333333357  0.6666666666666643  0.0640206701116318  T  T  T
0.0000000000000000  -0.0000000000000000  0.1360313042698232  T  T  T
0.6666666666666643  0.3333333333333357  0.2080419384280063  T  T  T
0.3333333333333357  0.6666666666666643  0.0000000000000000  T  T  T
0.6666666666666643  0.3333333333333357  0.2720626085396464  T  T  T

0.00000000E+00  0.00000000E+00  0.00000000E+00
0.00000000E+00  0.00000000E+00  0.00000000E+00
0.00000000E+00  0.00000000E+00  0.00000000E+00
0.00000000E+00  0.00000000E+00  0.00000000E+00
0.00000000E+00  0.00000000E+00  0.00000000E+00
0.00000000E+00  0.00000000E+00  0.00000000E+00
0.00000000E+00  0.00000000E+00  0.00000000E+00
0.00000000E+00  0.00000000E+00  0.00000000E+00
0.00000000E+00  0.00000000E+00  0.00000000E+00
