Ta2N  (n=1)
1.00000000000000
3.1767518283780776  -0.0000000000000003  0.0000000000000000
-1.5883759141890388  2.7511477847516708  0.0000000000000000
0.0000000000000000  0.0000000000000000  31.4649272737011145
Ta  N  Se
2  1  2
Selective  dynamics
Direct
0.0000000000000000  0.0000000000000000  0.0575514085417253  T  T  T
0.0000000000000000  0.0000000000000000  0.1479131462454266  T  T  T
0.3333333333333357  0.6666666666666643  0.1027322773935760  T  T  T
0.6666666666666643  0.3333333333333357  0.0000000000000000  T  T  T
0.6666666666666643  0.3333333333333357  0.2054645547871519  T  T  T

0.00000000E+00  0.00000000E+00  0.00000000E+00
0.00000000E+00  0.00000000E+00  0.00000000E+00
0.00000000E+00  0.00000000E+00  0.00000000E+00
0.00000000E+00  0.00000000E+00  0.00000000E+00
0.00000000E+00  0.00000000E+00  0.00000000E+00
