Nb2N  (n=1)
1.00000000000000
3.1891919994319307  -0.0000000000000008  0.0000000000000000
-1.5945959997159662  2.7619212895889045  0.0000000000000000
0.0000000000000000  0.0000000000000000  31.4772355643236352
Nb  N  Se
2  1  2
Selective  dynamics
Direct
-0.0000000000000000  0.0000000000000000  0.0578565608549988  T  T  T
0.0000000000000000  0.0000000000000000  0.1479186747462161  T  T  T
0.3333333333333357  0.6666666666666643  0.1028876178006108  T  T  T
0.6666666666666643  0.3333333333333357  0.0000000000000000  T  T  T
0.6666666666666643  0.3333333333333357  0.2057752356012149  T  T  T

0.00000000E+00  0.00000000E+00  0.00000000E+00
0.00000000E+00  0.00000000E+00  0.00000000E+00
0.00000000E+00  0.00000000E+00  0.00000000E+00
0.00000000E+00  0.00000000E+00  0.00000000E+00
0.00000000E+00  0.00000000E+00  0.00000000E+00
