Mo2C  (n=1)
1.00000000000000
3.0923699278221699  0.0000000000000002  0.0000000000000000
-1.5461849639110847  2.6780709156783256  0.0000000000000000
0.0000000000000000  0.0000000000000000  31.3994541181284745
Mo  C  Se
2  1  2
Selective  dynamics
Direct
0.0000000000000000  -0.0000000000000000  0.0579240950902974  T  T  T
0.0000000000000000  -0.0000000000000000  0.1458837193402645  T  T  T
0.3333333333333357  0.6666666666666643  0.1019039072152810  T  T  T
0.6666666666666643  0.3333333333333357  0.0000000000000000  T  T  T
0.6666666666666643  0.3333333333333357  0.2038078144305620  T  T  T

0.00000000E+00  0.00000000E+00  0.00000000E+00
0.00000000E+00  0.00000000E+00  0.00000000E+00
0.00000000E+00  0.00000000E+00  0.00000000E+00
0.00000000E+00  0.00000000E+00  0.00000000E+00
0.00000000E+00  0.00000000E+00  0.00000000E+00
