Ta2C  (n=1)
1.00000000000000
3.2948710688535026  -0.0000000000000035  -0.0000000000000000
-1.6474355344267535  2.8534420483069023  0.0000000000000000
0.0000000000000000  0.0000000000000000  31.2322939534238913
Ta  C  Se
2  1  2
Selective  dynamics
Direct
0.0000000000000000  0.0000000000000000  0.0565021598015701  T  T  T
-0.0000000000000000  -0.0000000000000000  0.1430443084379382  T  T  T
0.3333333333333357  0.6666666666666643  0.0997732341197542  T  T  T
0.6666666666666643  0.3333333333333357  0.0000000000000000  T  T  T
0.6666666666666643  0.3333333333333357  0.1995464682395084  T  T  T

0.00000000E+00  0.00000000E+00  0.00000000E+00
0.00000000E+00  0.00000000E+00  0.00000000E+00
0.00000000E+00  0.00000000E+00  0.00000000E+00
0.00000000E+00  0.00000000E+00  0.00000000E+00
0.00000000E+00  0.00000000E+00  0.00000000E+00
