Cr2C  (n=1)
1.00000000000000
2.9579669196216649  0.0000000000000001  0.0000000000000000
-1.4789834598108325  2.5616744959802871  0.0000000000000000
0.0000000000000000  0.0000000000000000  30.9075363531072185
Cr  C  Se
2  1  2
Selective  dynamics
Direct
0.0000000000000000  0.0000000000000000  0.0553784218901637  T  T  T
0.0000000000000000  0.0000000000000000  0.1357573673107544  T  T  T
0.3333333333333357  0.6666666666666643  0.0955678946004590  T  T  T
0.6666666666666643  0.3333333333333357  0.0000000000000000  T  T  T
0.6666666666666643  0.3333333333333357  0.1911357892009183  T  T  T

0.00000000E+00  0.00000000E+00  0.00000000E+00
0.00000000E+00  0.00000000E+00  0.00000000E+00
0.00000000E+00  0.00000000E+00  0.00000000E+00
0.00000000E+00  0.00000000E+00  0.00000000E+00
0.00000000E+00  0.00000000E+00  0.00000000E+00
