Sc2N  (n=1)
1.00000000000000
3.3378027661780170  0.0000000000000001  -0.0000000000000000
-1.6689013830890080  2.8906219889785740  -0.0000000000000000
0.0000000000000000  -0.0000000000000000  31.4283581548706827
Sc  N  Se
2  1  2
Selective  dynamics
Direct
0.0000000000000000  0.0000000000000000  0.0587655750803096  T  T  T
0.0000000000000000  0.0000000000000000  0.1457744814887743  T  T  T
0.3333333333333357  0.6666666666666643  0.1022700282845385  T  T  T
0.6666666666666643  0.3333333333333357  0.0000000000000000  T  T  T
0.6666666666666643  0.3333333333333357  0.2045400565690840  T  T  T

0.00000000E+00  0.00000000E+00  0.00000000E+00
0.00000000E+00  0.00000000E+00  0.00000000E+00
0.00000000E+00  0.00000000E+00  0.00000000E+00
0.00000000E+00  0.00000000E+00  0.00000000E+00
0.00000000E+00  0.00000000E+00  0.00000000E+00
