Nb2C  (n=1)
1.00000000000000
3.3161512969165590  0.0000000000000003  -0.0000000000000000
-1.6580756484582795  2.8718712664841202  0.0000000000000000
0.0000000000000000  -0.0000000000000000  31.2379338209083173
Nb  C  Se
2  1  2
Selective  dynamics
Direct
0.0000000000000000  0.0000000000000000  0.0567189679986604  T  T  T
-0.0000000000000000  0.0000000000000000  0.1429720185010009  T  T  T
0.3333333333333357  0.6666666666666643  0.0998454932498307  T  T  T
0.6666666666666643  0.3333333333333357  0.0000000000000000  T  T  T
0.6666666666666643  0.3333333333333357  0.1996909864996613  T  T  T

0.00000000E+00  0.00000000E+00  0.00000000E+00
0.00000000E+00  0.00000000E+00  0.00000000E+00
0.00000000E+00  0.00000000E+00  0.00000000E+00
0.00000000E+00  0.00000000E+00  0.00000000E+00
0.00000000E+00  0.00000000E+00  0.00000000E+00
