Zr2N  (n=1)
1.00000000000000
3.4478706674074631  -0.0000000000000001  0.0000000000000000
-1.7239353337037315  2.9859435880126761  -0.0000000000000000
0.0000000000000000  0.0000000000000000  31.3402228833907373
Zr  N  Se
2  1  2
Selective  dynamics
Direct
0.0000000000000000  0.0000000000000000  0.0562575783762664  T  T  T
-0.0000000000000000  0.0000000000000000  0.1460454782095513  T  T  T
0.3333333333333357  0.6666666666666643  0.1011515282929121  T  T  T
0.6666666666666643  0.3333333333333357  0.0000000000000000  T  T  T
0.6666666666666643  0.3333333333333357  0.2023030565858177  T  T  T

0.00000000E+00  0.00000000E+00  0.00000000E+00
0.00000000E+00  0.00000000E+00  0.00000000E+00
0.00000000E+00  0.00000000E+00  0.00000000E+00
0.00000000E+00  0.00000000E+00  0.00000000E+00
0.00000000E+00  0.00000000E+00  0.00000000E+00
