Mo2N  (n=1)
1.00000000000000
3.0556819700812561  0.0000000000000007  0.0000000000000000
-1.5278409850406274  2.6462982123294361  0.0000000000000000
0.0000000000000000  0.0000000000000000  31.4411206905690364
Mo  N  Se
2  1  2
Selective  dynamics
Direct
0.0000000000000000  0.0000000000000000  0.0588816636198514  T  T  T
0.0000000000000000  0.0000000000000000  0.1459812849359577  T  T  T
0.3333333333333357  0.6666666666666643  0.1024314742779079  T  T  T
0.6666666666666643  0.3333333333333357  0.0000000000000000  T  T  T
0.6666666666666643  0.3333333333333357  0.2048629485558093  T  T  T

0.00000000E+00  0.00000000E+00  0.00000000E+00
0.00000000E+00  0.00000000E+00  0.00000000E+00
0.00000000E+00  0.00000000E+00  0.00000000E+00
0.00000000E+00  0.00000000E+00  0.00000000E+00
0.00000000E+00  0.00000000E+00  0.00000000E+00
