Zr2C  (n=1)
1.00000000000000
3.5102691800224077  0.0000000000000006  0.0000000000000000
-1.7551345900112030  3.0399822851213125  -0.0000000000000000
-0.0000000000000000  -0.0000000000000000  31.3989684595809457
Zr  C  Se
2  1  2
Selective  dynamics
Direct
-0.0000000000000000  -0.0000000000000000  0.0553808700977038  T  T  T
0.0000000000000000  -0.0000000000000000  0.1484146293569413  T  T  T
0.3333333333333357  0.6666666666666643  0.1018977497273225  T  T  T
0.6666666666666643  0.3333333333333357  0.0000000000000000  T  T  T
0.6666666666666643  0.3333333333333357  0.2037954994546451  T  T  T

0.00000000E+00  0.00000000E+00  0.00000000E+00
0.00000000E+00  0.00000000E+00  0.00000000E+00
0.00000000E+00  0.00000000E+00  0.00000000E+00
0.00000000E+00  0.00000000E+00  0.00000000E+00
0.00000000E+00  0.00000000E+00  0.00000000E+00
