Hf2C  (n=1)
1.00000000000000
3.4741189210551631  0.0000000000000000  0.0000000000000000
-1.7370594605275815  3.0086752422982617  -0.0000000000000000
0.0000000000000000  0.0000000000000000  31.2906557332678510
Hf  C  Se
2  1  2
Selective  dynamics
Direct
0.0000000000000000  0.0000000000000000  0.0546657801767506  T  T  T
-0.0000000000000000  -0.0000000000000000  0.1463736543078295  T  T  T
0.3333333333333357  0.6666666666666643  0.1005197172422933  T  T  T
0.6666666666666643  0.3333333333333357  0.0000000000000000  T  T  T
0.6666666666666643  0.3333333333333357  0.2010394344845800  T  T  T

0.00000000E+00  0.00000000E+00  0.00000000E+00
0.00000000E+00  0.00000000E+00  0.00000000E+00
0.00000000E+00  0.00000000E+00  0.00000000E+00
0.00000000E+00  0.00000000E+00  0.00000000E+00
0.00000000E+00  0.00000000E+00  0.00000000E+00
