Ti2C  (n=1)
1.00000000000000
3.2347207673090752  0.0000000000000001  0.0000000000000000
-1.6173603836545376  2.8013503589845770  0.0000000000000000
-0.0000000000000000  0.0000000000000000  31.0757815775661186
Ti  C  Se
2  1  2
Selective  dynamics
Direct
-0.0000000000000000  0.0000000000000000  0.0554727184366198  T  T  T
-0.0000000000000000  -0.0000000000000000  0.1400422861466368  T  T  T
0.3333333333333357  0.6666666666666643  0.0977575022916247  T  T  T
0.6666666666666643  0.3333333333333357  0.0000000000000000  T  T  T
0.6666666666666643  0.3333333333333357  0.1955150045832566  T  T  T

0.00000000E+00  0.00000000E+00  0.00000000E+00
0.00000000E+00  0.00000000E+00  0.00000000E+00
0.00000000E+00  0.00000000E+00  0.00000000E+00
0.00000000E+00  0.00000000E+00  0.00000000E+00
0.00000000E+00  0.00000000E+00  0.00000000E+00
