Cr2N  (n=1)
1.00000000000000
3.0925679088669651  0.0000000000000000  0.0000000000000000
-1.5462839544334825  2.6782423720188171  0.0000000000000000
0.0000000000000000  0.0000000000000000  30.6694585442179637
Cr  N  Se
2  1  2
Selective  dynamics
Direct
0.0000000000000000  0.0000000000000000  0.0547066061384272  T  T  T
0.0000000000000000  0.0000000000000000  0.1301502127729329  T  T  T
0.3333333333333357  0.6666666666666643  0.0924284094556800  T  T  T
0.6666666666666643  0.3333333333333357  0.0000000000000000  T  T  T
0.6666666666666643  0.3333333333333357  0.1848568189113600  T  T  T

0.00000000E+00  0.00000000E+00  0.00000000E+00
0.00000000E+00  0.00000000E+00  0.00000000E+00
0.00000000E+00  0.00000000E+00  0.00000000E+00
0.00000000E+00  0.00000000E+00  0.00000000E+00
0.00000000E+00  0.00000000E+00  0.00000000E+00
