Hf2N  (n=1)
1.00000000000000
3.4226618967526918  -0.0000000000000000  -0.0000000000000000
-1.7113309483763459  2.9641121521899958  0.0000000000000000
0.0000000000000000  0.0000000000000000  31.2115486043027204
Hf  N  Se
2  1  2
Selective  dynamics
Direct
0.0000000000000000  -0.0000000000000000  0.0548943785943011  T  T  T
-0.0000000000000000  -0.0000000000000000  0.1441200529884502  T  T  T
0.3333333333333357  0.6666666666666643  0.0995072157913725  T  T  T
0.6666666666666643  0.3333333333333357  0.0000000000000000  T  T  T
0.6666666666666643  0.3333333333333357  0.1990144315827513  T  T  T

0.00000000E+00  0.00000000E+00  0.00000000E+00
0.00000000E+00  0.00000000E+00  0.00000000E+00
0.00000000E+00  0.00000000E+00  0.00000000E+00
0.00000000E+00  0.00000000E+00  0.00000000E+00
0.00000000E+00  0.00000000E+00  0.00000000E+00
