Sc2C  (n=1)
1.00000000000000
3.3311404577940587  0.0000000000000000  0.0000000000000000
-1.6655702288970293  2.8848522606127891  0.0000000000000000
0.0000000000000000  0.0000000000000000  31.7119065631298085
Sc  C  Se
2  1  2
Selective  dynamics
Direct
0.0000000000000000  0.0000000000000000  0.0617816861933181  T  T  T
0.0000000000000000  0.0000000000000000  0.1498708850504970  T  T  T
0.3333333333333357  0.6666666666666643  0.1058262856219039  T  T  T
0.6666666666666643  0.3333333333333357  0.0000000000000000  T  T  T
0.6666666666666643  0.3333333333333357  0.2116525712438078  T  T  T

0.00000000E+00  0.00000000E+00  0.00000000E+00
0.00000000E+00  0.00000000E+00  0.00000000E+00
0.00000000E+00  0.00000000E+00  0.00000000E+00
0.00000000E+00  0.00000000E+00  0.00000000E+00
0.00000000E+00  0.00000000E+00  0.00000000E+00
