Zr3C2  (n=2)
1.00000000000000
3.4318257778249812  -0.0000000000000002  -0.0000000000000000
-1.7159128889124906  2.9720483060627614  -0.0000000000000003
-0.0000000000000004  -0.0000000000000051  33.9960307764324767
Zr  C  Se
3  2  2
Selective  dynamics
Direct
-0.0000000000000000  -0.0000000000000000  0.0545313015791855  T  T  T
0.6666666666666643  0.3333333333333357  0.1323100163603352  T  T  T
0.3333333333333357  0.6666666666666643  0.2100887311414849  T  T  T
0.3333333333333357  0.6666666666666643  0.0917016927786568  T  T  T
0.0000000000000000  0.0000000000000000  0.1729183399420062  T  T  T
0.6666666666666643  0.3333333333333357  0.0000000000000000  T  T  T
0.6666666666666643  0.3333333333333357  0.2646200327206703  T  T  T

0.00000000E+00  0.00000000E+00  0.00000000E+00
0.00000000E+00  0.00000000E+00  0.00000000E+00
0.00000000E+00  0.00000000E+00  0.00000000E+00
0.00000000E+00  0.00000000E+00  0.00000000E+00
0.00000000E+00  0.00000000E+00  0.00000000E+00
0.00000000E+00  0.00000000E+00  0.00000000E+00
0.00000000E+00  0.00000000E+00  0.00000000E+00
