Nb3C2  (n=2)
1.00000000000000
3.3272393956410431  -0.0000000000000001  0.0000000000000000
-1.6636196978205218  2.8814738419020109  -0.0000000000000003
0.0000000000000001  -0.0000000000000029  33.4048059892368130
Nb  C  Se
3  2  2
Selective  dynamics
Direct
-0.0000000000000000  -0.0000000000000000  0.0548884064396754  T  T  T
0.6666666666666643  0.3333333333333357  0.1258023470027767  T  T  T
0.3333333333333357  0.6666666666666643  0.1967162875658780  T  T  T
0.3333333333333357  0.6666666666666643  0.0869855339265024  T  T  T
0.0000000000000000  0.0000000000000000  0.1646191600790440  T  T  T
0.6666666666666643  0.3333333333333357  0.0000000000000000  T  T  T
0.6666666666666643  0.3333333333333357  0.2516046940055537  T  T  T

0.00000000E+00  0.00000000E+00  0.00000000E+00
0.00000000E+00  0.00000000E+00  0.00000000E+00
0.00000000E+00  0.00000000E+00  0.00000000E+00
0.00000000E+00  0.00000000E+00  0.00000000E+00
0.00000000E+00  0.00000000E+00  0.00000000E+00
0.00000000E+00  0.00000000E+00  0.00000000E+00
0.00000000E+00  0.00000000E+00  0.00000000E+00
