Cr3C2  (n=2)
1.00000000000000
3.0720772960632514  0.0000000000000000  0.0000000000000000
-1.5360386480316257  2.6604969808320571  -0.0000000000000003
-0.0000000000000001  -0.0000000000000037  32.7035317765617179
Cr  C  Se
3  2  2
Selective  dynamics
Direct
0.0000000000000000  0.0000000000000000  0.0539744007487357  T  T  T
0.6666666666666643  0.3333333333333357  0.1177782850670929  T  T  T
0.3333333333333357  0.6666666666666643  0.1815821693854576  T  T  T
0.3333333333333357  0.6666666666666643  0.0825922949191853  T  T  T
0.0000000000000000  -0.0000000000000000  0.1529642752150078  T  T  T
0.6666666666666643  0.3333333333333357  0.0000000000000000  T  T  T
0.6666666666666643  0.3333333333333357  0.2355565701342007  T  T  T

0.00000000E+00  0.00000000E+00  0.00000000E+00
0.00000000E+00  0.00000000E+00  0.00000000E+00
0.00000000E+00  0.00000000E+00  0.00000000E+00
0.00000000E+00  0.00000000E+00  0.00000000E+00
0.00000000E+00  0.00000000E+00  0.00000000E+00
0.00000000E+00  0.00000000E+00  0.00000000E+00
0.00000000E+00  0.00000000E+00  0.00000000E+00
