Mo3N2  (n=2)
1.00000000000000
3.0458968360369196  0.0000000000000000  0.0000000000000000
-1.5229484180184598  2.6378240376978206  0.0000000000000001
0.0000000000000009  0.0000000000000008  34.0164091878910639
Mo  N  Se
3  2  2
Selective  dynamics
Direct
-0.0000000000000000  -0.0000000000000000  0.0540320243308931  T  T  T
0.6666666666666643  0.3333333333333357  0.1325271898947729  T  T  T
0.3333333333333357  0.6666666666666643  0.2110285568165334  T  T  T
0.3333333333333357  0.6666666666666643  0.0939330640577314  T  T  T
0.0000000000000000  -0.0000000000000000  0.1711235668595564  T  T  T
0.6666666666666643  0.3333333333333357  0.0000000000000000  T  T  T
0.6666666666666643  0.3333333333333357  0.2650605811474265  T  T  T

0.00000000E+00  0.00000000E+00  0.00000000E+00
0.00000000E+00  0.00000000E+00  0.00000000E+00
0.00000000E+00  0.00000000E+00  0.00000000E+00
0.00000000E+00  0.00000000E+00  0.00000000E+00
0.00000000E+00  0.00000000E+00  0.00000000E+00
0.00000000E+00  0.00000000E+00  0.00000000E+00
0.00000000E+00  0.00000000E+00  0.00000000E+00
