Ta3C2  (n=2)
1.00000000000000
3.3159836739662372  -0.0000000000000001  0.0000000000000000
-1.6579918369831184  2.8717261009759145  -0.0000000000000000
0.0000000000000001  0.0000000000000003  33.3507328028334484
Ta  C  Se
3  2  2
Selective  dynamics
Direct
0.0000000000000000  0.0000000000000000  0.0547483053343169  T  T  T
0.6666666666666643  0.3333333333333357  0.1251956419099094  T  T  T
0.3333333333333357  0.6666666666666643  0.1956429784855090  T  T  T
0.3333333333333357  0.6666666666666643  0.0864942158197638  T  T  T
-0.0000000000000000  -0.0000000000000000  0.1638970680000552  T  T  T
0.6666666666666643  0.3333333333333357  0.0000000000000000  T  T  T
0.6666666666666643  0.3333333333333357  0.2503912838198259  T  T  T

0.00000000E+00  0.00000000E+00  0.00000000E+00
0.00000000E+00  0.00000000E+00  0.00000000E+00
0.00000000E+00  0.00000000E+00  0.00000000E+00
0.00000000E+00  0.00000000E+00  0.00000000E+00
0.00000000E+00  0.00000000E+00  0.00000000E+00
0.00000000E+00  0.00000000E+00  0.00000000E+00
0.00000000E+00  0.00000000E+00  0.00000000E+00
