Ti3N2  (n=2)
1.00000000000000
3.1647188148074741  0.0000000000000000  0.0000000000000000
-1.5823594074037370  2.7407268896479247  -0.0000000000000001
-0.0000000000000002  -0.0000000000000020  33.1297024544002312
Ti  N  Se
3  2  2
Selective  dynamics
Direct
0.0000000000000000  0.0000000000000000  0.0533477042007988  T  T  T
0.6666666666666643  0.3333333333333357  0.1226950719764196  T  T  T
0.3333333333333357  0.6666666666666643  0.1920424397520472  T  T  T
0.3333333333333357  0.6666666666666643  0.0860443574505524  T  T  T
0.0000000000000000  0.0000000000000000  0.1593457865022936  T  T  T
0.6666666666666643  0.3333333333333357  0.0000000000000000  T  T  T
0.6666666666666643  0.3333333333333357  0.2453901439528461  T  T  T

0.00000000E+00  0.00000000E+00  0.00000000E+00
0.00000000E+00  0.00000000E+00  0.00000000E+00
0.00000000E+00  0.00000000E+00  0.00000000E+00
0.00000000E+00  0.00000000E+00  0.00000000E+00
0.00000000E+00  0.00000000E+00  0.00000000E+00
0.00000000E+00  0.00000000E+00  0.00000000E+00
0.00000000E+00  0.00000000E+00  0.00000000E+00
