Ti3C2  (n=2)
1.00000000000000
3.1814331787834229  -0.0000000000000001  0.0000000000000000
-1.5907165893917115  2.7552019536198533  0.0000000000000000
0.0000000000000003  0.0000000000000005  33.3598741895997577
Ti  C  Se
3  2  2
Selective  dynamics
Direct
0.0000000000000000  0.0000000000000000  0.0535829993639730  T  T  T
0.6666666666666643  0.3333333333333357  0.1252983470813872  T  T  T
0.3333333333333357  0.6666666666666643  0.1970136947988087  T  T  T
0.3333333333333357  0.6666666666666643  0.0875418148184680  T  T  T
-0.0000000000000000  -0.0000000000000000  0.1630548793442989  T  T  T
0.6666666666666643  0.3333333333333357  0.0000000000000000  T  T  T
0.6666666666666643  0.3333333333333357  0.2505966941627742  T  T  T

0.00000000E+00  0.00000000E+00  0.00000000E+00
0.00000000E+00  0.00000000E+00  0.00000000E+00
0.00000000E+00  0.00000000E+00  0.00000000E+00
0.00000000E+00  0.00000000E+00  0.00000000E+00
0.00000000E+00  0.00000000E+00  0.00000000E+00
0.00000000E+00  0.00000000E+00  0.00000000E+00
0.00000000E+00  0.00000000E+00  0.00000000E+00
