Sc3N2  (n=2)
1.00000000000000
3.2756372936244600  0.0000000000000000  0.0000000000000000
-1.6378186468122302  2.8367851105327340  0.0000000000000000
0.0000000000000002  0.0000000000000000  33.9317472982676946
Sc  N  Se
3  2  2
Selective  dynamics
Direct
-0.0000000000000000  -0.0000000000000000  0.0569531531930494  T  T  T
0.6666666666666643  0.3333333333333357  0.1316134300387647  T  T  T
0.3333333333333357  0.6666666666666643  0.2062737068844874  T  T  T
0.3333333333333357  0.6666666666666643  0.0928995631689298  T  T  T
0.0000000000000000  -0.0000000000000000  0.1703272969086070  T  T  T
0.6666666666666643  0.3333333333333357  0.0000000000000000  T  T  T
0.6666666666666643  0.3333333333333357  0.2632268600775442  T  T  T

0.00000000E+00  0.00000000E+00  0.00000000E+00
0.00000000E+00  0.00000000E+00  0.00000000E+00
0.00000000E+00  0.00000000E+00  0.00000000E+00
0.00000000E+00  0.00000000E+00  0.00000000E+00
0.00000000E+00  0.00000000E+00  0.00000000E+00
0.00000000E+00  0.00000000E+00  0.00000000E+00
0.00000000E+00  0.00000000E+00  0.00000000E+00
