Mo3C2  (n=2)
1.00000000000000
3.1599264843360952  0.0000000000000001  0.0000000000000000
-1.5799632421680476  2.7365766097344060  0.0000000000000000
-0.0000000000000001  0.0000000000000012  33.5548573155124856
Mo  C  Se
3  2  2
Selective  dynamics
Direct
0.0000000000000000  0.0000000000000000  0.0558278399439925  T  T  T
0.6666666666666643  0.3333333333333357  0.1274756920446965  T  T  T
0.3333333333333357  0.6666666666666643  0.1991235441454078  T  T  T
0.3333333333333357  0.6666666666666643  0.0899967353784722  T  T  T
-0.0000000000000000  -0.0000000000000000  0.1649546487109280  T  T  T
0.6666666666666643  0.3333333333333357  0.0000000000000000  T  T  T
0.6666666666666643  0.3333333333333357  0.2549513840894075  T  T  T

0.00000000E+00  0.00000000E+00  0.00000000E+00
0.00000000E+00  0.00000000E+00  0.00000000E+00
0.00000000E+00  0.00000000E+00  0.00000000E+00
0.00000000E+00  0.00000000E+00  0.00000000E+00
0.00000000E+00  0.00000000E+00  0.00000000E+00
0.00000000E+00  0.00000000E+00  0.00000000E+00
0.00000000E+00  0.00000000E+00  0.00000000E+00
