Cr3N2  (n=2)
1.00000000000000
3.0662447923194023  -0.0000000000000001  0.0000000000000000
-1.5331223961597011  2.6554458844077611  0.0000000000000000
0.0000000000000000  0.0000000000000000  32.7191592827482864
Cr  N  Se
3  2  2
Selective  dynamics
Direct
0.0000000000000000  0.0000000000000000  0.0548076694468105  T  T  T
0.6666666666666643  0.3333333333333357  0.1179608439208598  T  T  T
0.3333333333333357  0.6666666666666643  0.1811140183949164  T  T  T
0.3333333333333357  0.6666666666666643  0.0824026212007544  T  T  T
-0.0000000000000000  0.0000000000000000  0.1535190666409654  T  T  T
0.6666666666666643  0.3333333333333357  0.0000000000000000  T  T  T
0.6666666666666643  0.3333333333333357  0.2359216878417270  T  T  T

0.00000000E+00  0.00000000E+00  0.00000000E+00
0.00000000E+00  0.00000000E+00  0.00000000E+00
0.00000000E+00  0.00000000E+00  0.00000000E+00
0.00000000E+00  0.00000000E+00  0.00000000E+00
0.00000000E+00  0.00000000E+00  0.00000000E+00
0.00000000E+00  0.00000000E+00  0.00000000E+00
0.00000000E+00  0.00000000E+00  0.00000000E+00
