Ta3N2  (n=2)
1.00000000000000
3.2449668636245192  0.0000000000000001  0.0000000000000000
-1.6224834318122596  2.8102237388748796  -0.0000000000000001
0.0000000000000004  -0.0000000000000002  33.4402914918126584
Ta  N  Se
3  2  2
Selective  dynamics
Direct
0.0000000000000000  0.0000000000000000  0.0533556337091184  T  T  T
0.6666666666666643  0.3333333333333357  0.1261994306161945  T  T  T
0.3333333333333357  0.6666666666666643  0.1990432275232707  T  T  T
0.3333333333333357  0.6666666666666643  0.0901147471262268  T  T  T
-0.0000000000000000  -0.0000000000000000  0.1622841141061552  T  T  T
0.6666666666666643  0.3333333333333357  0.0000000000000000  T  T  T
0.6666666666666643  0.3333333333333357  0.2523988612323890  T  T  T

0.00000000E+00  0.00000000E+00  0.00000000E+00
0.00000000E+00  0.00000000E+00  0.00000000E+00
0.00000000E+00  0.00000000E+00  0.00000000E+00
0.00000000E+00  0.00000000E+00  0.00000000E+00
0.00000000E+00  0.00000000E+00  0.00000000E+00
0.00000000E+00  0.00000000E+00  0.00000000E+00
0.00000000E+00  0.00000000E+00  0.00000000E+00
