Sc3C2  (n=2)
1.00000000000000
3.2953351152606549  0.0000000000000001  -0.0000000000000001
-1.6476675576303275  2.8538439245075149  0.0000000000000001
-0.0000000000000003  0.0000000000000008  34.4622750981151569
Sc  C  Se
3  2  2
Selective  dynamics
Direct
0.0000000000000000  0.0000000000000000  0.0603341561625045  T  T  T
0.6666666666666643  0.3333333333333357  0.1372845389803163  T  T  T
0.3333333333333357  0.6666666666666643  0.2142349217981281  T  T  T
0.3333333333333357  0.6666666666666643  0.0959829242971223  T  T  T
0.0000000000000000  0.0000000000000000  0.1785861536635025  T  T  T
0.6666666666666643  0.3333333333333357  0.0000000000000000  T  T  T
0.6666666666666643  0.3333333333333357  0.2745690779606327  T  T  T

0.00000000E+00  0.00000000E+00  0.00000000E+00
0.00000000E+00  0.00000000E+00  0.00000000E+00
0.00000000E+00  0.00000000E+00  0.00000000E+00
0.00000000E+00  0.00000000E+00  0.00000000E+00
0.00000000E+00  0.00000000E+00  0.00000000E+00
0.00000000E+00  0.00000000E+00  0.00000000E+00
0.00000000E+00  0.00000000E+00  0.00000000E+00
