Hf3N2  (n=2)
1.00000000000000
3.3637217738059975  -0.0000000000000003  0.0000000000000000
-1.6818608869029987  2.9130685082488181  0.0000000000000000
0.0000000000000001  0.0000000000000000  33.5898168927414034
Hf  N  Se
3  2  2
Selective  dynamics
Direct
0.0000000000000000  0.0000000000000000  0.0525078344543587  T  T  T
0.6666666666666643  0.3333333333333357  0.1278634075346451  T  T  T
0.3333333333333357  0.6666666666666643  0.2032189806149385  T  T  T
0.3333333333333357  0.6666666666666643  0.0897888896859201  T  T  T
0.0000000000000000  0.0000000000000000  0.1659379253833632  T  T  T
0.6666666666666643  0.3333333333333357  0.0000000000000000  T  T  T
0.6666666666666643  0.3333333333333357  0.2557268150692902  T  T  T

0.00000000E+00  0.00000000E+00  0.00000000E+00
0.00000000E+00  0.00000000E+00  0.00000000E+00
0.00000000E+00  0.00000000E+00  0.00000000E+00
0.00000000E+00  0.00000000E+00  0.00000000E+00
0.00000000E+00  0.00000000E+00  0.00000000E+00
0.00000000E+00  0.00000000E+00  0.00000000E+00
0.00000000E+00  0.00000000E+00  0.00000000E+00
