Hf3C2  (n=2)
1.00000000000000
3.3874261230748690  -0.0000000000000000  0.0000000000000000
-1.6937130615374345  2.9335970770395736  -0.0000000000000003
-0.0000000000000004  -0.0000000000000035  33.8580021302139471
Hf  C  Se
3  2  2
Selective  dynamics
Direct
-0.0000000000000000  -0.0000000000000000  0.0541375072456293  T  T  T
0.6666666666666643  0.3333333333333357  0.1308110575477416  T  T  T
0.3333333333333357  0.6666666666666643  0.2074846078498540  T  T  T
0.3333333333333357  0.6666666666666643  0.0907486267337320  T  T  T
0.0000000000000000  0.0000000000000000  0.1708734883617440  T  T  T
0.6666666666666643  0.3333333333333357  0.0000000000000000  T  T  T
0.6666666666666643  0.3333333333333357  0.2616221150954833  T  T  T

0.00000000E+00  0.00000000E+00  0.00000000E+00
0.00000000E+00  0.00000000E+00  0.00000000E+00
0.00000000E+00  0.00000000E+00  0.00000000E+00
0.00000000E+00  0.00000000E+00  0.00000000E+00
0.00000000E+00  0.00000000E+00  0.00000000E+00
0.00000000E+00  0.00000000E+00  0.00000000E+00
0.00000000E+00  0.00000000E+00  0.00000000E+00
