Nb3N2  (n=2)
1.00000000000000
3.2496361964471463  0.0000000000000001  0.0000000000000000
-1.6248180982235729  2.8142674997204082  0.0000000000000000
0.0000000000000002  0.0000000000000003  33.5485828360944538
Nb  N  Se
3  2  2
Selective  dynamics
Direct
-0.0000000000000000  0.0000000000000000  0.0539594155007493  T  T  T
0.6666666666666643  0.3333333333333357  0.1274060200673688  T  T  T
0.3333333333333357  0.6666666666666643  0.2008526246339878  T  T  T
0.3333333333333357  0.6666666666666643  0.0908054721090039  T  T  T
0.0000000000000000  -0.0000000000000000  0.1640065680257262  T  T  T
0.6666666666666643  0.3333333333333357  0.0000000000000000  T  T  T
0.6666666666666643  0.3333333333333357  0.2548120401347372  T  T  T

0.00000000E+00  0.00000000E+00  0.00000000E+00
0.00000000E+00  0.00000000E+00  0.00000000E+00
0.00000000E+00  0.00000000E+00  0.00000000E+00
0.00000000E+00  0.00000000E+00  0.00000000E+00
0.00000000E+00  0.00000000E+00  0.00000000E+00
0.00000000E+00  0.00000000E+00  0.00000000E+00
0.00000000E+00  0.00000000E+00  0.00000000E+00
