Zr3N2  (n=2)
1.00000000000000
3.4040851384358310  -0.0000000000000001  0.0000000000000000
-1.7020425692179155  2.9480242076389676  0.0000000000000000
0.0000000000000002  -0.0000000000000001  33.7434858949249659
Zr  N  Se
3  2  2
Selective  dynamics
Direct
0.0000000000000000  0.0000000000000000  0.0534747580873053  T  T  T
0.6666666666666643  0.3333333333333357  0.1295581304514766  T  T  T
0.3333333333333357  0.6666666666666643  0.2056415028156618  T  T  T
0.3333333333333357  0.6666666666666643  0.0907488588671680  T  T  T
0.0000000000000000  0.0000000000000000  0.1683674020357922  T  T  T
0.6666666666666643  0.3333333333333357  0.0000000000000000  T  T  T
0.6666666666666643  0.3333333333333357  0.2591162609029670  T  T  T

0.00000000E+00  0.00000000E+00  0.00000000E+00
0.00000000E+00  0.00000000E+00  0.00000000E+00
0.00000000E+00  0.00000000E+00  0.00000000E+00
0.00000000E+00  0.00000000E+00  0.00000000E+00
0.00000000E+00  0.00000000E+00  0.00000000E+00
0.00000000E+00  0.00000000E+00  0.00000000E+00
0.00000000E+00  0.00000000E+00  0.00000000E+00
