Zr4N3  (n=3)
1.00000000000000
3.2067265987713691  -0.0000000000000001  0.0000000000000000
-1.6033632993856846  2.7771066978560177  0.0000000000000000
0.0000000000000006  -0.0000000000000008  37.7899389958053220
Zr  N  O  H
4  3  2  2
Selective  dynamics
Direct
0.0000000000000000  0.0000000000000000  0.0628372969460611  T  T  T
0.6666666666666643  0.3333333333333357  0.1328052601523564  T  T  T
0.3333333333333357  0.6666666666666643  0.2056429971265192  T  T  T
0.0000000000000000  0.0000000000000000  0.2756109603328147  T  T  T
0.3333333333333357  0.6666666666666643  0.0974847047728127  T  T  T
0.0000000000000000  0.0000000000000000  0.1692241286394339  T  T  T
0.6666666666666643  0.3333333333333357  0.2409635525060629  T  T  T
0.3333333333333357  0.6666666666666643  0.0258653452286767  T  T  T
0.6666666666666643  0.3333333333333357  0.3125829120501910  T  T  T
0.3333333333333357  0.6666666666666643  0.0000000000000000  T  T  T
0.6666666666666643  0.3333333333333357  0.3384482572788752  T  T  T

0.00000000E+00  0.00000000E+00  0.00000000E+00
0.00000000E+00  0.00000000E+00  0.00000000E+00
0.00000000E+00  0.00000000E+00  0.00000000E+00
0.00000000E+00  0.00000000E+00  0.00000000E+00
0.00000000E+00  0.00000000E+00  0.00000000E+00
0.00000000E+00  0.00000000E+00  0.00000000E+00
0.00000000E+00  0.00000000E+00  0.00000000E+00
0.00000000E+00  0.00000000E+00  0.00000000E+00
0.00000000E+00  0.00000000E+00  0.00000000E+00
0.00000000E+00  0.00000000E+00  0.00000000E+00
0.00000000E+00  0.00000000E+00  0.00000000E+00
