Mo4C3  (n=3)
1.00000000000000
3.0596115401851725  0.0000000000000002  0.0000000000000000
-1.5298057700925862  2.6497013196298451  0.0000000000000000
-0.0000000000000003  -0.0000000000000010  37.3204045362491570
Mo  C  O  H
4  3  2  2
Selective  dynamics
Direct
0.0000000000000000  0.0000000000000000  0.0654850133763042  T  T  T
0.6666666666666643  0.3333333333333357  0.1305499750362027  T  T  T
0.3333333333333357  0.6666666666666643  0.1995751854315166  T  T  T
0.0000000000000000  0.0000000000000000  0.2646401470914072  T  T  T
0.3333333333333357  0.6666666666666643  0.0947744706488668  T  T  T
0.0000000000000000  0.0000000000000000  0.1650625802338557  T  T  T
0.6666666666666643  0.3333333333333357  0.2353506898188445  T  T  T
0.3333333333333357  0.6666666666666643  0.0262485646490768  T  T  T
0.6666666666666643  0.3333333333333357  0.3038765958186423  T  T  T
0.3333333333333357  0.6666666666666643  0.0000000000000000  T  T  T
0.6666666666666643  0.3333333333333357  0.3301251604677115  T  T  T

0.00000000E+00  0.00000000E+00  0.00000000E+00
0.00000000E+00  0.00000000E+00  0.00000000E+00
0.00000000E+00  0.00000000E+00  0.00000000E+00
0.00000000E+00  0.00000000E+00  0.00000000E+00
0.00000000E+00  0.00000000E+00  0.00000000E+00
0.00000000E+00  0.00000000E+00  0.00000000E+00
0.00000000E+00  0.00000000E+00  0.00000000E+00
0.00000000E+00  0.00000000E+00  0.00000000E+00
0.00000000E+00  0.00000000E+00  0.00000000E+00
0.00000000E+00  0.00000000E+00  0.00000000E+00
0.00000000E+00  0.00000000E+00  0.00000000E+00
