Ti4N3  (n=3)
1.00000000000000
2.9533277376666924  -0.0000000000000002  0.0000000000000000
-1.4766638688333464  2.5576568465635905  0.0000000000000000
0.0000000000000008  0.0000000000000007  36.9587925182157448
Ti  N  O  H
4  3  2  2
Selective  dynamics
Direct
0.0000000000000000  0.0000000000000000  0.0617553648220884  T  T  T
0.6666666666666643  0.3333333333333357  0.1274320781418095  T  T  T
0.3333333333333357  0.6666666666666643  0.1961388965409172  T  T  T
-0.0000000000000000  -0.0000000000000000  0.2618156098606383  T  T  T
0.3333333333333357  0.6666666666666643  0.0943558954839236  T  T  T
-0.0000000000000000  0.0000000000000000  0.1617854873413595  T  T  T
0.6666666666666643  0.3333333333333357  0.2292150791987954  T  T  T
0.3333333333333357  0.6666666666666643  0.0264209343576336  T  T  T
0.6666666666666643  0.3333333333333357  0.2971500403250932  T  T  T
0.3333333333333357  0.6666666666666643  0.0000000000000000  T  T  T
0.6666666666666643  0.3333333333333357  0.3235709746827269  T  T  T

0.00000000E+00  0.00000000E+00  0.00000000E+00
0.00000000E+00  0.00000000E+00  0.00000000E+00
0.00000000E+00  0.00000000E+00  0.00000000E+00
0.00000000E+00  0.00000000E+00  0.00000000E+00
0.00000000E+00  0.00000000E+00  0.00000000E+00
0.00000000E+00  0.00000000E+00  0.00000000E+00
0.00000000E+00  0.00000000E+00  0.00000000E+00
0.00000000E+00  0.00000000E+00  0.00000000E+00
0.00000000E+00  0.00000000E+00  0.00000000E+00
0.00000000E+00  0.00000000E+00  0.00000000E+00
0.00000000E+00  0.00000000E+00  0.00000000E+00
