Ti4C3  (n=3)
1.00000000000000
3.0368042441383802  0.0000000000000001  0.0000000000000000
-1.5184021220691901  2.6299496218498772  0.0000000000000001
0.0000000000000015  -0.0000000000000001  36.9856548863720889
Ti  C  O  H
4  3  2  2
Selective  dynamics
Direct
0.0000000000000000  -0.0000000000000000  0.0623791221745787  T  T  T
0.6666666666666643  0.3333333333333357  0.1290818231762472  T  T  T
0.3333333333333357  0.6666666666666643  0.1949804361833508  T  T  T
0.0000000000000000  0.0000000000000000  0.2616831371850113  T  T  T
0.3333333333333357  0.6666666666666643  0.0936093559367097  T  T  T
0.0000000000000000  0.0000000000000000  0.1620311296797949  T  T  T
0.6666666666666643  0.3333333333333357  0.2304529034228801  T  T  T
0.3333333333333357  0.6666666666666643  0.0263717850857106  T  T  T
0.6666666666666643  0.3333333333333357  0.2976904742738796  T  T  T
0.3333333333333357  0.6666666666666643  0.0000000000000000  T  T  T
0.6666666666666643  0.3333333333333357  0.3240622593595979  T  T  T

0.00000000E+00  0.00000000E+00  0.00000000E+00
0.00000000E+00  0.00000000E+00  0.00000000E+00
0.00000000E+00  0.00000000E+00  0.00000000E+00
0.00000000E+00  0.00000000E+00  0.00000000E+00
0.00000000E+00  0.00000000E+00  0.00000000E+00
0.00000000E+00  0.00000000E+00  0.00000000E+00
0.00000000E+00  0.00000000E+00  0.00000000E+00
0.00000000E+00  0.00000000E+00  0.00000000E+00
0.00000000E+00  0.00000000E+00  0.00000000E+00
0.00000000E+00  0.00000000E+00  0.00000000E+00
0.00000000E+00  0.00000000E+00  0.00000000E+00
