Hf4C3  (n=3)
1.00000000000000
3.2450525999582447  0.0000000000000002  0.0000000000000000
-1.6225262999791226  2.8102979885876498  0.0000000000000000
0.0000000000000001  0.0000000000000023  37.6790935107227867
Hf  C  O  H
4  3  2  2
Selective  dynamics
Direct
-0.0000000000000000  -0.0000000000000000  0.0634164208166684  T  T  T
0.6666666666666643  0.3333333333333357  0.1335227469643000  T  T  T
0.3333333333333357  0.6666666666666643  0.2029793375965865  T  T  T
0.0000000000000000  0.0000000000000000  0.2730856637442261  T  T  T
0.3333333333333357  0.6666666666666643  0.0956707010529802  T  T  T
0.0000000000000000  0.0000000000000000  0.1682510422804472  T  T  T
0.6666666666666643  0.3333333333333357  0.2408313835078983  T  T  T
0.3333333333333357  0.6666666666666643  0.0259430436129834  T  T  T
0.6666666666666643  0.3333333333333357  0.3105590409479109  T  T  T
0.3333333333333357  0.6666666666666643  0.0000000000000000  T  T  T
0.6666666666666643  0.3333333333333357  0.3365020845608864  T  T  T

0.00000000E+00  0.00000000E+00  0.00000000E+00
0.00000000E+00  0.00000000E+00  0.00000000E+00
0.00000000E+00  0.00000000E+00  0.00000000E+00
0.00000000E+00  0.00000000E+00  0.00000000E+00
0.00000000E+00  0.00000000E+00  0.00000000E+00
0.00000000E+00  0.00000000E+00  0.00000000E+00
0.00000000E+00  0.00000000E+00  0.00000000E+00
0.00000000E+00  0.00000000E+00  0.00000000E+00
0.00000000E+00  0.00000000E+00  0.00000000E+00
0.00000000E+00  0.00000000E+00  0.00000000E+00
0.00000000E+00  0.00000000E+00  0.00000000E+00
