Mo4N3  (n=3)
1.00000000000000
2.8296898721827701  0.0000000000000000  -0.0000000000000001
-1.4148449360913848  2.4505833142445752  -0.0000000000000001
0.0000000000000023  0.0000000000000006  38.7495984448857982
Mo  N  O  H
4  3  2  2
Selective  dynamics
Direct
-0.0000000000000000  0.0000000000000000  0.0638521374809404  T  T  T
0.6666666666666643  0.3333333333333357  0.1403799425595617  T  T  T
0.3333333333333357  0.6666666666666643  0.2144520814275277  T  T  T
-0.0000000000000000  -0.0000000000000000  0.2909798865061489  T  T  T
0.3333333333333357  0.6666666666666643  0.0985324575766779  T  T  T
-0.0000000000000000  -0.0000000000000000  0.1774160119935485  T  T  T
0.6666666666666643  0.3333333333333357  0.2562995664104040  T  T  T
0.3333333333333357  0.6666666666666643  0.0257064258334286  T  T  T
0.6666666666666643  0.3333333333333357  0.3291255981536608  T  T  T
0.3333333333333357  0.6666666666666643  0.0000000000000000  T  T  T
0.6666666666666643  0.3333333333333357  0.3548320239870893  T  T  T

0.00000000E+00  0.00000000E+00  0.00000000E+00
0.00000000E+00  0.00000000E+00  0.00000000E+00
0.00000000E+00  0.00000000E+00  0.00000000E+00
0.00000000E+00  0.00000000E+00  0.00000000E+00
0.00000000E+00  0.00000000E+00  0.00000000E+00
0.00000000E+00  0.00000000E+00  0.00000000E+00
0.00000000E+00  0.00000000E+00  0.00000000E+00
0.00000000E+00  0.00000000E+00  0.00000000E+00
0.00000000E+00  0.00000000E+00  0.00000000E+00
0.00000000E+00  0.00000000E+00  0.00000000E+00
0.00000000E+00  0.00000000E+00  0.00000000E+00
