Cr4N3  (n=3)
1.00000000000000
2.8567458969650539  0.0000000000000000  0.0000000000000000
-1.4283729484825269  2.4740145189571443  0.0000000000000000
-0.0000000000000001  0.0000000000000007  36.8723368689996178
Cr  N  O  H
4  3  2  2
Selective  dynamics
Direct
-0.0000000000000000  0.0000000000000000  0.0622464597476713  T  T  T
0.6666666666666643  0.3333333333333357  0.1274885741718336  T  T  T
0.3333333333333357  0.6666666666666643  0.1944963575448641  T  T  T
0.0000000000000000  -0.0000000000000000  0.2597384719690186  T  T  T
0.3333333333333357  0.6666666666666643  0.0928625412607403  T  T  T
-0.0000000000000000  -0.0000000000000000  0.1609924658583489  T  T  T
0.6666666666666643  0.3333333333333357  0.2291223904559496  T  T  T
0.3333333333333357  0.6666666666666643  0.0265028722771070  T  T  T
0.6666666666666643  0.3333333333333357  0.2954820594395830  T  T  T
0.3333333333333357  0.6666666666666643  0.0000000000000000  T  T  T
0.6666666666666643  0.3333333333333357  0.3219849317166896  T  T  T

0.00000000E+00  0.00000000E+00  0.00000000E+00
0.00000000E+00  0.00000000E+00  0.00000000E+00
0.00000000E+00  0.00000000E+00  0.00000000E+00
0.00000000E+00  0.00000000E+00  0.00000000E+00
0.00000000E+00  0.00000000E+00  0.00000000E+00
0.00000000E+00  0.00000000E+00  0.00000000E+00
0.00000000E+00  0.00000000E+00  0.00000000E+00
0.00000000E+00  0.00000000E+00  0.00000000E+00
0.00000000E+00  0.00000000E+00  0.00000000E+00
0.00000000E+00  0.00000000E+00  0.00000000E+00
0.00000000E+00  0.00000000E+00  0.00000000E+00
