Zr4C3  (n=3)
1.00000000000000
3.3010734613896986  -0.0000000000000001  -0.0000000000000001
-1.6505367306948493  2.8588134776951115  0.0000000000000000
-0.0000000000000005  -0.0000000000000001  37.8328575695746991
Zr  C  O  H
4  3  2  2
Selective  dynamics
Direct
-0.0000000000000000  -0.0000000000000000  0.0635479310216701  T  T  T
0.6666666666666643  0.3333333333333357  0.1344848841709881  T  T  T
0.3333333333333357  0.6666666666666643  0.2047138545437668  T  T  T
-0.0000000000000000  0.0000000000000000  0.2756508076930929  T  T  T
0.3333333333333357  0.6666666666666643  0.0961775981635763  T  T  T
-0.0000000000000000  -0.0000000000000000  0.1695993693573775  T  T  T
0.6666666666666643  0.3333333333333357  0.2430211405511787  T  T  T
0.3333333333333357  0.6666666666666643  0.0257705682133205  T  T  T
0.6666666666666643  0.3333333333333357  0.3134281705014344  T  T  T
0.3333333333333357  0.6666666666666643  0.0000000000000000  T  T  T
0.6666666666666643  0.3333333333333357  0.3391987387147548  T  T  T

0.00000000E+00  0.00000000E+00  0.00000000E+00
0.00000000E+00  0.00000000E+00  0.00000000E+00
0.00000000E+00  0.00000000E+00  0.00000000E+00
0.00000000E+00  0.00000000E+00  0.00000000E+00
0.00000000E+00  0.00000000E+00  0.00000000E+00
0.00000000E+00  0.00000000E+00  0.00000000E+00
0.00000000E+00  0.00000000E+00  0.00000000E+00
0.00000000E+00  0.00000000E+00  0.00000000E+00
0.00000000E+00  0.00000000E+00  0.00000000E+00
0.00000000E+00  0.00000000E+00  0.00000000E+00
0.00000000E+00  0.00000000E+00  0.00000000E+00
