Sc4C3  (n=3)
1.00000000000000
3.2469323327899149  0.0000000000000001  -0.0000000000000002
-1.6234661663949572  2.8119258845990909  0.0000000000000000
-0.0000000000000012  0.0000000000000025  37.7572041058490271
Sc  C  O  H
4  3  2  2
Selective  dynamics
Direct
-0.0000000000000000  0.0000000000000000  0.0608090444666529  T  T  T
0.6666666666666643  0.3333333333333357  0.1313551194636959  T  T  T
0.3333333333333357  0.6666666666666643  0.2065195830721436  T  T  T
0.0000000000000000  -0.0000000000000000  0.2770656580691949  T  T  T
0.3333333333333357  0.6666666666666643  0.0957683744912553  T  T  T
-0.0000000000000000  0.0000000000000000  0.1689373512679198  T  T  T
0.6666666666666643  0.3333333333333357  0.2421063280445760  T  T  T
0.3333333333333357  0.6666666666666643  0.0258043628303806  T  T  T
0.6666666666666643  0.3333333333333357  0.3120703397054588  T  T  T
0.3333333333333357  0.6666666666666643  0.0000000000000000  T  T  T
0.6666666666666643  0.3333333333333357  0.3378747025358477  T  T  T

0.00000000E+00  0.00000000E+00  0.00000000E+00
0.00000000E+00  0.00000000E+00  0.00000000E+00
0.00000000E+00  0.00000000E+00  0.00000000E+00
0.00000000E+00  0.00000000E+00  0.00000000E+00
0.00000000E+00  0.00000000E+00  0.00000000E+00
0.00000000E+00  0.00000000E+00  0.00000000E+00
0.00000000E+00  0.00000000E+00  0.00000000E+00
0.00000000E+00  0.00000000E+00  0.00000000E+00
0.00000000E+00  0.00000000E+00  0.00000000E+00
0.00000000E+00  0.00000000E+00  0.00000000E+00
0.00000000E+00  0.00000000E+00  0.00000000E+00
