Ta4N3  (n=3)
1.00000000000000
2.9628740478746205  0.0000000000000001  0.0000000000000002
-1.4814370239373098  2.5659241938559894  -0.0000000000000001
0.0000000000000005  -0.0000000000000020  38.2171808255253822
Ta  N  O  H
4  3  2  2
Selective  dynamics
Direct
-0.0000000000000000  -0.0000000000000000  0.0621626365438408  T  T  T
0.6666666666666643  0.3333333333333357  0.1361840253500116  T  T  T
0.3333333333333357  0.6666666666666643  0.2096599249759552  T  T  T
0.0000000000000000  -0.0000000000000000  0.2836813142031963  T  T  T
0.3333333333333357  0.6666666666666643  0.0966628653201742  T  T  T
-0.0000000000000000  -0.0000000000000000  0.1729219756667345  T  T  T
0.6666666666666643  0.3333333333333357  0.2491810852866633  T  T  T
0.3333333333333357  0.6666666666666643  0.0259106423370570  T  T  T
0.6666666666666643  0.3333333333333357  0.3199333089964119  T  T  T
0.3333333333333357  0.6666666666666643  0.0000000000000000  T  T  T
0.6666666666666643  0.3333333333333357  0.3458439513334689  T  T  T

0.00000000E+00  0.00000000E+00  0.00000000E+00
0.00000000E+00  0.00000000E+00  0.00000000E+00
0.00000000E+00  0.00000000E+00  0.00000000E+00
0.00000000E+00  0.00000000E+00  0.00000000E+00
0.00000000E+00  0.00000000E+00  0.00000000E+00
0.00000000E+00  0.00000000E+00  0.00000000E+00
0.00000000E+00  0.00000000E+00  0.00000000E+00
0.00000000E+00  0.00000000E+00  0.00000000E+00
0.00000000E+00  0.00000000E+00  0.00000000E+00
0.00000000E+00  0.00000000E+00  0.00000000E+00
0.00000000E+00  0.00000000E+00  0.00000000E+00
