Ta4C3  (n=3)
1.00000000000000
3.1012841109103935  0.0000000000000000  0.0000000000000000
-1.5506420554551967  2.6857908247543669  -0.0000000000000001
0.0000000000000002  -0.0000000000000007  37.5409022813741728
Ta  C  O  H
4  3  2  2
Selective  dynamics
Direct
0.0000000000000000  0.0000000000000000  0.0634774329659112  T  T  T
0.6666666666666643  0.3333333333333357  0.1324986610099671  T  T  T
0.3333333333333357  0.6666666666666643  0.2015610317320483  T  T  T
0.0000000000000000  0.0000000000000000  0.2705822597761042  T  T  T
0.3333333333333357  0.6666666666666643  0.0961810775307131  T  T  T
0.0000000000000000  0.0000000000000000  0.1670298463710038  T  T  T
0.6666666666666643  0.3333333333333357  0.2378786152112944  T  T  T
0.3333333333333357  0.6666666666666643  0.0261775844697713  T  T  T
0.6666666666666643  0.3333333333333357  0.3078821082722443  T  T  T
0.3333333333333357  0.6666666666666643  0.0000000000000000  T  T  T
0.6666666666666643  0.3333333333333357  0.3340596927420232  T  T  T

0.00000000E+00  0.00000000E+00  0.00000000E+00
0.00000000E+00  0.00000000E+00  0.00000000E+00
0.00000000E+00  0.00000000E+00  0.00000000E+00
0.00000000E+00  0.00000000E+00  0.00000000E+00
0.00000000E+00  0.00000000E+00  0.00000000E+00
0.00000000E+00  0.00000000E+00  0.00000000E+00
0.00000000E+00  0.00000000E+00  0.00000000E+00
0.00000000E+00  0.00000000E+00  0.00000000E+00
0.00000000E+00  0.00000000E+00  0.00000000E+00
0.00000000E+00  0.00000000E+00  0.00000000E+00
0.00000000E+00  0.00000000E+00  0.00000000E+00
