Nb4C3  (n=3)
1.00000000000000
3.1196490750760701  0.0000000000000000  0.0000000000000000
-1.5598245375380351  2.7016953502242846  0.0000000000000000
0.0000000000000000  0.0000000000000005  37.5859190022344336
Nb  C  O  H
4  3  2  2
Selective  dynamics
Direct
-0.0000000000000000  -0.0000000000000000  0.0633834013313841  T  T  T
0.6666666666666643  0.3333333333333357  0.1325444948149815  T  T  T
0.3333333333333357  0.6666666666666643  0.2023127957965960  T  T  T
0.0000000000000000  -0.0000000000000000  0.2714738892801934  T  T  T
0.3333333333333357  0.6666666666666643  0.0960312669702891  T  T  T
-0.0000000000000000  -0.0000000000000000  0.1674286453057927  T  T  T
0.6666666666666643  0.3333333333333357  0.2388260236412807  T  T  T
0.3333333333333357  0.6666666666666643  0.0260587765771595  T  T  T
0.6666666666666643  0.3333333333333357  0.3087985140344180  T  T  T
0.3333333333333357  0.6666666666666643  0.0000000000000000  T  T  T
0.6666666666666643  0.3333333333333357  0.3348572906115777  T  T  T

0.00000000E+00  0.00000000E+00  0.00000000E+00
0.00000000E+00  0.00000000E+00  0.00000000E+00
0.00000000E+00  0.00000000E+00  0.00000000E+00
0.00000000E+00  0.00000000E+00  0.00000000E+00
0.00000000E+00  0.00000000E+00  0.00000000E+00
0.00000000E+00  0.00000000E+00  0.00000000E+00
0.00000000E+00  0.00000000E+00  0.00000000E+00
0.00000000E+00  0.00000000E+00  0.00000000E+00
0.00000000E+00  0.00000000E+00  0.00000000E+00
0.00000000E+00  0.00000000E+00  0.00000000E+00
0.00000000E+00  0.00000000E+00  0.00000000E+00
