Cr4C3  (n=3)
1.00000000000000
2.8371345559324914  0.0000000000000000  0.0000000000000000
-1.4185672779662457  2.4570305993844084  0.0000000000000002
-0.0000000000000001  0.0000000000000013  36.6502537809846700
Cr  C  O  H
4  3  2  2
Selective  dynamics
Direct
0.0000000000000000  0.0000000000000000  0.0618757006064211  T  T  T
0.6666666666666643  0.3333333333333357  0.1260570436532440  T  T  T
0.3333333333333357  0.6666666666666643  0.1918194395657941  T  T  T
0.0000000000000000  -0.0000000000000000  0.2560007826126169  T  T  T
0.3333333333333357  0.6666666666666643  0.0923039104296850  T  T  T
0.0000000000000000  -0.0000000000000000  0.1589382416095190  T  T  T
0.6666666666666643  0.3333333333333357  0.2255725727893531  T  T  T
0.3333333333333357  0.6666666666666643  0.0268203400161838  T  T  T
0.6666666666666643  0.3333333333333357  0.2910561432028544  T  T  T
0.3333333333333357  0.6666666666666643  0.0000000000000000  T  T  T
0.6666666666666643  0.3333333333333357  0.3178764832190383  T  T  T

0.00000000E+00  0.00000000E+00  0.00000000E+00
0.00000000E+00  0.00000000E+00  0.00000000E+00
0.00000000E+00  0.00000000E+00  0.00000000E+00
0.00000000E+00  0.00000000E+00  0.00000000E+00
0.00000000E+00  0.00000000E+00  0.00000000E+00
0.00000000E+00  0.00000000E+00  0.00000000E+00
0.00000000E+00  0.00000000E+00  0.00000000E+00
0.00000000E+00  0.00000000E+00  0.00000000E+00
0.00000000E+00  0.00000000E+00  0.00000000E+00
0.00000000E+00  0.00000000E+00  0.00000000E+00
0.00000000E+00  0.00000000E+00  0.00000000E+00
