Nb4N3  (n=3)
1.00000000000000
3.0259147366329597  -0.0000000000000002  0.0000000000000000
-1.5129573683164799  2.6205190316434739  0.0000000000000000
0.0000000000000001  -0.0000000000000004  37.9403757020605923
Nb  N  O  H
4  3  2  2
Selective  dynamics
Direct
0.0000000000000000  0.0000000000000000  0.0626592668957414  T  T  T
0.6666666666666643  0.3333333333333357  0.1354583927504954  T  T  T
0.3333333333333357  0.6666666666666643  0.2056129715311658  T  T  T
-0.0000000000000000  -0.0000000000000000  0.2784120973859197  T  T  T
0.3333333333333357  0.6666666666666643  0.0966213604046432  T  T  T
-0.0000000000000000  0.0000000000000000  0.1705356821408305  T  T  T
0.6666666666666643  0.3333333333333357  0.2444500038770100  T  T  T
0.3333333333333357  0.6666666666666643  0.0259118465914457  T  T  T
0.6666666666666643  0.3333333333333357  0.3151595176902075  T  T  T
0.3333333333333357  0.6666666666666643  0.0000000000000000  T  T  T
0.6666666666666643  0.3333333333333357  0.3410713642816611  T  T  T

0.00000000E+00  0.00000000E+00  0.00000000E+00
0.00000000E+00  0.00000000E+00  0.00000000E+00
0.00000000E+00  0.00000000E+00  0.00000000E+00
0.00000000E+00  0.00000000E+00  0.00000000E+00
0.00000000E+00  0.00000000E+00  0.00000000E+00
0.00000000E+00  0.00000000E+00  0.00000000E+00
0.00000000E+00  0.00000000E+00  0.00000000E+00
0.00000000E+00  0.00000000E+00  0.00000000E+00
0.00000000E+00  0.00000000E+00  0.00000000E+00
0.00000000E+00  0.00000000E+00  0.00000000E+00
0.00000000E+00  0.00000000E+00  0.00000000E+00
