Hf4N3  (n=3)
1.00000000000000
3.1524734073629745  -0.0000000000000001  0.0000000000000000
-1.5762367036814875  2.7301220558875747  0.0000000000000000
0.0000000000000000  -0.0000000000000009  37.6169114523835120
Hf  N  O  H
4  3  2  2
Selective  dynamics
Direct
0.0000000000000000  -0.0000000000000000  0.0623900208921250  T  T  T
0.6666666666666643  0.3333333333333357  0.1318541158624351  T  T  T
0.3333333333333357  0.6666666666666643  0.2035511836490445  T  T  T
-0.0000000000000000  -0.0000000000000000  0.2730152786193469  T  T  T
0.3333333333333357  0.6666666666666643  0.0972097223342930  T  T  T
0.0000000000000000  -0.0000000000000000  0.1677026497557360  T  T  T
0.6666666666666643  0.3333333333333357  0.2381955771771711  T  T  T
0.3333333333333357  0.6666666666666643  0.0261096373166461  T  T  T
0.6666666666666643  0.3333333333333357  0.3092956621948335  T  T  T
0.3333333333333357  0.6666666666666643  0.0000000000000000  T  T  T
0.6666666666666643  0.3333333333333357  0.3354052995114800  T  T  T

0.00000000E+00  0.00000000E+00  0.00000000E+00
0.00000000E+00  0.00000000E+00  0.00000000E+00
0.00000000E+00  0.00000000E+00  0.00000000E+00
0.00000000E+00  0.00000000E+00  0.00000000E+00
0.00000000E+00  0.00000000E+00  0.00000000E+00
0.00000000E+00  0.00000000E+00  0.00000000E+00
0.00000000E+00  0.00000000E+00  0.00000000E+00
0.00000000E+00  0.00000000E+00  0.00000000E+00
0.00000000E+00  0.00000000E+00  0.00000000E+00
0.00000000E+00  0.00000000E+00  0.00000000E+00
0.00000000E+00  0.00000000E+00  0.00000000E+00
