Sc4N3  (n=3)
1.00000000000000
3.1563554585220248  0.0000000000000000  0.0000000000000000
-1.5781777292610124  2.7334840107093323  -0.0000000000000001
0.0000000000000005  -0.0000000000000010  37.3698810499391030
Sc  N  O  H
4  3  2  2
Selective  dynamics
Direct
0.0000000000000000  0.0000000000000000  0.0617689489036609  T  T  T
0.6666666666666643  0.3333333333333357  0.1312750319741198  T  T  T
0.3333333333333357  0.6666666666666643  0.1997370211123929  T  T  T
0.0000000000000000  -0.0000000000000000  0.2692431041828517  T  T  T
0.3333333333333357  0.6666666666666643  0.0942898732362273  T  T  T
0.0000000000000000  0.0000000000000000  0.1655060265432563  T  T  T
0.6666666666666643  0.3333333333333357  0.2367221798502854  T  T  T
0.3333333333333357  0.6666666666666643  0.0260410233376013  T  T  T
0.6666666666666643  0.3333333333333357  0.3049710297489114  T  T  T
0.3333333333333357  0.6666666666666643  0.0000000000000000  T  T  T
0.6666666666666643  0.3333333333333357  0.3310120530865125  T  T  T

0.00000000E+00  0.00000000E+00  0.00000000E+00
0.00000000E+00  0.00000000E+00  0.00000000E+00
0.00000000E+00  0.00000000E+00  0.00000000E+00
0.00000000E+00  0.00000000E+00  0.00000000E+00
0.00000000E+00  0.00000000E+00  0.00000000E+00
0.00000000E+00  0.00000000E+00  0.00000000E+00
0.00000000E+00  0.00000000E+00  0.00000000E+00
0.00000000E+00  0.00000000E+00  0.00000000E+00
0.00000000E+00  0.00000000E+00  0.00000000E+00
0.00000000E+00  0.00000000E+00  0.00000000E+00
0.00000000E+00  0.00000000E+00  0.00000000E+00
