Ta4N3  (n=3)
1.00000000000000
2.9434588942391628  -0.0000000000000001  0.0000000000000000
-1.4717294471195814  2.5491101776419733  0.0000000000000000
0.0000000000000000  0.0000000000000000  38.4378685846487613
Ta  N  O  H
4  3  2  2
Selective  dynamics
Direct
-0.0000000000000000  0.0000000000000000  0.0617253217703638  T  T  T
-0.0000000000000000  0.0000000000000000  0.1370138284399120  T  T  T
-0.0000000000000000  0.0000000000000000  0.2125859043094621  T  T  T
0.0000000000000000  0.0000000000000000  0.2878744109790104  T  T  T
0.3333333333333357  0.6666666666666643  0.0988803063446882  T  T  T
0.3333333333333357  0.6666666666666643  0.1747998663746871  T  T  T
0.3333333333333357  0.6666666666666643  0.2507194264046781  T  T  T
0.3333333333333357  0.6666666666666643  0.0260153721494274  T  T  T
0.3333333333333357  0.6666666666666643  0.3235843605999544  T  T  T
0.3333333333333357  0.6666666666666643  0.0000000000000000  T  T  T
0.3333333333333357  0.6666666666666643  0.3495997327493739  T  T  T

0.00000000E+00  0.00000000E+00  0.00000000E+00
0.00000000E+00  0.00000000E+00  0.00000000E+00
0.00000000E+00  0.00000000E+00  0.00000000E+00
0.00000000E+00  0.00000000E+00  0.00000000E+00
0.00000000E+00  0.00000000E+00  0.00000000E+00
0.00000000E+00  0.00000000E+00  0.00000000E+00
0.00000000E+00  0.00000000E+00  0.00000000E+00
0.00000000E+00  0.00000000E+00  0.00000000E+00
0.00000000E+00  0.00000000E+00  0.00000000E+00
0.00000000E+00  0.00000000E+00  0.00000000E+00
0.00000000E+00  0.00000000E+00  0.00000000E+00
