Ta4C3  (n=3)
1.00000000000000
3.0410431567481067  0.0000000000000001  0.0000000000000000
-1.5205215783740533  2.6336206283487638  0.0000000000000000
0.0000000000000000  0.0000000000000000  38.2483444402979416
Ta  C  O  H
4  3  2  2
Selective  dynamics
Direct
-0.0000000000000000  0.0000000000000000  0.0617107832542279  T  T  T
-0.0000000000000000  0.0000000000000000  0.1357084017082419  T  T  T
-0.0000000000000000  0.0000000000000000  0.2106685365400889  T  T  T
-0.0000000000000000  0.0000000000000000  0.2846661549941027  T  T  T
0.3333333333333357  0.6666666666666643  0.0963381854595217  T  T  T
0.3333333333333357  0.6666666666666643  0.1731884691241653  T  T  T
0.3333333333333357  0.6666666666666643  0.2500387527888012  T  T  T
0.3333333333333357  0.6666666666666643  0.0254728156986654  T  T  T
0.3333333333333357  0.6666666666666643  0.3209041225496652  T  T  T
0.3333333333333357  0.6666666666666643  0.0000000000000000  T  T  T
0.3333333333333357  0.6666666666666643  0.3463769382483302  T  T  T

0.00000000E+00  0.00000000E+00  0.00000000E+00
0.00000000E+00  0.00000000E+00  0.00000000E+00
0.00000000E+00  0.00000000E+00  0.00000000E+00
0.00000000E+00  0.00000000E+00  0.00000000E+00
0.00000000E+00  0.00000000E+00  0.00000000E+00
0.00000000E+00  0.00000000E+00  0.00000000E+00
0.00000000E+00  0.00000000E+00  0.00000000E+00
0.00000000E+00  0.00000000E+00  0.00000000E+00
0.00000000E+00  0.00000000E+00  0.00000000E+00
0.00000000E+00  0.00000000E+00  0.00000000E+00
0.00000000E+00  0.00000000E+00  0.00000000E+00
