Ti4N3  (n=3)
1.00000000000000
2.8996324405230309  0.0000000000000002  0.0000000000000000
-1.4498162202615150  2.5111553552148638  0.0000000000000000
0.0000000000000000  0.0000000000000000  37.5780717577762573
Ti  N  O  H
4  3  2  2
Selective  dynamics
Direct
0.0000000000000000  0.0000000000000000  0.0604224808435670  T  T  T
0.0000000000000000  0.0000000000000000  0.1314203155654690  T  T  T
0.0000000000000000  0.0000000000000000  0.2032980765556784  T  T  T
0.0000000000000000  0.0000000000000000  0.2742959112775804  T  T  T
0.3333333333333357  0.6666666666666643  0.0947130974438621  T  T  T
0.3333333333333357  0.6666666666666643  0.1673591960605776  T  T  T
0.3333333333333357  0.6666666666666643  0.2400052946772853  T  T  T
0.3333333333333357  0.6666666666666643  0.0258747532868799  T  T  T
0.3333333333333357  0.6666666666666643  0.3088436388342753  T  T  T
0.3333333333333357  0.6666666666666643  0.0000000000000000  T  T  T
0.3333333333333357  0.6666666666666643  0.3347183921211550  T  T  T

0.00000000E+00  0.00000000E+00  0.00000000E+00
0.00000000E+00  0.00000000E+00  0.00000000E+00
0.00000000E+00  0.00000000E+00  0.00000000E+00
0.00000000E+00  0.00000000E+00  0.00000000E+00
0.00000000E+00  0.00000000E+00  0.00000000E+00
0.00000000E+00  0.00000000E+00  0.00000000E+00
0.00000000E+00  0.00000000E+00  0.00000000E+00
0.00000000E+00  0.00000000E+00  0.00000000E+00
0.00000000E+00  0.00000000E+00  0.00000000E+00
0.00000000E+00  0.00000000E+00  0.00000000E+00
0.00000000E+00  0.00000000E+00  0.00000000E+00
