Cr4C3  (n=3)
1.00000000000000
2.7127003023860978  0.0000000000000000  0.0000000000000000
-1.3563501511930489  2.3492673747022481  0.0000000000000000
0.0000000000000000  0.0000000000000000  37.3130441090809413
Cr  C  O  H
4  3  2  2
Selective  dynamics
Direct
0.0000000000000000  0.0000000000000000  0.0604043010079430  T  T  T
0.0000000000000000  0.0000000000000000  0.1300116269544687  T  T  T
0.0000000000000000  0.0000000000000000  0.1999813929954637  T  T  T
0.0000000000000000  0.0000000000000000  0.2695887189419972  T  T  T
0.3333333333333357  0.6666666666666643  0.0944097956194775  T  T  T
0.3333333333333357  0.6666666666666643  0.1649965099749700  T  T  T
0.3333333333333357  0.6666666666666643  0.2355832243304549  T  T  T
0.3333333333333357  0.6666666666666643  0.0264421130039294  T  T  T
0.3333333333333357  0.6666666666666643  0.3035509069460106  T  T  T
0.3333333333333357  0.6666666666666643  0.0000000000000000  T  T  T
0.3333333333333357  0.6666666666666643  0.3299930199499401  T  T  T

0.00000000E+00  0.00000000E+00  0.00000000E+00
0.00000000E+00  0.00000000E+00  0.00000000E+00
0.00000000E+00  0.00000000E+00  0.00000000E+00
0.00000000E+00  0.00000000E+00  0.00000000E+00
0.00000000E+00  0.00000000E+00  0.00000000E+00
0.00000000E+00  0.00000000E+00  0.00000000E+00
0.00000000E+00  0.00000000E+00  0.00000000E+00
0.00000000E+00  0.00000000E+00  0.00000000E+00
0.00000000E+00  0.00000000E+00  0.00000000E+00
0.00000000E+00  0.00000000E+00  0.00000000E+00
0.00000000E+00  0.00000000E+00  0.00000000E+00
