Hf4C3  (n=3)
1.00000000000000
3.2109194816065889  0.0000000000000001  0.0000000000000000
-1.6054597408032945  2.7807378418376354  0.0000000000000000
0.0000000000000000  0.0000000000000000  38.3335473878056519
Hf  C  O  H
4  3  2  2
Selective  dynamics
Direct
0.0000000000000000  0.0000000000000000  0.0624267279305924  T  T  T
0.0000000000000000  0.0000000000000000  0.1372234576201378  T  T  T
0.0000000000000000  0.0000000000000000  0.2106062710745568  T  T  T
0.0000000000000000  0.0000000000000000  0.2854030007640944  T  T  T
0.3333333333333357  0.6666666666666643  0.0954540237607358  T  T  T
0.3333333333333357  0.6666666666666643  0.1739148643473473  T  T  T
0.3333333333333357  0.6666666666666643  0.2523757049339509  T  T  T
0.3333333333333357  0.6666666666666643  0.0254540623620739  T  T  T
0.3333333333333357  0.6666666666666643  0.3223756663326205  T  T  T
0.3333333333333357  0.6666666666666643  0.0000000000000000  T  T  T
0.3333333333333357  0.6666666666666643  0.3478297286946945  T  T  T

0.00000000E+00  0.00000000E+00  0.00000000E+00
0.00000000E+00  0.00000000E+00  0.00000000E+00
0.00000000E+00  0.00000000E+00  0.00000000E+00
0.00000000E+00  0.00000000E+00  0.00000000E+00
0.00000000E+00  0.00000000E+00  0.00000000E+00
0.00000000E+00  0.00000000E+00  0.00000000E+00
0.00000000E+00  0.00000000E+00  0.00000000E+00
0.00000000E+00  0.00000000E+00  0.00000000E+00
0.00000000E+00  0.00000000E+00  0.00000000E+00
0.00000000E+00  0.00000000E+00  0.00000000E+00
0.00000000E+00  0.00000000E+00  0.00000000E+00
