Hf4N3  (n=3)
1.00000000000000
3.0742254878027024  -0.0000000000000006  0.0000000000000000
-1.5371127439013512  2.6623573698857133  0.0000000000000000
0.0000000000000000  0.0000000000000000  38.4411943428202392
Hf  N  O  H
4  3  2  2
Selective  dynamics
Direct
-0.0000000000000000  -0.0000000000000000  0.0615733779915732  T  T  T
-0.0000000000000000  -0.0000000000000000  0.1368412130648568  T  T  T
-0.0000000000000000  -0.0000000000000000  0.2128147893722966  T  T  T
-0.0000000000000000  -0.0000000000000000  0.2880826244455726  T  T  T
0.3333333333333357  0.6666666666666643  0.0983957487708265  T  T  T
0.3333333333333357  0.6666666666666643  0.1748280012185729  T  T  T
0.3333333333333357  0.6666666666666643  0.2512602536663116  T  T  T
0.3333333333333357  0.6666666666666643  0.0254043726276824  T  T  T
0.3333333333333357  0.6666666666666643  0.3242516298094635  T  T  T
0.3333333333333357  0.6666666666666643  0.0000000000000000  T  T  T
0.3333333333333357  0.6666666666666643  0.3496560024371534  T  T  T

0.00000000E+00  0.00000000E+00  0.00000000E+00
0.00000000E+00  0.00000000E+00  0.00000000E+00
0.00000000E+00  0.00000000E+00  0.00000000E+00
0.00000000E+00  0.00000000E+00  0.00000000E+00
0.00000000E+00  0.00000000E+00  0.00000000E+00
0.00000000E+00  0.00000000E+00  0.00000000E+00
0.00000000E+00  0.00000000E+00  0.00000000E+00
0.00000000E+00  0.00000000E+00  0.00000000E+00
0.00000000E+00  0.00000000E+00  0.00000000E+00
0.00000000E+00  0.00000000E+00  0.00000000E+00
0.00000000E+00  0.00000000E+00  0.00000000E+00
