Zr4C3  (n=3)
1.00000000000000
3.2648170653522710  0.0000000000000000  0.0000000000000000
-1.6324085326761355  2.8274145192290616  0.0000000000000000
0.0000000000000000  0.0000000000000000  38.4634374725937604
Zr  C  O  H
4  3  2  2
Selective  dynamics
Direct
0.0000000000000000  0.0000000000000000  0.0624895805923849  T  T  T
0.0000000000000000  0.0000000000000000  0.1380730808468562  T  T  T
0.0000000000000000  0.0000000000000000  0.2119590108554737  T  T  T
0.0000000000000000  0.0000000000000000  0.2875425111099368  T  T  T
0.3333333333333357  0.6666666666666643  0.0955784069249411  T  T  T
0.3333333333333357  0.6666666666666643  0.1750160458511687  T  T  T
0.3333333333333357  0.6666666666666643  0.2544536847773884  T  T  T
0.3333333333333357  0.6666666666666643  0.0253272734668661  T  T  T
0.3333333333333357  0.6666666666666643  0.3247048182354633  T  T  T
0.3333333333333357  0.6666666666666643  0.0000000000000000  T  T  T
0.3333333333333357  0.6666666666666643  0.3500320917023296  T  T  T

0.00000000E+00  0.00000000E+00  0.00000000E+00
0.00000000E+00  0.00000000E+00  0.00000000E+00
0.00000000E+00  0.00000000E+00  0.00000000E+00
0.00000000E+00  0.00000000E+00  0.00000000E+00
0.00000000E+00  0.00000000E+00  0.00000000E+00
0.00000000E+00  0.00000000E+00  0.00000000E+00
0.00000000E+00  0.00000000E+00  0.00000000E+00
0.00000000E+00  0.00000000E+00  0.00000000E+00
0.00000000E+00  0.00000000E+00  0.00000000E+00
0.00000000E+00  0.00000000E+00  0.00000000E+00
0.00000000E+00  0.00000000E+00  0.00000000E+00
