Zr4N3  (n=3)
1.00000000000000
3.1330288278910370  0.0000000000000011  0.0000000000000000
-1.5665144139455183  2.7132825562823295  0.0000000000000000
0.0000000000000000  0.0000000000000000  38.5467510927239090
Zr  N  O  H
4  3  2  2
Selective  dynamics
Direct
0.0000000000000000  0.0000000000000000  0.0617305810234724  T  T  T
0.0000000000000000  0.0000000000000000  0.1374967112373723  T  T  T
0.0000000000000000  0.0000000000000000  0.2139401987148465  T  T  T
0.0000000000000000  0.0000000000000000  0.2897063289287463  T  T  T
0.3333333333333357  0.6666666666666643  0.0987729090758676  T  T  T
0.3333333333333357  0.6666666666666643  0.1757184549761056  T  T  T
0.3333333333333357  0.6666666666666643  0.2526640008763436  T  T  T
0.3333333333333357  0.6666666666666643  0.0252357423256637  T  T  T
0.3333333333333357  0.6666666666666643  0.3262011676265476  T  T  T
0.3333333333333357  0.6666666666666643  0.0000000000000000  T  T  T
0.3333333333333357  0.6666666666666643  0.3514369099522112  T  T  T

0.00000000E+00  0.00000000E+00  0.00000000E+00
0.00000000E+00  0.00000000E+00  0.00000000E+00
0.00000000E+00  0.00000000E+00  0.00000000E+00
0.00000000E+00  0.00000000E+00  0.00000000E+00
0.00000000E+00  0.00000000E+00  0.00000000E+00
0.00000000E+00  0.00000000E+00  0.00000000E+00
0.00000000E+00  0.00000000E+00  0.00000000E+00
0.00000000E+00  0.00000000E+00  0.00000000E+00
0.00000000E+00  0.00000000E+00  0.00000000E+00
0.00000000E+00  0.00000000E+00  0.00000000E+00
0.00000000E+00  0.00000000E+00  0.00000000E+00
