Sc4C3  (n=3)
1.00000000000000
3.3143709892323781  0.0000000000000000  0.0000000000000000
-1.6571854946161892  2.8703294747668231  0.0000000000000000
0.0000000000000000  0.0000000000000000  37.6596572313137230
Sc  C  O  H
4  3  2  2
Selective  dynamics
Direct
-0.0000000000000000  -0.0000000000000000  0.0598683580767665  T  T  T
-0.0000000000000000  -0.0000000000000000  0.1322747112632078  T  T  T
-0.0000000000000000  -0.0000000000000000  0.2038849397276491  T  T  T
-0.0000000000000000  -0.0000000000000000  0.2762912929140904  T  T  T
0.3333333333333357  0.6666666666666643  0.0957921904113639  T  T  T
0.3333333333333357  0.6666666666666643  0.1680798254954324  T  T  T
0.3333333333333357  0.6666666666666643  0.2403674605794851  T  T  T
0.3333333333333357  0.6666666666666643  0.0259376626139038  T  T  T
0.3333333333333357  0.6666666666666643  0.3102219883769530  T  T  T
0.3333333333333357  0.6666666666666643  0.0000000000000000  T  T  T
0.3333333333333357  0.6666666666666643  0.3361596509908569  T  T  T

0.00000000E+00  0.00000000E+00  0.00000000E+00
0.00000000E+00  0.00000000E+00  0.00000000E+00
0.00000000E+00  0.00000000E+00  0.00000000E+00
0.00000000E+00  0.00000000E+00  0.00000000E+00
0.00000000E+00  0.00000000E+00  0.00000000E+00
0.00000000E+00  0.00000000E+00  0.00000000E+00
0.00000000E+00  0.00000000E+00  0.00000000E+00
0.00000000E+00  0.00000000E+00  0.00000000E+00
0.00000000E+00  0.00000000E+00  0.00000000E+00
0.00000000E+00  0.00000000E+00  0.00000000E+00
0.00000000E+00  0.00000000E+00  0.00000000E+00
