Mo4N3  (n=3)
1.00000000000000
2.8671351970654824  0.0000000000000001  0.0000000000000000
-1.4335675985327412  2.4830119167917903  0.0000000000000000
0.0000000000000000  0.0000000000000000  38.4896394511982152
Mo  N  O  H
4  3  2  2
Selective  dynamics
Direct
-0.0000000000000000  0.0000000000000000  0.0649184320339165  T  T  T
-0.0000000000000000  0.0000000000000000  0.1377676264861239  T  T  T
-0.0000000000000000  0.0000000000000000  0.2127069335133716  T  T  T
-0.0000000000000000  0.0000000000000000  0.2855561279655791  T  T  T
0.3333333333333357  0.6666666666666643  0.1000715659305624  T  T  T
0.3333333333333357  0.6666666666666643  0.1752372799997477  T  T  T
0.3333333333333357  0.6666666666666643  0.2504029940689331  T  T  T
0.3333333333333357  0.6666666666666643  0.0257341605579145  T  T  T
0.3333333333333357  0.6666666666666643  0.3247403994415810  T  T  T
0.3333333333333357  0.6666666666666643  0.0000000000000000  T  T  T
0.3333333333333357  0.6666666666666643  0.3504745599995031  T  T  T

0.00000000E+00  0.00000000E+00  0.00000000E+00
0.00000000E+00  0.00000000E+00  0.00000000E+00
0.00000000E+00  0.00000000E+00  0.00000000E+00
0.00000000E+00  0.00000000E+00  0.00000000E+00
0.00000000E+00  0.00000000E+00  0.00000000E+00
0.00000000E+00  0.00000000E+00  0.00000000E+00
0.00000000E+00  0.00000000E+00  0.00000000E+00
0.00000000E+00  0.00000000E+00  0.00000000E+00
0.00000000E+00  0.00000000E+00  0.00000000E+00
0.00000000E+00  0.00000000E+00  0.00000000E+00
0.00000000E+00  0.00000000E+00  0.00000000E+00
