Ti4C3  (n=3)
1.00000000000000
3.0147759115479831  -0.0000000000000001  0.0000000000000000
-1.5073879557739915  2.6108725262701609  0.0000000000000000
0.0000000000000000  0.0000000000000000  37.5864789555137904
Ti  C  O  H
4  3  2  2
Selective  dynamics
Direct
0.0000000000000000  -0.0000000000000000  0.0611424554735063  T  T  T
0.0000000000000000  -0.0000000000000000  0.1322825302416714  T  T  T
0.0000000000000000  -0.0000000000000000  0.2025846694875386  T  T  T
0.0000000000000000  -0.0000000000000000  0.2737247442557037  T  T  T
0.3333333333333357  0.6666666666666643  0.0934919812948421  T  T  T
0.3333333333333357  0.6666666666666643  0.1674335998646050  T  T  T
0.3333333333333357  0.6666666666666643  0.2413752184343600  T  T  T
0.3333333333333357  0.6666666666666643  0.0259480510497132  T  T  T
0.3333333333333357  0.6666666666666643  0.3089191486794968  T  T  T
0.3333333333333357  0.6666666666666643  0.0000000000000000  T  T  T
0.3333333333333357  0.6666666666666643  0.3348671997292102  T  T  T

0.00000000E+00  0.00000000E+00  0.00000000E+00
0.00000000E+00  0.00000000E+00  0.00000000E+00
0.00000000E+00  0.00000000E+00  0.00000000E+00
0.00000000E+00  0.00000000E+00  0.00000000E+00
0.00000000E+00  0.00000000E+00  0.00000000E+00
0.00000000E+00  0.00000000E+00  0.00000000E+00
0.00000000E+00  0.00000000E+00  0.00000000E+00
0.00000000E+00  0.00000000E+00  0.00000000E+00
0.00000000E+00  0.00000000E+00  0.00000000E+00
0.00000000E+00  0.00000000E+00  0.00000000E+00
0.00000000E+00  0.00000000E+00  0.00000000E+00
