Sc4N3  (n=3)
1.00000000000000
3.1079110515016830  0.0000000000000000  0.0000000000000000
-1.5539555257508415  2.6915299236247763  0.0000000000000000
0.0000000000000000  0.0000000000000000  37.9396754097796318
Sc  N  O  H
4  3  2  2
Selective  dynamics
Direct
0.0000000000000000  -0.0000000000000000  0.0608261692139359  T  T  T
0.0000000000000000  -0.0000000000000000  0.1343077819850948  T  T  T
0.0000000000000000  -0.0000000000000000  0.2067514197613758  T  T  T
0.0000000000000000  -0.0000000000000000  0.2802330325325426  T  T  T
0.3333333333333357  0.6666666666666643  0.0941008520206418  T  T  T
0.3333333333333357  0.6666666666666643  0.1705296008732393  T  T  T
0.3333333333333357  0.6666666666666643  0.2469583497258210  T  T  T
0.3333333333333357  0.6666666666666643  0.0256681482547608  T  T  T
0.3333333333333357  0.6666666666666643  0.3153910534917098  T  T  T
0.3333333333333357  0.6666666666666643  0.0000000000000000  T  T  T
0.3333333333333357  0.6666666666666643  0.3410592017464704  T  T  T

0.00000000E+00  0.00000000E+00  0.00000000E+00
0.00000000E+00  0.00000000E+00  0.00000000E+00
0.00000000E+00  0.00000000E+00  0.00000000E+00
0.00000000E+00  0.00000000E+00  0.00000000E+00
0.00000000E+00  0.00000000E+00  0.00000000E+00
0.00000000E+00  0.00000000E+00  0.00000000E+00
0.00000000E+00  0.00000000E+00  0.00000000E+00
0.00000000E+00  0.00000000E+00  0.00000000E+00
0.00000000E+00  0.00000000E+00  0.00000000E+00
0.00000000E+00  0.00000000E+00  0.00000000E+00
0.00000000E+00  0.00000000E+00  0.00000000E+00
