Nb4C3  (n=3)
1.00000000000000
3.0567354399973978  0.0000000000000001  0.0000000000000000
-1.5283677199986989  2.6472105442591412  0.0000000000000000
0.0000000000000000  0.0000000000000000  38.2873548104042385
Nb  C  O  H
4  3  2  2
Selective  dynamics
Direct
-0.0000000000000000  -0.0000000000000000  0.0615902489879312  T  T  T
-0.0000000000000000  -0.0000000000000000  0.1359007741374847  T  T  T
-0.0000000000000000  -0.0000000000000000  0.2111421301373627  T  T  T
-0.0000000000000000  -0.0000000000000000  0.2854526552869163  T  T  T
0.3333333333333357  0.6666666666666643  0.0963988544178477  T  T  T
0.3333333333333357  0.6666666666666643  0.1735214521374238  T  T  T
0.3333333333333357  0.6666666666666643  0.2506440498569921  T  T  T
0.3333333333333357  0.6666666666666643  0.0253937694235741  T  T  T
0.3333333333333357  0.6666666666666643  0.3216491348512734  T  T  T
0.3333333333333357  0.6666666666666643  0.0000000000000000  T  T  T
0.3333333333333357  0.6666666666666643  0.3470429042748474  T  T  T

0.00000000E+00  0.00000000E+00  0.00000000E+00
0.00000000E+00  0.00000000E+00  0.00000000E+00
0.00000000E+00  0.00000000E+00  0.00000000E+00
0.00000000E+00  0.00000000E+00  0.00000000E+00
0.00000000E+00  0.00000000E+00  0.00000000E+00
0.00000000E+00  0.00000000E+00  0.00000000E+00
0.00000000E+00  0.00000000E+00  0.00000000E+00
0.00000000E+00  0.00000000E+00  0.00000000E+00
0.00000000E+00  0.00000000E+00  0.00000000E+00
0.00000000E+00  0.00000000E+00  0.00000000E+00
0.00000000E+00  0.00000000E+00  0.00000000E+00
