Mo4C3  (n=3)
1.00000000000000
2.9170304106940566  0.0000000000000000  0.0000000000000000
-1.4585152053470283  2.5262224394973569  0.0000000000000000
0.0000000000000000  0.0000000000000000  38.2241078035700426
Mo  C  O  H
4  3  2  2
Selective  dynamics
Direct
-0.0000000000000000  -0.0000000000000000  0.0625465954134251  T  T  T
-0.0000000000000000  -0.0000000000000000  0.1358750990468618  T  T  T
-0.0000000000000000  -0.0000000000000000  0.2100873985352254  T  T  T
-0.0000000000000000  -0.0000000000000000  0.2834159021686621  T  T  T
0.3333333333333357  0.6666666666666643  0.0983232670242794  T  T  T
0.3333333333333357  0.6666666666666643  0.1729812487910435  T  T  T
0.3333333333333357  0.6666666666666643  0.2476392305578078  T  T  T
0.3333333333333357  0.6666666666666643  0.0259235348239345  T  T  T
0.3333333333333357  0.6666666666666643  0.3200389627581604  T  T  T
0.3333333333333357  0.6666666666666643  0.0000000000000000  T  T  T
0.3333333333333357  0.6666666666666643  0.3459624975820872  T  T  T

0.00000000E+00  0.00000000E+00  0.00000000E+00
0.00000000E+00  0.00000000E+00  0.00000000E+00
0.00000000E+00  0.00000000E+00  0.00000000E+00
0.00000000E+00  0.00000000E+00  0.00000000E+00
0.00000000E+00  0.00000000E+00  0.00000000E+00
0.00000000E+00  0.00000000E+00  0.00000000E+00
0.00000000E+00  0.00000000E+00  0.00000000E+00
0.00000000E+00  0.00000000E+00  0.00000000E+00
0.00000000E+00  0.00000000E+00  0.00000000E+00
0.00000000E+00  0.00000000E+00  0.00000000E+00
0.00000000E+00  0.00000000E+00  0.00000000E+00
