Cr4N3  (n=3)
1.00000000000000
2.6884429194482600  0.0000000000000000  0.0000000000000000
-1.3442214597241302  2.3282598648683721  0.0000000000000000
0.0000000000000000  0.0000000000000000  37.3194365062383326
Cr  N  O  H
4  3  2  2
Selective  dynamics
Direct
0.0000000000000000  0.0000000000000000  0.0616749414457649  T  T  T
0.0000000000000000  0.0000000000000000  0.1301477228988263  T  T  T
0.0000000000000000  0.0000000000000000  0.1999600616648289  T  T  T
0.0000000000000000  0.0000000000000000  0.2684328431178828  T  T  T
0.3333333333333357  0.6666666666666643  0.0949722288024890  T  T  T
0.3333333333333357  0.6666666666666643  0.1650538922818239  T  T  T
0.3333333333333357  0.6666666666666643  0.2351355557611587  T  T  T
0.3333333333333357  0.6666666666666643  0.0264864955908751  T  T  T
0.3333333333333357  0.6666666666666643  0.3036212889727802  T  T  T
0.3333333333333357  0.6666666666666643  0.0000000000000000  T  T  T
0.3333333333333357  0.6666666666666643  0.3301077845636553  T  T  T

0.00000000E+00  0.00000000E+00  0.00000000E+00
0.00000000E+00  0.00000000E+00  0.00000000E+00
0.00000000E+00  0.00000000E+00  0.00000000E+00
0.00000000E+00  0.00000000E+00  0.00000000E+00
0.00000000E+00  0.00000000E+00  0.00000000E+00
0.00000000E+00  0.00000000E+00  0.00000000E+00
0.00000000E+00  0.00000000E+00  0.00000000E+00
0.00000000E+00  0.00000000E+00  0.00000000E+00
0.00000000E+00  0.00000000E+00  0.00000000E+00
0.00000000E+00  0.00000000E+00  0.00000000E+00
0.00000000E+00  0.00000000E+00  0.00000000E+00
