Nb4N3  (n=3)
1.00000000000000
2.9683521188496003  0.0000000000000000  0.0000000000000000
-1.4841760594248008  2.5706683426117056  0.0000000000000000
0.0000000000000000  0.0000000000000000  38.4111156115089685
Nb  N  O  H
4  3  2  2
Selective  dynamics
Direct
-0.0000000000000000  -0.0000000000000000  0.0615435335814632  T  T  T
-0.0000000000000000  -0.0000000000000000  0.1368534556127195  T  T  T
-0.0000000000000000  -0.0000000000000000  0.2122932795966676  T  T  T
-0.0000000000000000  -0.0000000000000000  0.2876032016279315  T  T  T
0.3333333333333357  0.6666666666666643  0.0985799130322017  T  T  T
0.3333333333333357  0.6666666666666643  0.1745733676046935  T  T  T
0.3333333333333357  0.6666666666666643  0.2505668221771779  T  T  T
0.3333333333333357  0.6666666666666643  0.0257409941973308  T  T  T
0.3333333333333357  0.6666666666666643  0.3234057410120638  T  T  T
0.3333333333333357  0.6666666666666643  0.0000000000000000  T  T  T
0.3333333333333357  0.6666666666666643  0.3491467352093947  T  T  T

0.00000000E+00  0.00000000E+00  0.00000000E+00
0.00000000E+00  0.00000000E+00  0.00000000E+00
0.00000000E+00  0.00000000E+00  0.00000000E+00
0.00000000E+00  0.00000000E+00  0.00000000E+00
0.00000000E+00  0.00000000E+00  0.00000000E+00
0.00000000E+00  0.00000000E+00  0.00000000E+00
0.00000000E+00  0.00000000E+00  0.00000000E+00
0.00000000E+00  0.00000000E+00  0.00000000E+00
0.00000000E+00  0.00000000E+00  0.00000000E+00
0.00000000E+00  0.00000000E+00  0.00000000E+00
0.00000000E+00  0.00000000E+00  0.00000000E+00
