Nb4C3  (n=3)
1.00000000000000
3.2131333469696775  -0.0000000000000001  -0.0000000000000000
-1.6065666734848387  2.7826551050639483  0.0000000000000000
0.0000000000000001  0.0000000000000013  36.2777900659744930
Nb  C  Cl
4  3  2
Selective  dynamics
Direct
0.0000000000000000  0.0000000000000000  0.0509472675305165  T  T  T
0.6666666666666643  0.3333333333333357  0.1202780887607431  T  T  T
0.3333333333333357  0.6666666666666643  0.1928215762049341  T  T  T
-0.0000000000000000  -0.0000000000000000  0.2589075597497518  T  T  T
0.3333333333333357  0.6666666666666643  0.0836513359061857  T  T  T
-0.0000000000000000  -0.0000000000000000  0.1556474775824707  T  T  T
0.6666666666666643  0.3333333333333357  0.2280715464750533  T  T  T
0.3333333333333357  0.6666666666666643  0.0000000000000000  T  T  T
0.3333333333333357  0.6666666666666643  0.3108731277584658  T  T  T

0.00000000E+00  0.00000000E+00  0.00000000E+00
0.00000000E+00  0.00000000E+00  0.00000000E+00
0.00000000E+00  0.00000000E+00  0.00000000E+00
0.00000000E+00  0.00000000E+00  0.00000000E+00
0.00000000E+00  0.00000000E+00  0.00000000E+00
0.00000000E+00  0.00000000E+00  0.00000000E+00
0.00000000E+00  0.00000000E+00  0.00000000E+00
0.00000000E+00  0.00000000E+00  0.00000000E+00
0.00000000E+00  0.00000000E+00  0.00000000E+00
