Ti4C3  (n=3)
1.00000000000000
3.1465717073227166  -0.0000000000000000  0.0000000000000001
-1.5732858536613583  2.7250110336816693  -0.0000000000000002
0.0000000000000002  -0.0000000000000012  35.6110712662313702
Ti  C  Cl
4  3  2
Selective  dynamics
Direct
-0.0000000000000000  -0.0000000000000000  0.0493472403088144  T  T  T
0.6666666666666643  0.3333333333333357  0.1167952578570465  T  T  T
0.3333333333333357  0.6666666666666643  0.1831927618146927  T  T  T
0.0000000000000000  0.0000000000000000  0.2495228762649229  T  T  T
0.3333333333333357  0.6666666666666643  0.0801710090918138  T  T  T
-0.0000000000000000  0.0000000000000000  0.1501606149356283  T  T  T
0.6666666666666643  0.3333333333333357  0.2205200985941484  T  T  T
0.3333333333333357  0.6666666666666643  0.0000000000000000  T  T  T
0.3333333333333357  0.6666666666666643  0.2979711333843936  T  T  T

0.00000000E+00  0.00000000E+00  0.00000000E+00
0.00000000E+00  0.00000000E+00  0.00000000E+00
0.00000000E+00  0.00000000E+00  0.00000000E+00
0.00000000E+00  0.00000000E+00  0.00000000E+00
0.00000000E+00  0.00000000E+00  0.00000000E+00
0.00000000E+00  0.00000000E+00  0.00000000E+00
0.00000000E+00  0.00000000E+00  0.00000000E+00
0.00000000E+00  0.00000000E+00  0.00000000E+00
0.00000000E+00  0.00000000E+00  0.00000000E+00
