Sc4C3  (n=3)
1.00000000000000
3.3662098564795349  0.0000000000000001  -0.0000000000000001
-1.6831049282397677  2.9152232512199840  0.0000000000000000
-0.0000000000000016  -0.0000000000000005  36.3492041899053291
Sc  C  Cl
4  3  2
Selective  dynamics
Direct
0.0000000000000000  0.0000000000000000  0.0484919002694761  T  T  T
0.6666666666666643  0.3333333333333357  0.1191560810456494  T  T  T
0.3333333333333357  0.6666666666666643  0.1949242550496360  T  T  T
0.0000000000000000  0.0000000000000000  0.2654616985029356  T  T  T
0.3333333333333357  0.6666666666666643  0.0832075268011723  T  T  T
0.0000000000000000  0.0000000000000000  0.1568902024469621  T  T  T
0.6666666666666643  0.3333333333333357  0.2316519190921212  T  T  T
0.3333333333333357  0.6666666666666643  0.0000000000000000  T  T  T
0.3333333333333357  0.6666666666666643  0.3122270333791010  T  T  T

0.00000000E+00  0.00000000E+00  0.00000000E+00
0.00000000E+00  0.00000000E+00  0.00000000E+00
0.00000000E+00  0.00000000E+00  0.00000000E+00
0.00000000E+00  0.00000000E+00  0.00000000E+00
0.00000000E+00  0.00000000E+00  0.00000000E+00
0.00000000E+00  0.00000000E+00  0.00000000E+00
0.00000000E+00  0.00000000E+00  0.00000000E+00
0.00000000E+00  0.00000000E+00  0.00000000E+00
0.00000000E+00  0.00000000E+00  0.00000000E+00
