Sc4N3  (n=3)
1.00000000000000
3.2567825255798684  -0.0000000000000001  0.0000000000000001
-1.6283912627899340  2.8204564024081815  -0.0000000000000001
0.0000000000000008  -0.0000000000000033  36.1070834184665657
Sc  N  Cl
4  3  2
Selective  dynamics
Direct
-0.0000000000000000  0.0000000000000000  0.0496498754770817  T  T  T
0.6666666666666643  0.3333333333333357  0.1198352197328873  T  T  T
0.3333333333333357  0.6666666666666643  0.1892754848435297  T  T  T
-0.0000000000000000  0.0000000000000000  0.2592299714200495  T  T  T
0.3333333333333357  0.6666666666666643  0.0823597115134738  T  T  T
0.0000000000000000  0.0000000000000000  0.1553911047807834  T  T  T
0.6666666666666643  0.3333333333333357  0.2288003037005329  T  T  T
0.3333333333333357  0.6666666666666643  0.0000000000000000  T  T  T
0.3333333333333357  0.6666666666666643  0.3076150817760587  T  T  T

0.00000000E+00  0.00000000E+00  0.00000000E+00
0.00000000E+00  0.00000000E+00  0.00000000E+00
0.00000000E+00  0.00000000E+00  0.00000000E+00
0.00000000E+00  0.00000000E+00  0.00000000E+00
0.00000000E+00  0.00000000E+00  0.00000000E+00
0.00000000E+00  0.00000000E+00  0.00000000E+00
0.00000000E+00  0.00000000E+00  0.00000000E+00
0.00000000E+00  0.00000000E+00  0.00000000E+00
0.00000000E+00  0.00000000E+00  0.00000000E+00
