Ti4N3  (n=3)
1.00000000000000
3.0715147166196157  -0.0000000000000002  0.0000000000000000
-1.5357573583098079  2.6600097728978600  0.0000000000000000
0.0000000000000002  0.0000000000000004  35.5884771740811701
Ti  N  Cl
4  3  2
Selective  dynamics
Direct
-0.0000000000000000  -0.0000000000000000  0.0486665330940250  T  T  T
0.6666666666666643  0.3333333333333357  0.1148738871254506  T  T  T
0.3333333333333357  0.6666666666666643  0.1850663636017610  T  T  T
0.0000000000000000  0.0000000000000000  0.2487309003903167  T  T  T
0.3333333333333357  0.6666666666666643  0.0815481854941918  T  T  T
-0.0000000000000000  -0.0000000000000000  0.1493756811277149  T  T  T
0.6666666666666643  0.3333333333333357  0.2179188851962078  T  T  T
0.3333333333333357  0.6666666666666643  0.0000000000000000  T  T  T
0.3333333333333357  0.6666666666666643  0.2975254356146680  T  T  T

0.00000000E+00  0.00000000E+00  0.00000000E+00
0.00000000E+00  0.00000000E+00  0.00000000E+00
0.00000000E+00  0.00000000E+00  0.00000000E+00
0.00000000E+00  0.00000000E+00  0.00000000E+00
0.00000000E+00  0.00000000E+00  0.00000000E+00
0.00000000E+00  0.00000000E+00  0.00000000E+00
0.00000000E+00  0.00000000E+00  0.00000000E+00
0.00000000E+00  0.00000000E+00  0.00000000E+00
0.00000000E+00  0.00000000E+00  0.00000000E+00
