Zr4C3  (n=3)
1.00000000000000
3.3871862722121979  -0.0000000000000003  0.0000000000000000
-1.6935931361060990  2.9333893603187700  0.0000000000000000
0.0000000000000000  0.0000000000000027  36.5351052794654976
Zr  C  Cl
4  3  2
Selective  dynamics
Direct
0.0000000000000000  0.0000000000000000  0.0509782897011113  T  T  T
0.6666666666666643  0.3333333333333357  0.1231137122015086  T  T  T
0.3333333333333357  0.6666666666666643  0.1942724954509939  T  T  T
0.0000000000000000  0.0000000000000000  0.2653971355963664  T  T  T
0.3333333333333357  0.6666666666666643  0.0836600259171986  T  T  T
-0.0000000000000000  -0.0000000000000000  0.1588632054435928  T  T  T
0.6666666666666643  0.3333333333333357  0.2346541736308924  T  T  T
0.3333333333333357  0.6666666666666643  0.0000000000000000  T  T  T
0.3333333333333357  0.6666666666666643  0.3157266194042908  T  T  T

0.00000000E+00  0.00000000E+00  0.00000000E+00
0.00000000E+00  0.00000000E+00  0.00000000E+00
0.00000000E+00  0.00000000E+00  0.00000000E+00
0.00000000E+00  0.00000000E+00  0.00000000E+00
0.00000000E+00  0.00000000E+00  0.00000000E+00
0.00000000E+00  0.00000000E+00  0.00000000E+00
0.00000000E+00  0.00000000E+00  0.00000000E+00
0.00000000E+00  0.00000000E+00  0.00000000E+00
0.00000000E+00  0.00000000E+00  0.00000000E+00
