Mo4N3  (n=3)
1.00000000000000
2.9220260814019876  0.0000000000000004  -0.0000000000000002
-1.4610130407009934  2.5305488172965478  0.0000000000000001
-0.0000000000000014  0.0000000000000000  37.2694156897369595
Mo  N  Cl
4  3  2
Selective  dynamics
Direct
0.0000000000000000  0.0000000000000000  0.0515528126326459  T  T  T
0.6666666666666643  0.3333333333333357  0.1278792816861822  T  T  T
0.3333333333333357  0.6666666666666643  0.2036666635859642  T  T  T
0.0000000000000000  0.0000000000000000  0.2790572984042023  T  T  T
0.3333333333333357  0.6666666666666643  0.0872070824199992  T  T  T
0.0000000000000000  0.0000000000000000  0.1647833324988063  T  T  T
0.6666666666666643  0.3333333333333357  0.2419809577816981  T  T  T
0.3333333333333357  0.6666666666666643  0.0000000000000000  T  T  T
0.3333333333333357  0.6666666666666643  0.3292086946540361  T  T  T

0.00000000E+00  0.00000000E+00  0.00000000E+00
0.00000000E+00  0.00000000E+00  0.00000000E+00
0.00000000E+00  0.00000000E+00  0.00000000E+00
0.00000000E+00  0.00000000E+00  0.00000000E+00
0.00000000E+00  0.00000000E+00  0.00000000E+00
0.00000000E+00  0.00000000E+00  0.00000000E+00
0.00000000E+00  0.00000000E+00  0.00000000E+00
0.00000000E+00  0.00000000E+00  0.00000000E+00
0.00000000E+00  0.00000000E+00  0.00000000E+00
