Ta4C3  (n=3)
1.00000000000000
3.1893841565087637  0.0000000000000000  0.0000000000000000
-1.5946920782543819  2.7620877027417468  -0.0000000000000002
0.0000000000000002  -0.0000000000000014  36.2608086433950660
Ta  C  Cl
4  3  2
Selective  dynamics
Direct
-0.0000000000000000  -0.0000000000000000  0.0511587100904910  T  T  T
0.6666666666666643  0.3333333333333357  0.1204850098379255  T  T  T
0.3333333333333357  0.6666666666666643  0.1924935014867795  T  T  T
-0.0000000000000000  -0.0000000000000000  0.2583332864991127  T  T  T
0.3333333333333357  0.6666666666666643  0.0839679105331511  T  T  T
-0.0000000000000000  -0.0000000000000000  0.1555943345395121  T  T  T
0.6666666666666643  0.3333333333333357  0.2276705552448174  T  T  T
0.3333333333333357  0.6666666666666643  0.0000000000000000  T  T  T
0.3333333333333357  0.6666666666666643  0.3105504004099542  T  T  T

0.00000000E+00  0.00000000E+00  0.00000000E+00
0.00000000E+00  0.00000000E+00  0.00000000E+00
0.00000000E+00  0.00000000E+00  0.00000000E+00
0.00000000E+00  0.00000000E+00  0.00000000E+00
0.00000000E+00  0.00000000E+00  0.00000000E+00
0.00000000E+00  0.00000000E+00  0.00000000E+00
0.00000000E+00  0.00000000E+00  0.00000000E+00
0.00000000E+00  0.00000000E+00  0.00000000E+00
0.00000000E+00  0.00000000E+00  0.00000000E+00
