Ta4N3  (n=3)
1.00000000000000
3.1156130701852125  0.0000000000000000  0.0000000000000000
-1.5578065350926058  2.6982000675976638  0.0000000000000000
0.0000000000000003  0.0000000000000000  36.3884535681377130
Ta  N  Cl
4  3  2
Selective  dynamics
Direct
-0.0000000000000000  0.0000000000000000  0.0505564016287642  T  T  T
0.6666666666666643  0.3333333333333357  0.1226160589409724  T  T  T
0.3333333333333357  0.6666666666666643  0.1920419837922987  T  T  T
0.0000000000000000  0.0000000000000000  0.2615229354752267  T  T  T
0.3333333333333357  0.6666666666666643  0.0847706143339877  T  T  T
-0.0000000000000000  0.0000000000000000  0.1576176029514398  T  T  T
0.6666666666666643  0.3333333333333357  0.2268267920371634  T  T  T
0.3333333333333357  0.6666666666666643  0.0000000000000000  T  T  T
0.3333333333333357  0.6666666666666643  0.3129688802744180  T  T  T

0.00000000E+00  0.00000000E+00  0.00000000E+00
0.00000000E+00  0.00000000E+00  0.00000000E+00
0.00000000E+00  0.00000000E+00  0.00000000E+00
0.00000000E+00  0.00000000E+00  0.00000000E+00
0.00000000E+00  0.00000000E+00  0.00000000E+00
0.00000000E+00  0.00000000E+00  0.00000000E+00
0.00000000E+00  0.00000000E+00  0.00000000E+00
0.00000000E+00  0.00000000E+00  0.00000000E+00
0.00000000E+00  0.00000000E+00  0.00000000E+00
