Mo4C3  (n=3)
1.00000000000000
3.1717895207144808  0.0000000000000001  0.0000000000000000
-1.5858947603572404  2.7468503009611149  -0.0000000000000001
-0.0000000000000005  -0.0000000000000016  35.9056370909873479
Mo  C  Cl
4  3  2
Selective  dynamics
Direct
-0.0000000000000000  -0.0000000000000000  0.0533147995077025  T  T  T
0.6666666666666643  0.3333333333333357  0.1167595961318693  T  T  T
0.3333333333333357  0.6666666666666643  0.1894558620050312  T  T  T
-0.0000000000000000  -0.0000000000000000  0.2501869042735398  T  T  T
0.3333333333333357  0.6666666666666643  0.0810508423725552  T  T  T
-0.0000000000000000  -0.0000000000000000  0.1528938628156819  T  T  T
0.6666666666666643  0.3333333333333357  0.2243196329056653  T  T  T
0.3333333333333357  0.6666666666666643  0.0000000000000000  T  T  T
0.3333333333333357  0.6666666666666643  0.3037304995689595  T  T  T

0.00000000E+00  0.00000000E+00  0.00000000E+00
0.00000000E+00  0.00000000E+00  0.00000000E+00
0.00000000E+00  0.00000000E+00  0.00000000E+00
0.00000000E+00  0.00000000E+00  0.00000000E+00
0.00000000E+00  0.00000000E+00  0.00000000E+00
0.00000000E+00  0.00000000E+00  0.00000000E+00
0.00000000E+00  0.00000000E+00  0.00000000E+00
0.00000000E+00  0.00000000E+00  0.00000000E+00
0.00000000E+00  0.00000000E+00  0.00000000E+00
