Nb4N3  (n=3)
1.00000000000000
3.1681145225478171  -0.0000000000000004  0.0000000000000000
-1.5840572612739088  2.7436676591610820  0.0000000000000000
0.0000000000000000  0.0000000000000004  36.2425983937213942
Nb  N  Cl
4  3  2
Selective  dynamics
Direct
0.0000000000000000  0.0000000000000000  0.0503432802046366  T  T  T
0.6666666666666643  0.3333333333333357  0.1216880297639457  T  T  T
0.3333333333333357  0.6666666666666643  0.1913372275098570  T  T  T
0.0000000000000000  -0.0000000000000000  0.2589012900369009  T  T  T
0.3333333333333357  0.6666666666666643  0.0837200552509174  T  T  T
0.0000000000000000  0.0000000000000000  0.1565647438735044  T  T  T
0.6666666666666643  0.3333333333333357  0.2259469106469715  T  T  T
0.3333333333333357  0.6666666666666643  0.0000000000000000  T  T  T
0.3333333333333357  0.6666666666666643  0.3102039834889169  T  T  T

0.00000000E+00  0.00000000E+00  0.00000000E+00
0.00000000E+00  0.00000000E+00  0.00000000E+00
0.00000000E+00  0.00000000E+00  0.00000000E+00
0.00000000E+00  0.00000000E+00  0.00000000E+00
0.00000000E+00  0.00000000E+00  0.00000000E+00
0.00000000E+00  0.00000000E+00  0.00000000E+00
0.00000000E+00  0.00000000E+00  0.00000000E+00
0.00000000E+00  0.00000000E+00  0.00000000E+00
0.00000000E+00  0.00000000E+00  0.00000000E+00
