Hf4C3  (n=3)
1.00000000000000
3.3357682744196113  -0.0000000000000002  0.0000000000000000
-1.6678841372098057  2.8888600679805130  0.0000000000000000
0.0000000000000001  0.0000000000000014  36.3655151560344763
Hf  C  Cl
4  3  2
Selective  dynamics
Direct
-0.0000000000000000  -0.0000000000000000  0.0510054500416261  T  T  T
0.6666666666666643  0.3333333333333357  0.1220669039039614  T  T  T
0.3333333333333357  0.6666666666666643  0.1922579116025069  T  T  T
0.0000000000000000  0.0000000000000000  0.2623105338137204  T  T  T
0.3333333333333357  0.6666666666666643  0.0832468088842427  T  T  T
0.0000000000000000  -0.0000000000000000  0.1574655240215412  T  T  T
0.6666666666666643  0.3333333333333357  0.2322722115557343  T  T  T
0.3333333333333357  0.6666666666666643  0.0000000000000000  T  T  T
0.3333333333333357  0.6666666666666643  0.3125355190836197  T  T  T

0.00000000E+00  0.00000000E+00  0.00000000E+00
0.00000000E+00  0.00000000E+00  0.00000000E+00
0.00000000E+00  0.00000000E+00  0.00000000E+00
0.00000000E+00  0.00000000E+00  0.00000000E+00
0.00000000E+00  0.00000000E+00  0.00000000E+00
0.00000000E+00  0.00000000E+00  0.00000000E+00
0.00000000E+00  0.00000000E+00  0.00000000E+00
0.00000000E+00  0.00000000E+00  0.00000000E+00
0.00000000E+00  0.00000000E+00  0.00000000E+00
