Cr4C3  (n=3)
1.00000000000000
3.0620793947803806  -0.0000000000000001  0.0000000000000000
-1.5310396973901903  2.6518385442542498  0.0000000000000004
-0.0000000000000005  0.0000000000000060  34.9316300927736876
Cr  C  Cl
4  3  2
Selective  dynamics
Direct
0.0000000000000000  0.0000000000000000  0.0506306897146957  T  T  T
0.6666666666666643  0.3333333333333357  0.1119496988092793  T  T  T
0.3333333333333357  0.6666666666666643  0.1724763567770566  T  T  T
0.0000000000000000  0.0000000000000000  0.2353548282966704  T  T  T
0.3333333333333357  0.6666666666666643  0.0779400960016844  T  T  T
0.0000000000000000  0.0000000000000000  0.1430164434437964  T  T  T
0.6666666666666643  0.3333333333333357  0.2093287881587630  T  T  T
0.3333333333333357  0.6666666666666643  0.0000000000000000  T  T  T
0.3333333333333357  0.6666666666666643  0.2843162505270044  T  T  T

0.00000000E+00  0.00000000E+00  0.00000000E+00
0.00000000E+00  0.00000000E+00  0.00000000E+00
0.00000000E+00  0.00000000E+00  0.00000000E+00
0.00000000E+00  0.00000000E+00  0.00000000E+00
0.00000000E+00  0.00000000E+00  0.00000000E+00
0.00000000E+00  0.00000000E+00  0.00000000E+00
0.00000000E+00  0.00000000E+00  0.00000000E+00
0.00000000E+00  0.00000000E+00  0.00000000E+00
0.00000000E+00  0.00000000E+00  0.00000000E+00
