Zr4N3  (n=3)
1.00000000000000
3.3227520096706313  0.0000000000000000  0.0000000000000000
-1.6613760048353157  2.8775876518430330  0.0000000000000000
-0.0000000000000002  -0.0000000000000012  36.3295950911977314
Zr  N  Cl
4  3  2
Selective  dynamics
Direct
-0.0000000000000000  0.0000000000000000  0.0499806842282836  T  T  T
0.6666666666666643  0.3333333333333357  0.1211755143618962  T  T  T
0.3333333333333357  0.6666666666666643  0.1942588098536869  T  T  T
-0.0000000000000000  0.0000000000000000  0.2609403671287086  T  T  T
0.3333333333333357  0.6666666666666643  0.0854431033171656  T  T  T
-0.0000000000000000  -0.0000000000000000  0.1560053617762058  T  T  T
0.6666666666666643  0.3333333333333357  0.2293347030484150  T  T  T
0.3333333333333357  0.6666666666666643  0.0000000000000000  T  T  T
0.3333333333333357  0.6666666666666643  0.3118558041386695  T  T  T

0.00000000E+00  0.00000000E+00  0.00000000E+00
0.00000000E+00  0.00000000E+00  0.00000000E+00
0.00000000E+00  0.00000000E+00  0.00000000E+00
0.00000000E+00  0.00000000E+00  0.00000000E+00
0.00000000E+00  0.00000000E+00  0.00000000E+00
0.00000000E+00  0.00000000E+00  0.00000000E+00
0.00000000E+00  0.00000000E+00  0.00000000E+00
0.00000000E+00  0.00000000E+00  0.00000000E+00
0.00000000E+00  0.00000000E+00  0.00000000E+00
