Cr4N3  (n=3)
1.00000000000000
3.0098494510235625  -0.0000000000000001  0.0000000000000000
-1.5049247255117810  2.6066060862403604  0.0000000000000000
-0.0000000000000001  0.0000000000000012  35.2658097176107788
Cr  N  Cl
4  3  2
Selective  dynamics
Direct
-0.0000000000000000  0.0000000000000000  0.0497615440353775  T  T  T
0.6666666666666643  0.3333333333333357  0.1131951238828247  T  T  T
0.3333333333333357  0.6666666666666643  0.1783233769389038  T  T  T
0.0000000000000000  -0.0000000000000000  0.2431289539003920  T  T  T
0.3333333333333357  0.6666666666666643  0.0792336385771255  T  T  T
-0.0000000000000000  -0.0000000000000000  0.1463640669440473  T  T  T
0.6666666666666643  0.3333333333333357  0.2143579482279098  T  T  T
0.3333333333333357  0.6666666666666643  0.0000000000000000  T  T  T
0.3333333333333357  0.6666666666666643  0.2910980862147713  T  T  T

0.00000000E+00  0.00000000E+00  0.00000000E+00
0.00000000E+00  0.00000000E+00  0.00000000E+00
0.00000000E+00  0.00000000E+00  0.00000000E+00
0.00000000E+00  0.00000000E+00  0.00000000E+00
0.00000000E+00  0.00000000E+00  0.00000000E+00
0.00000000E+00  0.00000000E+00  0.00000000E+00
0.00000000E+00  0.00000000E+00  0.00000000E+00
0.00000000E+00  0.00000000E+00  0.00000000E+00
0.00000000E+00  0.00000000E+00  0.00000000E+00
