Hf4N3  (n=3)
1.00000000000000
3.2290172595829287  -0.0000000000000002  0.0000000000000000
-1.6145086297914650  2.7964109767489154  -0.0000000000000001
0.0000000000000001  -0.0000000000000013  36.4066230974048963
Hf  N  Cl
4  3  2
Selective  dynamics
Direct
-0.0000000000000000  0.0000000000000000  0.0496070772154682  T  T  T
0.6666666666666643  0.3333333333333357  0.1207746068797615  T  T  T
0.3333333333333357  0.6666666666666643  0.1941211547546570  T  T  T
-0.0000000000000000  0.0000000000000000  0.2627919704811914  T  T  T
0.3333333333333357  0.6666666666666643  0.0858379389445602  T  T  T
-0.0000000000000000  0.0000000000000000  0.1563751612882356  T  T  T
0.6666666666666643  0.3333333333333357  0.2283226630175354  T  T  T
0.3333333333333357  0.6666666666666643  0.0000000000000000  T  T  T
0.3333333333333357  0.6666666666666643  0.3133117583272362  T  T  T

0.00000000E+00  0.00000000E+00  0.00000000E+00
0.00000000E+00  0.00000000E+00  0.00000000E+00
0.00000000E+00  0.00000000E+00  0.00000000E+00
0.00000000E+00  0.00000000E+00  0.00000000E+00
0.00000000E+00  0.00000000E+00  0.00000000E+00
0.00000000E+00  0.00000000E+00  0.00000000E+00
0.00000000E+00  0.00000000E+00  0.00000000E+00
0.00000000E+00  0.00000000E+00  0.00000000E+00
0.00000000E+00  0.00000000E+00  0.00000000E+00
