Mo4C3  (n=3)
1.00000000000000
3.1009819162971257  0.0000000000000000  0.0000000000000000
-1.5504909581485629  2.6855291165554513  0.0000000000000000
0.0000000000000003  -0.0000000000000015  35.8594668431774721
Mo  C  S
4  3  2
Selective  dynamics
Direct
0.0000000000000000  0.0000000000000000  0.0451458100124428  T  T  T
0.6666666666666643  0.3333333333333357  0.1191236238518212  T  T  T
0.3333333333333357  0.6666666666666643  0.1837104057412272  T  T  T
0.0000000000000000  0.0000000000000000  0.2576882195805979  T  T  T
0.3333333333333357  0.6666666666666643  0.0799406654407107  T  T  T
0.0000000000000000  0.0000000000000000  0.1514170147965204  T  T  T
0.6666666666666643  0.3333333333333357  0.2228933641523300  T  T  T
0.3333333333333357  0.6666666666666643  0.0000000000000000  T  T  T
0.6666666666666643  0.3333333333333357  0.3028340295930408  T  T  T

0.00000000E+00  0.00000000E+00  0.00000000E+00
0.00000000E+00  0.00000000E+00  0.00000000E+00
0.00000000E+00  0.00000000E+00  0.00000000E+00
0.00000000E+00  0.00000000E+00  0.00000000E+00
0.00000000E+00  0.00000000E+00  0.00000000E+00
0.00000000E+00  0.00000000E+00  0.00000000E+00
0.00000000E+00  0.00000000E+00  0.00000000E+00
0.00000000E+00  0.00000000E+00  0.00000000E+00
0.00000000E+00  0.00000000E+00  0.00000000E+00
