Mo4N3  (n=3)
1.00000000000000
2.9761206439975889  0.0000000000000000  0.0000000000000000
-1.4880603219987942  2.5773960826824154  0.0000000000000001
0.0000000000000000  -0.0000000000000003  36.5554931249920827
Mo  N  S
4  3  2
Selective  dynamics
Direct
0.0000000000000000  0.0000000000000000  0.0447694271234349  T  T  T
0.6666666666666643  0.3333333333333357  0.1210865426404037  T  T  T
0.3333333333333357  0.6666666666666643  0.1950217118832338  T  T  T
-0.0000000000000000  -0.0000000000000000  0.2713388274002027  T  T  T
0.3333333333333357  0.6666666666666643  0.0812111244795312  T  T  T
-0.0000000000000000  0.0000000000000000  0.1580541272618188  T  T  T
0.6666666666666643  0.3333333333333357  0.2348971300440924  T  T  T
0.3333333333333357  0.6666666666666643  0.0000000000000000  T  T  T
0.6666666666666643  0.3333333333333357  0.3161082545236376  T  T  T

0.00000000E+00  0.00000000E+00  0.00000000E+00
0.00000000E+00  0.00000000E+00  0.00000000E+00
0.00000000E+00  0.00000000E+00  0.00000000E+00
0.00000000E+00  0.00000000E+00  0.00000000E+00
0.00000000E+00  0.00000000E+00  0.00000000E+00
0.00000000E+00  0.00000000E+00  0.00000000E+00
0.00000000E+00  0.00000000E+00  0.00000000E+00
0.00000000E+00  0.00000000E+00  0.00000000E+00
0.00000000E+00  0.00000000E+00  0.00000000E+00
