Ta4N3  (n=3)
1.00000000000000
3.1424341785712460  -0.0000000000000004  0.0000000000000000
-1.5712170892856230  2.7214278287948228  0.0000000000000000
-0.0000000000000004  0.0000000000000005  36.0266465246348133
Ta  N  S
4  3  2
Selective  dynamics
Direct
-0.0000000000000000  -0.0000000000000000  0.0453095938358937  T  T  T
0.6666666666666643  0.3333333333333357  0.1195048027718612  T  T  T
0.3333333333333357  0.6666666666666643  0.1865643873509306  T  T  T
0.0000000000000000  0.0000000000000000  0.2607595962868908  T  T  T
0.3333333333333357  0.6666666666666643  0.0832217863730346  T  T  T
-0.0000000000000000  0.0000000000000000  0.1530345950613922  T  T  T
0.6666666666666643  0.3333333333333357  0.2228474037497425  T  T  T
0.3333333333333357  0.6666666666666643  0.0000000000000000  T  T  T
0.6666666666666643  0.3333333333333357  0.3060691901227848  T  T  T

0.00000000E+00  0.00000000E+00  0.00000000E+00
0.00000000E+00  0.00000000E+00  0.00000000E+00
0.00000000E+00  0.00000000E+00  0.00000000E+00
0.00000000E+00  0.00000000E+00  0.00000000E+00
0.00000000E+00  0.00000000E+00  0.00000000E+00
0.00000000E+00  0.00000000E+00  0.00000000E+00
0.00000000E+00  0.00000000E+00  0.00000000E+00
0.00000000E+00  0.00000000E+00  0.00000000E+00
0.00000000E+00  0.00000000E+00  0.00000000E+00
