Ti4C3  (n=3)
1.00000000000000
3.1393160096305777  0.0000000000000004  0.0000000000000001
-1.5696580048152886  2.7187274152003975  0.0000000000000001
0.0000000000000020  -0.0000000000000027  35.5500749436266901
Ti  C  S
4  3  2
Selective  dynamics
Direct
-0.0000000000000000  -0.0000000000000000  0.0445736451228901  T  T  T
0.6666666666666643  0.3333333333333357  0.1138682972040349  T  T  T
0.3333333333333357  0.6666666666666643  0.1828983048455081  T  T  T
0.0000000000000000  0.0000000000000000  0.2521929569266529  T  T  T
0.3333333333333357  0.6666666666666643  0.0795312324622932  T  T  T
-0.0000000000000000  0.0000000000000000  0.1483833010247715  T  T  T
0.6666666666666643  0.3333333333333357  0.2172353695872421  T  T  T
0.3333333333333357  0.6666666666666643  0.0000000000000000  T  T  T
0.6666666666666643  0.3333333333333357  0.2967666020495430  T  T  T

0.00000000E+00  0.00000000E+00  0.00000000E+00
0.00000000E+00  0.00000000E+00  0.00000000E+00
0.00000000E+00  0.00000000E+00  0.00000000E+00
0.00000000E+00  0.00000000E+00  0.00000000E+00
0.00000000E+00  0.00000000E+00  0.00000000E+00
0.00000000E+00  0.00000000E+00  0.00000000E+00
0.00000000E+00  0.00000000E+00  0.00000000E+00
0.00000000E+00  0.00000000E+00  0.00000000E+00
0.00000000E+00  0.00000000E+00  0.00000000E+00
