Hf4C3  (n=3)
1.00000000000000
3.3449060111274127  -0.0000000000000002  -0.0000000000000001
-1.6724530055637064  2.8967735803855148  0.0000000000000000
-0.0000000000000026  0.0000000000000018  36.2613559236397833
Hf  C  S
4  3  2
Selective  dynamics
Direct
0.0000000000000000  -0.0000000000000000  0.0447964235092844  T  T  T
0.6666666666666643  0.3333333333333357  0.1186755726730402  T  T  T
0.3333333333333357  0.6666666666666643  0.1918852333639504  T  T  T
-0.0000000000000000  0.0000000000000000  0.2657643825277063  T  T  T
0.3333333333333357  0.6666666666666643  0.0824885222138571  T  T  T
-0.0000000000000000  -0.0000000000000000  0.1552804030184991  T  T  T
0.6666666666666643  0.3333333333333357  0.2280722838231262  T  T  T
0.3333333333333357  0.6666666666666643  0.0000000000000000  T  T  T
0.6666666666666643  0.3333333333333357  0.3105608060369908  T  T  T

0.00000000E+00  0.00000000E+00  0.00000000E+00
0.00000000E+00  0.00000000E+00  0.00000000E+00
0.00000000E+00  0.00000000E+00  0.00000000E+00
0.00000000E+00  0.00000000E+00  0.00000000E+00
0.00000000E+00  0.00000000E+00  0.00000000E+00
0.00000000E+00  0.00000000E+00  0.00000000E+00
0.00000000E+00  0.00000000E+00  0.00000000E+00
0.00000000E+00  0.00000000E+00  0.00000000E+00
0.00000000E+00  0.00000000E+00  0.00000000E+00
