Nb4C3  (n=3)
1.00000000000000
3.2169724043714183  -0.0000000000000002  0.0000000000000000
-1.6084862021857091  2.7859798262856152  0.0000000000000001
0.0000000000000014  -0.0000000000000001  36.0134326607916222
Nb  C  S
4  3  2
Selective  dynamics
Direct
0.0000000000000000  0.0000000000000000  0.0463445117352165  T  T  T
0.6666666666666643  0.3333333333333357  0.1155128772659347  T  T  T
0.3333333333333357  0.6666666666666643  0.1903016993262633  T  T  T
-0.0000000000000000  -0.0000000000000000  0.2594700648569815  T  T  T
0.3333333333333357  0.6666666666666643  0.0813747750397627  T  T  T
-0.0000000000000000  -0.0000000000000000  0.1529072882961027  T  T  T
0.6666666666666643  0.3333333333333357  0.2244398015524277  T  T  T
0.3333333333333357  0.6666666666666643  0.0000000000000000  T  T  T
0.6666666666666643  0.3333333333333357  0.3058145765921979  T  T  T

0.00000000E+00  0.00000000E+00  0.00000000E+00
0.00000000E+00  0.00000000E+00  0.00000000E+00
0.00000000E+00  0.00000000E+00  0.00000000E+00
0.00000000E+00  0.00000000E+00  0.00000000E+00
0.00000000E+00  0.00000000E+00  0.00000000E+00
0.00000000E+00  0.00000000E+00  0.00000000E+00
0.00000000E+00  0.00000000E+00  0.00000000E+00
0.00000000E+00  0.00000000E+00  0.00000000E+00
0.00000000E+00  0.00000000E+00  0.00000000E+00
