Ti4N3  (n=3)
1.00000000000000
3.0616410787447017  -0.0000000000000001  0.0000000000000000
-1.5308205393723509  2.6514589516229234  0.0000000000000000
-0.0000000000000003  -0.0000000000000004  35.5288056188865369
Ti  N  S
4  3  2
Selective  dynamics
Direct
0.0000000000000000  0.0000000000000000  0.0453296687455685  T  T  T
0.6666666666666643  0.3333333333333357  0.1127288872394853  T  T  T
0.3333333333333357  0.6666666666666643  0.1836167240323331  T  T  T
-0.0000000000000000  -0.0000000000000000  0.2510159425262501  T  T  T
0.3333333333333357  0.6666666666666643  0.0805545004180707  T  T  T
0.0000000000000000  0.0000000000000000  0.1481728056359056  T  T  T
0.6666666666666643  0.3333333333333357  0.2157911108537404  T  T  T
0.3333333333333357  0.6666666666666643  0.0000000000000000  T  T  T
0.6666666666666643  0.3333333333333357  0.2963456112718181  T  T  T

0.00000000E+00  0.00000000E+00  0.00000000E+00
0.00000000E+00  0.00000000E+00  0.00000000E+00
0.00000000E+00  0.00000000E+00  0.00000000E+00
0.00000000E+00  0.00000000E+00  0.00000000E+00
0.00000000E+00  0.00000000E+00  0.00000000E+00
0.00000000E+00  0.00000000E+00  0.00000000E+00
0.00000000E+00  0.00000000E+00  0.00000000E+00
0.00000000E+00  0.00000000E+00  0.00000000E+00
0.00000000E+00  0.00000000E+00  0.00000000E+00
