Nb4N3  (n=3)
1.00000000000000
3.1573198786476455  0.0000000000000003  0.0000000000000000
-1.5786599393238225  2.7343192232655640  0.0000000000000000
-0.0000000000000001  -0.0000000000000002  36.0908267794495785
Nb  N  S
4  3  2
Selective  dynamics
Direct
-0.0000000000000000  -0.0000000000000000  0.0455958620246962  T  T  T
0.6666666666666643  0.3333333333333357  0.1197047197795379  T  T  T
0.3333333333333357  0.6666666666666643  0.1875984863017588  T  T  T
0.0000000000000000  0.0000000000000000  0.2617073440566004  T  T  T
0.3333333333333357  0.6666666666666643  0.0829735584238621  T  T  T
0.0000000000000000  0.0000000000000000  0.1536516030406522  T  T  T
0.6666666666666643  0.3333333333333357  0.2243296476574344  T  T  T
0.3333333333333357  0.6666666666666643  0.0000000000000000  T  T  T
0.6666666666666643  0.3333333333333357  0.3073032060812967  T  T  T

0.00000000E+00  0.00000000E+00  0.00000000E+00
0.00000000E+00  0.00000000E+00  0.00000000E+00
0.00000000E+00  0.00000000E+00  0.00000000E+00
0.00000000E+00  0.00000000E+00  0.00000000E+00
0.00000000E+00  0.00000000E+00  0.00000000E+00
0.00000000E+00  0.00000000E+00  0.00000000E+00
0.00000000E+00  0.00000000E+00  0.00000000E+00
0.00000000E+00  0.00000000E+00  0.00000000E+00
0.00000000E+00  0.00000000E+00  0.00000000E+00
