Sc4N3  (n=3)
1.00000000000000
3.2163484775253051  0.0000000000000000  0.0000000000000001
-1.6081742387626525  2.7854394897570462  -0.0000000000000004
0.0000000000000005  -0.0000000000000008  36.3964207395595025
Sc  N  S
4  3  2
Selective  dynamics
Direct
0.0000000000000000  0.0000000000000000  0.0487964903454408  T  T  T
0.6666666666666643  0.3333333333333357  0.1208874796979380  T  T  T
0.3333333333333357  0.6666666666666643  0.1922317915927395  T  T  T
-0.0000000000000000  -0.0000000000000000  0.2643227809452368  T  T  T
0.3333333333333357  0.6666666666666643  0.0851761390483657  T  T  T
-0.0000000000000000  0.0000000000000000  0.1565596356453388  T  T  T
0.6666666666666643  0.3333333333333357  0.2279431322423043  T  T  T
0.3333333333333357  0.6666666666666643  0.0000000000000000  T  T  T
0.6666666666666643  0.3333333333333357  0.3131192712906702  T  T  T

0.00000000E+00  0.00000000E+00  0.00000000E+00
0.00000000E+00  0.00000000E+00  0.00000000E+00
0.00000000E+00  0.00000000E+00  0.00000000E+00
0.00000000E+00  0.00000000E+00  0.00000000E+00
0.00000000E+00  0.00000000E+00  0.00000000E+00
0.00000000E+00  0.00000000E+00  0.00000000E+00
0.00000000E+00  0.00000000E+00  0.00000000E+00
0.00000000E+00  0.00000000E+00  0.00000000E+00
0.00000000E+00  0.00000000E+00  0.00000000E+00
