Sc4C3  (n=3)
1.00000000000000
3.6550074338138629  0.0000000000000013  0.0000000000000001
-1.8275037169069299  3.1653292900810555  -0.0000000000000005
0.0000000000000013  -0.0000000000000040  34.4396776313238959
Sc  C  S
4  3  2
Selective  dynamics
Direct
-0.0000000000000000  -0.0000000000000000  0.0358449027566359  T  T  T
0.6666666666666643  0.3333333333333357  0.1028702360598177  T  T  T
0.3333333333333357  0.6666666666666643  0.1712228530908843  T  T  T
0.0000000000000000  0.0000000000000000  0.2382481863940589  T  T  T
0.3333333333333357  0.6666666666666643  0.0589580569105985  T  T  T
0.0000000000000000  0.0000000000000000  0.1370465445753510  T  T  T
0.6666666666666643  0.3333333333333357  0.2151350322400964  T  T  T
0.3333333333333357  0.6666666666666643  0.0000000000000000  T  T  T
0.6666666666666643  0.3333333333333357  0.2740930891507020  T  T  T

0.00000000E+00  0.00000000E+00  0.00000000E+00
0.00000000E+00  0.00000000E+00  0.00000000E+00
0.00000000E+00  0.00000000E+00  0.00000000E+00
0.00000000E+00  0.00000000E+00  0.00000000E+00
0.00000000E+00  0.00000000E+00  0.00000000E+00
0.00000000E+00  0.00000000E+00  0.00000000E+00
0.00000000E+00  0.00000000E+00  0.00000000E+00
0.00000000E+00  0.00000000E+00  0.00000000E+00
0.00000000E+00  0.00000000E+00  0.00000000E+00
