Cr4N3  (n=3)
1.00000000000000
2.9065516420769453  0.0000000000000000  0.0000000000000000
-1.4532758210384726  2.5171475594935679  0.0000000000000000
-0.0000000000000001  0.0000000000000016  35.3247004718111910
Cr  N  S
4  3  2
Selective  dynamics
Direct
0.0000000000000000  0.0000000000000000  0.0432826190044448  T  T  T
0.6666666666666643  0.3333333333333357  0.1115780609375272  T  T  T
0.3333333333333357  0.6666666666666643  0.1807018546430871  T  T  T
-0.0000000000000000  -0.0000000000000000  0.2489972965761618  T  T  T
0.3333333333333357  0.6666666666666643  0.0767794551371069  T  T  T
0.0000000000000000  0.0000000000000000  0.1461399577903111  T  T  T
0.6666666666666643  0.3333333333333357  0.2155004604434997  T  T  T
0.3333333333333357  0.6666666666666643  0.0000000000000000  T  T  T
0.6666666666666643  0.3333333333333357  0.2922799155806066  T  T  T

0.00000000E+00  0.00000000E+00  0.00000000E+00
0.00000000E+00  0.00000000E+00  0.00000000E+00
0.00000000E+00  0.00000000E+00  0.00000000E+00
0.00000000E+00  0.00000000E+00  0.00000000E+00
0.00000000E+00  0.00000000E+00  0.00000000E+00
0.00000000E+00  0.00000000E+00  0.00000000E+00
0.00000000E+00  0.00000000E+00  0.00000000E+00
0.00000000E+00  0.00000000E+00  0.00000000E+00
0.00000000E+00  0.00000000E+00  0.00000000E+00
