Ta4C3  (n=3)
1.00000000000000
3.2022055860944709  -0.0000000000000000  0.0000000000000000
-1.6011027930472355  2.7731913863231821  -0.0000000000000001
0.0000000000000001  -0.0000000000000008  35.9544756066235891
Ta  C  S
4  3  2
Selective  dynamics
Direct
-0.0000000000000000  -0.0000000000000000  0.0460904659545358  T  T  T
0.6666666666666643  0.3333333333333357  0.1149367430866935  T  T  T
0.3333333333333357  0.6666666666666643  0.1897395293884310  T  T  T
0.0000000000000000  0.0000000000000000  0.2585858065205813  T  T  T
0.3333333333333357  0.6666666666666643  0.0814994772250853  T  T  T
-0.0000000000000000  0.0000000000000000  0.1523381362375623  T  T  T
0.6666666666666643  0.3333333333333357  0.2231767952500316  T  T  T
0.3333333333333357  0.6666666666666643  0.0000000000000000  T  T  T
0.6666666666666643  0.3333333333333357  0.3046762724751169  T  T  T

0.00000000E+00  0.00000000E+00  0.00000000E+00
0.00000000E+00  0.00000000E+00  0.00000000E+00
0.00000000E+00  0.00000000E+00  0.00000000E+00
0.00000000E+00  0.00000000E+00  0.00000000E+00
0.00000000E+00  0.00000000E+00  0.00000000E+00
0.00000000E+00  0.00000000E+00  0.00000000E+00
0.00000000E+00  0.00000000E+00  0.00000000E+00
0.00000000E+00  0.00000000E+00  0.00000000E+00
0.00000000E+00  0.00000000E+00  0.00000000E+00
