Cr4C3  (n=3)
1.00000000000000
2.9221426101743857  0.0000000000000000  0.0000000000000000
-1.4610713050871929  2.5306497338706460  0.0000000000000001
-0.0000000000000002  0.0000000000000024  35.1404274867757636
Cr  C  S
4  3  2
Selective  dynamics
Direct
0.0000000000000000  -0.0000000000000000  0.0438567311784349  T  T  T
0.6666666666666643  0.3333333333333357  0.1100152555033256  T  T  T
0.3333333333333357  0.6666666666666643  0.1785534447662392  T  T  T
-0.0000000000000000  0.0000000000000000  0.2447119690911298  T  T  T
0.3333333333333357  0.6666666666666643  0.0757086467899053  T  T  T
-0.0000000000000000  0.0000000000000000  0.1442843501347823  T  T  T
0.6666666666666643  0.3333333333333357  0.2128600534796518  T  T  T
0.3333333333333357  0.6666666666666643  0.0000000000000000  T  T  T
0.6666666666666643  0.3333333333333357  0.2885687002695645  T  T  T

0.00000000E+00  0.00000000E+00  0.00000000E+00
0.00000000E+00  0.00000000E+00  0.00000000E+00
0.00000000E+00  0.00000000E+00  0.00000000E+00
0.00000000E+00  0.00000000E+00  0.00000000E+00
0.00000000E+00  0.00000000E+00  0.00000000E+00
0.00000000E+00  0.00000000E+00  0.00000000E+00
0.00000000E+00  0.00000000E+00  0.00000000E+00
0.00000000E+00  0.00000000E+00  0.00000000E+00
0.00000000E+00  0.00000000E+00  0.00000000E+00
