Hf4N3  (n=3)
1.00000000000000
3.2768330699166208  0.0000000000000000  0.0000000000000000
-1.6384165349583106  2.8378206835851985  0.0000000000000000
0.0000000000000003  -0.0000000000000015  36.0973769265060938
Hf  N  S
4  3  2
Selective  dynamics
Direct
0.0000000000000000  0.0000000000000000  0.0448594498727091  T  T  T
0.6666666666666643  0.3333333333333357  0.1161886661151474  T  T  T
0.3333333333333357  0.6666666666666643  0.1912402351343952  T  T  T
-0.0000000000000000  -0.0000000000000000  0.2625694513768334  T  T  T
0.3333333333333357  0.6666666666666643  0.0838894125937564  T  T  T
0.0000000000000000  0.0000000000000000  0.1537144506247713  T  T  T
0.6666666666666643  0.3333333333333357  0.2235394886557716  T  T  T
0.3333333333333357  0.6666666666666643  0.0000000000000000  T  T  T
0.6666666666666643  0.3333333333333357  0.3074289012495353  T  T  T

0.00000000E+00  0.00000000E+00  0.00000000E+00
0.00000000E+00  0.00000000E+00  0.00000000E+00
0.00000000E+00  0.00000000E+00  0.00000000E+00
0.00000000E+00  0.00000000E+00  0.00000000E+00
0.00000000E+00  0.00000000E+00  0.00000000E+00
0.00000000E+00  0.00000000E+00  0.00000000E+00
0.00000000E+00  0.00000000E+00  0.00000000E+00
0.00000000E+00  0.00000000E+00  0.00000000E+00
0.00000000E+00  0.00000000E+00  0.00000000E+00
