Zr4C3  (n=3)
1.00000000000000
3.3999829690923029  -0.0000000000000000  -0.0000000000000000
-1.6999914845461521  2.9444716251519534  0.0000000000000001
-0.0000000000000007  0.0000000000000022  36.3911317783002062
Zr  C  S
4  3  2
Selective  dynamics
Direct
0.0000000000000000  0.0000000000000000  0.0448499515884343  T  T  T
0.6666666666666643  0.3333333333333357  0.1195205564636980  T  T  T
0.3333333333333357  0.6666666666666643  0.1934988859569596  T  T  T
-0.0000000000000000  -0.0000000000000000  0.2681694908322231  T  T  T
0.3333333333333357  0.6666666666666643  0.0828476210133928  T  T  T
-0.0000000000000000  0.0000000000000000  0.1565097212103288  T  T  T
0.6666666666666643  0.3333333333333357  0.2301718214072572  T  T  T
0.3333333333333357  0.6666666666666643  0.0000000000000000  T  T  T
0.6666666666666643  0.3333333333333357  0.3130194424206576  T  T  T

0.00000000E+00  0.00000000E+00  0.00000000E+00
0.00000000E+00  0.00000000E+00  0.00000000E+00
0.00000000E+00  0.00000000E+00  0.00000000E+00
0.00000000E+00  0.00000000E+00  0.00000000E+00
0.00000000E+00  0.00000000E+00  0.00000000E+00
0.00000000E+00  0.00000000E+00  0.00000000E+00
0.00000000E+00  0.00000000E+00  0.00000000E+00
0.00000000E+00  0.00000000E+00  0.00000000E+00
0.00000000E+00  0.00000000E+00  0.00000000E+00
