Zr4N3  (n=3)
1.00000000000000
3.3244339417882318  0.0000000000000005  0.0000000000000001
-1.6622169708941159  2.8790442474978626  0.0000000000000000
0.0000000000000006  -0.0000000000000017  36.2812721436527639
Zr  N  S
4  3  2
Selective  dynamics
Direct
0.0000000000000000  0.0000000000000000  0.0453259452839026  T  T  T
0.6666666666666643  0.3333333333333357  0.1176122098421332  T  T  T
0.3333333333333357  0.6666666666666643  0.1933270565371019  T  T  T
0.0000000000000000  0.0000000000000000  0.2656133210953399  T  T  T
0.3333333333333357  0.6666666666666643  0.0842838008614312  T  T  T
0.0000000000000000  0.0000000000000000  0.1554696331896176  T  T  T
0.6666666666666643  0.3333333333333357  0.2266554655177966  T  T  T
0.3333333333333357  0.6666666666666643  0.0000000000000000  T  T  T
0.6666666666666643  0.3333333333333357  0.3109392663792349  T  T  T

0.00000000E+00  0.00000000E+00  0.00000000E+00
0.00000000E+00  0.00000000E+00  0.00000000E+00
0.00000000E+00  0.00000000E+00  0.00000000E+00
0.00000000E+00  0.00000000E+00  0.00000000E+00
0.00000000E+00  0.00000000E+00  0.00000000E+00
0.00000000E+00  0.00000000E+00  0.00000000E+00
0.00000000E+00  0.00000000E+00  0.00000000E+00
0.00000000E+00  0.00000000E+00  0.00000000E+00
0.00000000E+00  0.00000000E+00  0.00000000E+00
