Cr2C  (n=1)
1.00000000000000
3.1713547969690965  0.0000000000000002  0.0000000000000000
-1.5856773984845480  2.7464738186171642  0.0000000000000000
0.0000000000000002  -0.0000000000000001  30.1125587286378220
Cr  C  Cl
2  1  2
Selective  dynamics
Direct
-0.0000000000000000  -0.0000000000000000  0.0551765764291782  T  T  T
0.6666666666666643  0.3333333333333357  0.1146050344498619  T  T  T
0.3333333333333357  0.6666666666666643  0.0848908054395231  T  T  T
0.6666666666666643  0.3333333333333357  0.0000000000000000  T  T  T
-0.0000000000000000  0.0000000000000000  0.1697816108790399  T  T  T

0.00000000E+00  0.00000000E+00  0.00000000E+00
0.00000000E+00  0.00000000E+00  0.00000000E+00
0.00000000E+00  0.00000000E+00  0.00000000E+00
0.00000000E+00  0.00000000E+00  0.00000000E+00
0.00000000E+00  0.00000000E+00  0.00000000E+00
