Ta2C  (n=1)
1.00000000000000
3.3163797037523559  0.0000000000000001  0.0000000000000006
-1.6581898518761780  2.8720690723250839  -0.0000000000000017
0.0000000000000063  -0.0000000000000144  30.7664696611937920
Ta  C  Cl
2  1  2
Selective  dynamics
Direct
-0.0000000000000000  -0.0000000000000000  0.0589018425437382  T  T  T
0.6666666666666643  0.3333333333333357  0.1285252404038749  T  T  T
0.3333333333333357  0.6666666666666643  0.0937135414738065  T  T  T
0.6666666666666643  0.3333333333333357  0.0000000000000000  T  T  T
0.0000000000000000  0.0000000000000000  0.1874270829476131  T  T  T

0.00000000E+00  0.00000000E+00  0.00000000E+00
0.00000000E+00  0.00000000E+00  0.00000000E+00
0.00000000E+00  0.00000000E+00  0.00000000E+00
0.00000000E+00  0.00000000E+00  0.00000000E+00
0.00000000E+00  0.00000000E+00  0.00000000E+00
