Hf2C  (n=1)
1.00000000000000
3.3981904708054445  0.0000000000000014  0.0000000000000000
-1.6990952354027213  2.9429192749348685  -0.0000000000000004
-0.0000000000000002  -0.0000000000000073  30.8982827328297489
Hf  C  Cl
2  1  2
Selective  dynamics
Direct
-0.0000000000000000  -0.0000000000000000  0.0573307225780860  T  T  T
0.6666666666666643  0.3333333333333357  0.1335628226661933  T  T  T
0.3333333333333357  0.6666666666666643  0.0954467726221397  T  T  T
0.6666666666666643  0.3333333333333357  0.0000000000000000  T  T  T
0.0000000000000000  0.0000000000000000  0.1908935452442722  T  T  T

0.00000000E+00  0.00000000E+00  0.00000000E+00
0.00000000E+00  0.00000000E+00  0.00000000E+00
0.00000000E+00  0.00000000E+00  0.00000000E+00
0.00000000E+00  0.00000000E+00  0.00000000E+00
0.00000000E+00  0.00000000E+00  0.00000000E+00
