Nb2C  (n=1)
1.00000000000000
3.3337894197781548  -0.0000000000000001  -0.0000000000000000
-1.6668947098890774  2.8871463287433103  -0.0000000000000000
-0.0000000000000001  -0.0000000000000001  30.7951344402606466
Nb  C  Cl
2  1  2
Selective  dynamics
Direct
-0.0000000000000000  -0.0000000000000000  0.0587604910034874  T  T  T
0.6666666666666643  0.3333333333333357  0.1294229524395865  T  T  T
0.3333333333333357  0.6666666666666643  0.0940917217215334  T  T  T
0.6666666666666643  0.3333333333333357  0.0000000000000000  T  T  T
-0.0000000000000000  -0.0000000000000000  0.1881834434430739  T  T  T

0.00000000E+00  0.00000000E+00  0.00000000E+00
0.00000000E+00  0.00000000E+00  0.00000000E+00
0.00000000E+00  0.00000000E+00  0.00000000E+00
0.00000000E+00  0.00000000E+00  0.00000000E+00
0.00000000E+00  0.00000000E+00  0.00000000E+00
