Zr2C  (n=1)
1.00000000000000
3.4452509216435678  -0.0000000000000020  0.0000000000000006
-1.7226254608217850  2.9836748208936474  -0.0000000000000003
0.0000000000000051  -0.0000000000000023  30.9958413758082258
Zr  C  Cl
2  1  2
Selective  dynamics
Direct
0.0000000000000000  -0.0000000000000000  0.0576126093160361  T  T  T
0.6666666666666643  0.3333333333333357  0.1358275784534074  T  T  T
0.3333333333333357  0.6666666666666643  0.0967200938847217  T  T  T
0.6666666666666643  0.3333333333333357  0.0000000000000000  T  T  T
-0.0000000000000000  0.0000000000000000  0.1934401877694434  T  T  T

0.00000000E+00  0.00000000E+00  0.00000000E+00
0.00000000E+00  0.00000000E+00  0.00000000E+00
0.00000000E+00  0.00000000E+00  0.00000000E+00
0.00000000E+00  0.00000000E+00  0.00000000E+00
0.00000000E+00  0.00000000E+00  0.00000000E+00
