Mo2N  (n=1)
1.00000000000000
2.9762941641660099  0.0000000000000001  0.0000000000000003
-1.4881470820830045  2.5775463555509046  -0.0000000000000007
0.0000000000000026  -0.0000000000000100  31.4766407421532364
Mo  N  Cl
2  1  2
Selective  dynamics
Direct
-0.0000000000000000  -0.0000000000000000  0.0588283398832481  T  T  T
0.6666666666666643  0.3333333333333357  0.1469318870484650  T  T  T
0.3333333333333357  0.6666666666666643  0.1028801134658566  T  T  T
0.6666666666666643  0.3333333333333357  0.0000000000000000  T  T  T
-0.0000000000000000  -0.0000000000000000  0.2057602269317061  T  T  T

0.00000000E+00  0.00000000E+00  0.00000000E+00
0.00000000E+00  0.00000000E+00  0.00000000E+00
0.00000000E+00  0.00000000E+00  0.00000000E+00
0.00000000E+00  0.00000000E+00  0.00000000E+00
0.00000000E+00  0.00000000E+00  0.00000000E+00
