Nb2N  (n=1)
1.00000000000000
3.4254948259074780  -0.0000000000000001  -0.0000000000000000
-1.7127474129537390  2.9665655400709259  -0.0000000000000000
-0.0000000000000001  0.0000000000000001  30.5176561861556408
Nb  N  Cl
2  1  2
Selective  dynamics
Direct
-0.0000000000000000  -0.0000000000000000  0.0591614599003063  T  T  T
0.6666666666666643  0.3333333333333357  0.1216406355325248  T  T  T
0.3333333333333357  0.6666666666666643  0.0904010477164156  T  T  T
0.6666666666666643  0.3333333333333357  0.0000000000000000  T  T  T
0.0000000000000000  0.0000000000000000  0.1808020954328312  T  T  T

0.00000000E+00  0.00000000E+00  0.00000000E+00
0.00000000E+00  0.00000000E+00  0.00000000E+00
0.00000000E+00  0.00000000E+00  0.00000000E+00
0.00000000E+00  0.00000000E+00  0.00000000E+00
0.00000000E+00  0.00000000E+00  0.00000000E+00
