Sc2C  (n=1)
1.00000000000000
3.4475910891675072  0.0000000000000000  -0.0000000000000000
-1.7237955445837536  2.9857014654806915  0.0000000000000000
-0.0000000000000002  0.0000000000000003  30.8136535866536647
Sc  C  Cl
2  1  2
Selective  dynamics
Direct
0.0000000000000000  0.0000000000000000  0.0543439923921467  T  T  T
0.6666666666666643  0.3333333333333357  0.1343273565053348  T  T  T
0.3333333333333357  0.6666666666666643  0.0943356744487445  T  T  T
0.6666666666666643  0.3333333333333357  0.0000000000000000  T  T  T
-0.0000000000000000  -0.0000000000000000  0.1886713488974815  T  T  T

0.00000000E+00  0.00000000E+00  0.00000000E+00
0.00000000E+00  0.00000000E+00  0.00000000E+00
0.00000000E+00  0.00000000E+00  0.00000000E+00
0.00000000E+00  0.00000000E+00  0.00000000E+00
0.00000000E+00  0.00000000E+00  0.00000000E+00
