Ta2N  (n=1)
1.00000000000000
3.1076324533625432  -0.0000000000000002  0.0000000000000000
-1.5538162266812716  2.6912886503790192  0.0000000000000000
0.0000000000000002  0.0000000000000005  31.2940020575282389
Ta  N  Cl
2  1  2
Selective  dynamics
Direct
-0.0000000000000000  -0.0000000000000000  0.0591330233352018  T  T  T
0.6666666666666643  0.3333333333333357  0.1419918454482118  T  T  T
0.3333333333333357  0.6666666666666643  0.1005624343917068  T  T  T
0.6666666666666643  0.3333333333333357  0.0000000000000000  T  T  T
-0.0000000000000000  -0.0000000000000000  0.2011248687834134  T  T  T

0.00000000E+00  0.00000000E+00  0.00000000E+00
0.00000000E+00  0.00000000E+00  0.00000000E+00
0.00000000E+00  0.00000000E+00  0.00000000E+00
0.00000000E+00  0.00000000E+00  0.00000000E+00
0.00000000E+00  0.00000000E+00  0.00000000E+00
