Sc2N
1.00000000000000
3.3578510111987709  -0.0000000000000005  0.0000000000000005
-1.6789255055993857  2.9079842780517651  0.0000000000000000
0.0000000000000043  0.0000000000000030  30.7672609402083559
Sc  N  Cl
2  1  2
Selective  dynamics
Direct
-0.0000000000000000  -0.0000000000000000  0.0550247254492225  T  T  T
0.6666666666666643  0.3333333333333357  0.1324232554229188  T  T  T
0.3333333333333357  0.6666666666666643  0.0937239904360707  T  T  T
0.6666666666666643  0.3333333333333357  0.0000000000000000  T  T  T
-0.0000000000000000  -0.0000000000000000  0.1874479808721413  T  T  T

0.00000000E+00  0.00000000E+00  0.00000000E+00
0.00000000E+00  0.00000000E+00  0.00000000E+00
0.00000000E+00  0.00000000E+00  0.00000000E+00
0.00000000E+00  0.00000000E+00  0.00000000E+00
0.00000000E+00  0.00000000E+00  0.00000000E+00
