Ti2C  (n=1)
1.00000000000000
3.2269947444769773  0.0000000000000000  0.0000000000000000
-1.6134973722384887  2.7946594268158509  -0.0000000000000001
0.0000000000000001  -0.0000000000000004  30.5458229218504513
Ti  C  Cl
2  1  2
Selective  dynamics
Direct
-0.0000000000000000  -0.0000000000000000  0.0548492405070991  T  T  T
0.6666666666666643  0.3333333333333357  0.1267082489093453  T  T  T
0.3333333333333357  0.6666666666666643  0.0907787447082222  T  T  T
0.6666666666666643  0.3333333333333357  0.0000000000000000  T  T  T
-0.0000000000000000  0.0000000000000000  0.1815574894164445  T  T  T

0.00000000E+00  0.00000000E+00  0.00000000E+00
0.00000000E+00  0.00000000E+00  0.00000000E+00
0.00000000E+00  0.00000000E+00  0.00000000E+00
0.00000000E+00  0.00000000E+00  0.00000000E+00
0.00000000E+00  0.00000000E+00  0.00000000E+00
