Mo2C  (n=1)
1.00000000000000
3.3603620078511258  0.0000000000000003  0.0000000000000000
-1.6801810039255627  2.9101588649781553  -0.0000000000000000
0.0000000000000001  -0.0000000000000001  30.4308886911715000
Mo  C  Cl
2  1  2
Selective  dynamics
Direct
-0.0000000000000000  -0.0000000000000000  0.0584560415706697  T  T  T
0.6666666666666643  0.3333333333333357  0.1200102775134355  T  T  T
0.3333333333333357  0.6666666666666643  0.0892331595420526  T  T  T
0.6666666666666643  0.3333333333333357  0.0000000000000000  T  T  T
-0.0000000000000000  0.0000000000000000  0.1784663190841051  T  T  T

0.00000000E+00  0.00000000E+00  0.00000000E+00
0.00000000E+00  0.00000000E+00  0.00000000E+00
0.00000000E+00  0.00000000E+00  0.00000000E+00
0.00000000E+00  0.00000000E+00  0.00000000E+00
0.00000000E+00  0.00000000E+00  0.00000000E+00
