Cr2N  (n=1)
1.00000000000000
3.1629693638471528  0.0000000000000000  0.0000000000000000
-1.5814846819235764  2.7392118206868474  0.0000000000000000
0.0000000000000001  0.0000000000000000  30.1048509106268725
Cr  N  Cl
2  1  2
Selective  dynamics
Direct
-0.0000000000000000  -0.0000000000000000  0.0558436197323995  T  T  T
0.6666666666666643  0.3333333333333357  0.1137254283184208  T  T  T
0.3333333333333357  0.6666666666666643  0.0847845240254069  T  T  T
0.6666666666666643  0.3333333333333357  0.0000000000000000  T  T  T
-0.0000000000000000  0.0000000000000000  0.1695690480508204  T  T  T

0.00000000E+00  0.00000000E+00  0.00000000E+00
0.00000000E+00  0.00000000E+00  0.00000000E+00
0.00000000E+00  0.00000000E+00  0.00000000E+00
0.00000000E+00  0.00000000E+00  0.00000000E+00
0.00000000E+00  0.00000000E+00  0.00000000E+00
