Zr2N  (n=1)
1.00000000000000
3.4414891647143633  0.0000000000000007  -0.0000000000000003
-1.7207445823571814  2.9804170438094162  0.0000000000000006
-0.0000000000000027  0.0000000000000049  30.8460121952728414
Zr  N  Cl
2  1  2
Selective  dynamics
Direct
0.0000000000000000  0.0000000000000000  0.0580965038697504  T  T  T
0.6666666666666643  0.3333333333333357  0.1314259588156844  T  T  T
0.3333333333333357  0.6666666666666643  0.0947612313427138  T  T  T
0.6666666666666643  0.3333333333333357  0.0000000000000000  T  T  T
0.0000000000000000  0.0000000000000000  0.1895224626854276  T  T  T

0.00000000E+00  0.00000000E+00  0.00000000E+00
0.00000000E+00  0.00000000E+00  0.00000000E+00
0.00000000E+00  0.00000000E+00  0.00000000E+00
0.00000000E+00  0.00000000E+00  0.00000000E+00
0.00000000E+00  0.00000000E+00  0.00000000E+00
