Hf2N  (n=1)
1.00000000000000
3.3876973875025231  -0.0000000000000016  0.0000000000000000
-1.6938486937512629  2.9338319981814718  0.0000000000000000
0.0000000000000002  -0.0000000000000002  30.7585354158635802
Hf  N  Cl
2  1  2
Selective  dynamics
Direct
0.0000000000000000  0.0000000000000000  0.0576868133003427  T  T  T
0.6666666666666643  0.3333333333333357  0.1295306643203197  T  T  T
0.3333333333333357  0.6666666666666643  0.0936087388103312  T  T  T
0.6666666666666643  0.3333333333333357  0.0000000000000000  T  T  T
0.0000000000000000  0.0000000000000000  0.1872174776206555  T  T  T

0.00000000E+00  0.00000000E+00  0.00000000E+00
0.00000000E+00  0.00000000E+00  0.00000000E+00
0.00000000E+00  0.00000000E+00  0.00000000E+00
0.00000000E+00  0.00000000E+00  0.00000000E+00
0.00000000E+00  0.00000000E+00  0.00000000E+00
