Ti2N  (n=1)
1.00000000000000
3.2204124013094728  -0.0000000000000000  -0.0000000000000000
-1.6102062006547364  2.7889589503663306  0.0000000000000000
-0.0000000000000001  -0.0000000000000000  30.4231833579700179
Ti  N  Cl
2  1  2
Selective  dynamics
Direct
-0.0000000000000000  -0.0000000000000000  0.0555459027351776  T  T  T
0.6666666666666643  0.3333333333333357  0.1227123450674573  T  T  T
0.3333333333333357  0.6666666666666643  0.0891291239013175  T  T  T
0.6666666666666643  0.3333333333333357  0.0000000000000000  T  T  T
-0.0000000000000000  -0.0000000000000000  0.1782582478026349  T  T  T

0.00000000E+00  0.00000000E+00  0.00000000E+00
0.00000000E+00  0.00000000E+00  0.00000000E+00
0.00000000E+00  0.00000000E+00  0.00000000E+00
0.00000000E+00  0.00000000E+00  0.00000000E+00
0.00000000E+00  0.00000000E+00  0.00000000E+00
