Cr4C3  (n=3)
1.00000000000000
2.6825378509440596  0.0000000000000001  0.0000000000000000
-1.3412689254720298  2.3231459255226170  0.0000000000000000
0.0000000000000000  0.0000000000000000  35.5304770383459640
Cr  C  F
4  3  2
Selective  dynamics
Direct
0.0000000000000000  0.0000000000000000  0.0380441972080468  T  T  T
0.0000000000000000  0.0000000000000000  0.1112711865557174  T  T  T
0.0000000000000000  0.0000000000000000  0.1851075259220380  T  T  T
0.0000000000000000  0.0000000000000000  0.2583345152697239  T  T  T
0.3333333333333357  0.6666666666666643  0.0733056783609526  T  T  T
0.3333333333333357  0.6666666666666643  0.1481893562388854  T  T  T
0.3333333333333357  0.6666666666666643  0.2230730341168105  T  T  T
0.3333333333333357  0.6666666666666643  0.0000000000000000  T  T  T
0.3333333333333357  0.6666666666666643  0.2963787124777705  T  T  T

0.00000000E+00  0.00000000E+00  0.00000000E+00
0.00000000E+00  0.00000000E+00  0.00000000E+00
0.00000000E+00  0.00000000E+00  0.00000000E+00
0.00000000E+00  0.00000000E+00  0.00000000E+00
0.00000000E+00  0.00000000E+00  0.00000000E+00
0.00000000E+00  0.00000000E+00  0.00000000E+00
0.00000000E+00  0.00000000E+00  0.00000000E+00
0.00000000E+00  0.00000000E+00  0.00000000E+00
0.00000000E+00  0.00000000E+00  0.00000000E+00
