Nb4N3  (n=3)
1.00000000000000
2.9446555594077739  -0.0000000000000001  0.0000000000000000
-1.4723277797038870  2.5501465200559235  0.0000000000000000
0.0000000000000000  0.0000000000000000  36.6103418473806244
Nb  N  F
4  3  2
Selective  dynamics
Direct
-0.0000000000000000  -0.0000000000000000  0.0397495192111479  T  T  T
-0.0000000000000000  -0.0000000000000000  0.1188458410339177  T  T  T
-0.0000000000000000  -0.0000000000000000  0.1982870034443240  T  T  T
0.0000000000000000  -0.0000000000000000  0.2773833252670937  T  T  T
0.3333333333333357  0.6666666666666643  0.0786990830645204  T  T  T
0.3333333333333357  0.6666666666666643  0.1585664222391170  T  T  T
0.3333333333333357  0.6666666666666643  0.2384337614137136  T  T  T
0.3333333333333357  0.6666666666666643  0.0000000000000000  T  T  T
0.3333333333333357  0.6666666666666643  0.3171328444782417  T  T  T

0.00000000E+00  0.00000000E+00  0.00000000E+00
0.00000000E+00  0.00000000E+00  0.00000000E+00
0.00000000E+00  0.00000000E+00  0.00000000E+00
0.00000000E+00  0.00000000E+00  0.00000000E+00
0.00000000E+00  0.00000000E+00  0.00000000E+00
0.00000000E+00  0.00000000E+00  0.00000000E+00
0.00000000E+00  0.00000000E+00  0.00000000E+00
0.00000000E+00  0.00000000E+00  0.00000000E+00
0.00000000E+00  0.00000000E+00  0.00000000E+00
