Zr4N3  (n=3)
1.00000000000000
3.1135289427001323  0.0000000000000000  0.0000000000000000
-1.5567644713500661  2.6963951600392342  0.0000000000000000
0.0000000000000000  0.0000000000000000  36.5915127354515448
Zr  N  F
4  3  2
Selective  dynamics
Direct
-0.0000000000000000  -0.0000000000000000  0.0381938581378407  T  T  T
-0.0000000000000000  -0.0000000000000000  0.1179968709947165  T  T  T
-0.0000000000000000  -0.0000000000000000  0.1987845864775476  T  T  T
-0.0000000000000000  -0.0000000000000000  0.2785875993344235  T  T  T
0.3333333333333357  0.6666666666666643  0.0768032667761990  T  T  T
0.3333333333333357  0.6666666666666643  0.1583907287361321  T  T  T
0.3333333333333357  0.6666666666666643  0.2399781906960652  T  T  T
0.3333333333333357  0.6666666666666643  0.0000000000000000  T  T  T
0.3333333333333357  0.6666666666666643  0.3167814574722722  T  T  T

0.00000000E+00  0.00000000E+00  0.00000000E+00
0.00000000E+00  0.00000000E+00  0.00000000E+00
0.00000000E+00  0.00000000E+00  0.00000000E+00
0.00000000E+00  0.00000000E+00  0.00000000E+00
0.00000000E+00  0.00000000E+00  0.00000000E+00
0.00000000E+00  0.00000000E+00  0.00000000E+00
0.00000000E+00  0.00000000E+00  0.00000000E+00
0.00000000E+00  0.00000000E+00  0.00000000E+00
0.00000000E+00  0.00000000E+00  0.00000000E+00
