Ti4C3  (n=3)
1.00000000000000
2.9673875879079468  0.0000000000000000  0.0000000000000000
-1.4836937939539734  2.5698330340805411  0.0000000000000000
0.0000000000000000  0.0000000000000000  35.7571708320340704
Ti  C  F
4  3  2
Selective  dynamics
Direct
-0.0000000000000000  0.0000000000000000  0.0370558379352332  T  T  T
-0.0000000000000000  -0.0000000000000000  0.1127739500802395  T  T  T
0.0000000000000000  -0.0000000000000000  0.1880655901217764  T  T  T
-0.0000000000000000  0.0000000000000000  0.2637837022667828  T  T  T
0.3333333333333357  0.6666666666666643  0.0720424753477743  T  T  T
0.3333333333333357  0.6666666666666643  0.1504197701010080  T  T  T
0.3333333333333357  0.6666666666666643  0.2287970648542337  T  T  T
0.3333333333333357  0.6666666666666643  0.0000000000000000  T  T  T
0.3333333333333357  0.6666666666666643  0.3008395402020160  T  T  T

0.00000000E+00  0.00000000E+00  0.00000000E+00
0.00000000E+00  0.00000000E+00  0.00000000E+00
0.00000000E+00  0.00000000E+00  0.00000000E+00
0.00000000E+00  0.00000000E+00  0.00000000E+00
0.00000000E+00  0.00000000E+00  0.00000000E+00
0.00000000E+00  0.00000000E+00  0.00000000E+00
0.00000000E+00  0.00000000E+00  0.00000000E+00
0.00000000E+00  0.00000000E+00  0.00000000E+00
0.00000000E+00  0.00000000E+00  0.00000000E+00
