Cr4N3  (n=3)
1.00000000000000
2.6684401802291013  0.0000000000000000  0.0000000000000000
-1.3342200901145507  2.3109369845589329  0.0000000000000000
0.0000000000000000  0.0000000000000000  35.5396322089794126
Cr  N  F
4  3  2
Selective  dynamics
Direct
0.0000000000000000  0.0000000000000000  0.0394396085349281  T  T  T
0.0000000000000000  0.0000000000000000  0.1116901920099389  T  T  T
0.0000000000000000  0.0000000000000000  0.1848697765064623  T  T  T
0.0000000000000000  0.0000000000000000  0.2571203599814734  T  T  T
0.3333333333333357  0.6666666666666643  0.0738398518402298  T  T  T
0.3333333333333357  0.6666666666666643  0.1482799842582007  T  T  T
0.3333333333333357  0.6666666666666643  0.2227201166761639  T  T  T
0.3333333333333357  0.6666666666666643  0.0000000000000000  T  T  T
0.3333333333333357  0.6666666666666643  0.2965599685164013  T  T  T

0.00000000E+00  0.00000000E+00  0.00000000E+00
0.00000000E+00  0.00000000E+00  0.00000000E+00
0.00000000E+00  0.00000000E+00  0.00000000E+00
0.00000000E+00  0.00000000E+00  0.00000000E+00
0.00000000E+00  0.00000000E+00  0.00000000E+00
0.00000000E+00  0.00000000E+00  0.00000000E+00
0.00000000E+00  0.00000000E+00  0.00000000E+00
0.00000000E+00  0.00000000E+00  0.00000000E+00
0.00000000E+00  0.00000000E+00  0.00000000E+00
