Nb4C3  (n=3)
1.00000000000000
3.0271582293695491  0.0000000000000000  0.0000000000000000
-1.5135791146847750  2.6215959282090462  0.0000000000000000
0.0000000000000000  0.0000000000000000  36.4258301303287624
Nb  C  F
4  3  2
Selective  dynamics
Direct
0.0000000000000000  -0.0000000000000000  0.0386729427348822  T  T  T
0.0000000000000000  -0.0000000000000000  0.1171351237059650  T  T  T
0.0000000000000000  -0.0000000000000000  0.1965387195379099  T  T  T
0.0000000000000000  -0.0000000000000000  0.2750009005089928  T  T  T
0.3333333333333357  0.6666666666666643  0.0753119081133062  T  T  T
0.3333333333333357  0.6666666666666643  0.1568369216219336  T  T  T
0.3333333333333357  0.6666666666666643  0.2383619351305609  T  T  T
0.3333333333333357  0.6666666666666643  0.0000000000000000  T  T  T
0.3333333333333357  0.6666666666666643  0.3136738432438750  T  T  T

0.00000000E+00  0.00000000E+00  0.00000000E+00
0.00000000E+00  0.00000000E+00  0.00000000E+00
0.00000000E+00  0.00000000E+00  0.00000000E+00
0.00000000E+00  0.00000000E+00  0.00000000E+00
0.00000000E+00  0.00000000E+00  0.00000000E+00
0.00000000E+00  0.00000000E+00  0.00000000E+00
0.00000000E+00  0.00000000E+00  0.00000000E+00
0.00000000E+00  0.00000000E+00  0.00000000E+00
0.00000000E+00  0.00000000E+00  0.00000000E+00
