Ti4N3  (n=3)
1.00000000000000
2.8682557657914285  -0.0000000000000001  0.0000000000000000
-1.4341278828957142  2.4839823577713878  0.0000000000000000
0.0000000000000000  0.0000000000000000  35.6781619304278124
Ti  N  F
4  3  2
Selective  dynamics
Direct
-0.0000000000000000  0.0000000000000000  0.0367015951184204  T  T  T
-0.0000000000000000  0.0000000000000000  0.1117546468542849  T  T  T
-0.0000000000000000  0.0000000000000000  0.1875366101126563  T  T  T
-0.0000000000000000  0.0000000000000000  0.2625896618485209  T  T  T
0.3333333333333357  0.6666666666666643  0.0727692840172585  T  T  T
0.3333333333333357  0.6666666666666643  0.1496456284834707  T  T  T
0.3333333333333357  0.6666666666666643  0.2265219729496671  T  T  T
0.3333333333333357  0.6666666666666643  0.0000000000000000  T  T  T
0.3333333333333357  0.6666666666666643  0.2992912569669413  T  T  T

0.00000000E+00  0.00000000E+00  0.00000000E+00
0.00000000E+00  0.00000000E+00  0.00000000E+00
0.00000000E+00  0.00000000E+00  0.00000000E+00
0.00000000E+00  0.00000000E+00  0.00000000E+00
0.00000000E+00  0.00000000E+00  0.00000000E+00
0.00000000E+00  0.00000000E+00  0.00000000E+00
0.00000000E+00  0.00000000E+00  0.00000000E+00
0.00000000E+00  0.00000000E+00  0.00000000E+00
0.00000000E+00  0.00000000E+00  0.00000000E+00
