Ta4C3  (n=3)
1.00000000000000
3.0154362558971592  -0.0000000000000001  0.0000000000000000
-1.5077181279485794  2.6114444014400591  0.0000000000000000
0.0000000000000000  0.0000000000000000  36.3945637729165057
Ta  C  F
4  3  2
Selective  dynamics
Direct
-0.0000000000000000  -0.0000000000000000  0.0390017148140250  T  T  T
-0.0000000000000000  -0.0000000000000000  0.1171291951898768  T  T  T
-0.0000000000000000  -0.0000000000000000  0.1959550292567400  T  T  T
-0.0000000000000000  -0.0000000000000000  0.2740825096325918  T  T  T
0.3333333333333357  0.6666666666666643  0.0754455924271758  T  T  T
0.3333333333333357  0.6666666666666643  0.1565421122233085  T  T  T
0.3333333333333357  0.6666666666666643  0.2376386320194330  T  T  T
0.3333333333333357  0.6666666666666643  0.0000000000000000  T  T  T
0.3333333333333357  0.6666666666666643  0.3130842244466169  T  T  T

0.00000000E+00  0.00000000E+00  0.00000000E+00
0.00000000E+00  0.00000000E+00  0.00000000E+00
0.00000000E+00  0.00000000E+00  0.00000000E+00
0.00000000E+00  0.00000000E+00  0.00000000E+00
0.00000000E+00  0.00000000E+00  0.00000000E+00
0.00000000E+00  0.00000000E+00  0.00000000E+00
0.00000000E+00  0.00000000E+00  0.00000000E+00
0.00000000E+00  0.00000000E+00  0.00000000E+00
0.00000000E+00  0.00000000E+00  0.00000000E+00
