Mo4N3  (n=3)
1.00000000000000
2.8402729077959679  0.0000000000000000  0.0000000000000000
-1.4201364538979835  2.4597484919059371  0.0000000000000000
0.0000000000000000  0.0000000000000000  36.6997635025324058
Mo  N  F
4  3  2
Selective  dynamics
Direct
0.0000000000000000  0.0000000000000000  0.0431956939481538  T  T  T
0.0000000000000000  0.0000000000000000  0.1198205882989928  T  T  T
0.0000000000000000  0.0000000000000000  0.1989761118956927  T  T  T
0.0000000000000000  0.0000000000000000  0.2756010062465315  T  T  T
0.3333333333333357  0.6666666666666643  0.0798309153954889  T  T  T
0.3333333333333357  0.6666666666666643  0.1593983500973390  T  T  T
0.3333333333333357  0.6666666666666643  0.2389657847991816  T  T  T
0.3333333333333357  0.6666666666666643  0.0000000000000000  T  T  T
0.3333333333333357  0.6666666666666643  0.3187967001946780  T  T  T

0.00000000E+00  0.00000000E+00  0.00000000E+00
0.00000000E+00  0.00000000E+00  0.00000000E+00
0.00000000E+00  0.00000000E+00  0.00000000E+00
0.00000000E+00  0.00000000E+00  0.00000000E+00
0.00000000E+00  0.00000000E+00  0.00000000E+00
0.00000000E+00  0.00000000E+00  0.00000000E+00
0.00000000E+00  0.00000000E+00  0.00000000E+00
0.00000000E+00  0.00000000E+00  0.00000000E+00
0.00000000E+00  0.00000000E+00  0.00000000E+00
