Sc4C3  (n=3)
1.00000000000000
3.2876639922391449  0.0000000000000000  0.0000000000000000
-1.6438319961195724  2.8472005365221320  0.0000000000000000
0.0000000000000000  0.0000000000000000  35.6296888099474671
Sc  C  F
4  3  2
Selective  dynamics
Direct
-0.0000000000000000  0.0000000000000000  0.0345571476899262  T  T  T
-0.0000000000000000  0.0000000000000000  0.1113419217438505  T  T  T
-0.0000000000000000  0.0000000000000000  0.1869960420438029  T  T  T
-0.0000000000000000  0.0000000000000000  0.2637808160977274  T  T  T
0.3333333333333357  0.6666666666666643  0.0726685928492169  T  T  T
0.3333333333333357  0.6666666666666643  0.1491689818938228  T  T  T
0.3333333333333357  0.6666666666666643  0.2256693709384208  T  T  T
0.3333333333333357  0.6666666666666643  0.0000000000000000  T  T  T
0.3333333333333357  0.6666666666666643  0.2983379637876534  T  T  T

0.00000000E+00  0.00000000E+00  0.00000000E+00
0.00000000E+00  0.00000000E+00  0.00000000E+00
0.00000000E+00  0.00000000E+00  0.00000000E+00
0.00000000E+00  0.00000000E+00  0.00000000E+00
0.00000000E+00  0.00000000E+00  0.00000000E+00
0.00000000E+00  0.00000000E+00  0.00000000E+00
0.00000000E+00  0.00000000E+00  0.00000000E+00
0.00000000E+00  0.00000000E+00  0.00000000E+00
0.00000000E+00  0.00000000E+00  0.00000000E+00
