Zr4C3  (n=3)
1.00000000000000
3.2345530595880487  -0.0000000000000001  0.0000000000000000
-1.6172765297940246  2.8012051203254744  0.0000000000000000
0.0000000000000000  0.0000000000000000  36.5367892125238285
Zr  C  F
4  3  2
Selective  dynamics
Direct
-0.0000000000000000  -0.0000000000000000  0.0388041171357523  T  T  T
-0.0000000000000000  -0.0000000000000000  0.1188641117133159  T  T  T
-0.0000000000000000  -0.0000000000000000  0.1968940449604325  T  T  T
-0.0000000000000000  -0.0000000000000000  0.2769540395379961  T  T  T
0.3333333333333357  0.6666666666666643  0.0739819383265013  T  T  T
0.3333333333333357  0.6666666666666643  0.1578790783368703  T  T  T
0.3333333333333357  0.6666666666666643  0.2417762183472392  T  T  T
0.3333333333333357  0.6666666666666643  0.0000000000000000  T  T  T
0.3333333333333357  0.6666666666666643  0.3157581566737486  T  T  T

0.00000000E+00  0.00000000E+00  0.00000000E+00
0.00000000E+00  0.00000000E+00  0.00000000E+00
0.00000000E+00  0.00000000E+00  0.00000000E+00
0.00000000E+00  0.00000000E+00  0.00000000E+00
0.00000000E+00  0.00000000E+00  0.00000000E+00
0.00000000E+00  0.00000000E+00  0.00000000E+00
0.00000000E+00  0.00000000E+00  0.00000000E+00
0.00000000E+00  0.00000000E+00  0.00000000E+00
0.00000000E+00  0.00000000E+00  0.00000000E+00
