Hf4C3  (n=3)
1.00000000000000
3.1820760121679421  -0.0000000000000001  0.0000000000000000
-1.5910380060839711  2.7557586638964571  0.0000000000000000
0.0000000000000000  0.0000000000000000  36.4269413602217327
Hf  C  F
4  3  2
Selective  dynamics
Direct
-0.0000000000000000  -0.0000000000000000  0.0388621748024687  T  T  T
-0.0000000000000000  -0.0000000000000000  0.1181009251471744  T  T  T
-0.0000000000000000  -0.0000000000000000  0.1955938549668642  T  T  T
-0.0000000000000000  -0.0000000000000000  0.2748326053115778  T  T  T
0.3333333333333357  0.6666666666666643  0.0739321019987557  T  T  T
0.3333333333333357  0.6666666666666643  0.1568473900570193  T  T  T
0.3333333333333357  0.6666666666666643  0.2397626781152750  T  T  T
0.3333333333333357  0.6666666666666643  0.0000000000000000  T  T  T
0.3333333333333357  0.6666666666666643  0.3136947801140386  T  T  T

0.00000000E+00  0.00000000E+00  0.00000000E+00
0.00000000E+00  0.00000000E+00  0.00000000E+00
0.00000000E+00  0.00000000E+00  0.00000000E+00
0.00000000E+00  0.00000000E+00  0.00000000E+00
0.00000000E+00  0.00000000E+00  0.00000000E+00
0.00000000E+00  0.00000000E+00  0.00000000E+00
0.00000000E+00  0.00000000E+00  0.00000000E+00
0.00000000E+00  0.00000000E+00  0.00000000E+00
0.00000000E+00  0.00000000E+00  0.00000000E+00
