Ta4N3  (n=3)
1.00000000000000
2.9228395354610455  0.0000000000000001  0.0000000000000000
-1.4614197677305227  2.5312532890730575  0.0000000000000000
0.0000000000000000  0.0000000000000000  36.6608386656653806
Ta  N  F
4  3  2
Selective  dynamics
Direct
0.0000000000000000  0.0000000000000000  0.0402922814646095  T  T  T
0.0000000000000000  -0.0000000000000000  0.1193482689153565  T  T  T
0.0000000000000000  0.0000000000000000  0.1987251601190433  T  T  T
0.0000000000000000  0.0000000000000000  0.2777811475697903  T  T  T
0.3333333333333357  0.6666666666666643  0.0793959241974815  T  T  T
0.3333333333333357  0.6666666666666643  0.1590367145171999  T  T  T
0.3333333333333357  0.6666666666666643  0.2386775048369181  T  T  T
0.3333333333333357  0.6666666666666643  0.0000000000000000  T  T  T
0.3333333333333357  0.6666666666666643  0.3180734290344075  T  T  T

0.00000000E+00  0.00000000E+00  0.00000000E+00
0.00000000E+00  0.00000000E+00  0.00000000E+00
0.00000000E+00  0.00000000E+00  0.00000000E+00
0.00000000E+00  0.00000000E+00  0.00000000E+00
0.00000000E+00  0.00000000E+00  0.00000000E+00
0.00000000E+00  0.00000000E+00  0.00000000E+00
0.00000000E+00  0.00000000E+00  0.00000000E+00
0.00000000E+00  0.00000000E+00  0.00000000E+00
0.00000000E+00  0.00000000E+00  0.00000000E+00
