Sc4N3  (n=3)
1.00000000000000
3.0773020770992603  -0.0000000000000001  0.0000000000000000
-1.5386510385496301  2.6650217740116520  0.0000000000000000
0.0000000000000000  0.0000000000000000  35.9803145780376070
Sc  N  F
4  3  2
Selective  dynamics
Direct
-0.0000000000000000  0.0000000000000000  0.0366055424350556  T  T  T
-0.0000000000000000  0.0000000000000000  0.1144067659908069  T  T  T
-0.0000000000000000  0.0000000000000000  0.1907688475859569  T  T  T
-0.0000000000000000  0.0000000000000000  0.2685700711417083  T  T  T
0.3333333333333357  0.6666666666666643  0.0719034883308151  T  T  T
0.3333333333333357  0.6666666666666643  0.1525878067883780  T  T  T
0.3333333333333357  0.6666666666666643  0.2332721252459408  T  T  T
0.3333333333333357  0.6666666666666643  0.0000000000000000  T  T  T
0.3333333333333357  0.6666666666666643  0.3051756135767638  T  T  T

0.00000000E+00  0.00000000E+00  0.00000000E+00
0.00000000E+00  0.00000000E+00  0.00000000E+00
0.00000000E+00  0.00000000E+00  0.00000000E+00
0.00000000E+00  0.00000000E+00  0.00000000E+00
0.00000000E+00  0.00000000E+00  0.00000000E+00
0.00000000E+00  0.00000000E+00  0.00000000E+00
0.00000000E+00  0.00000000E+00  0.00000000E+00
0.00000000E+00  0.00000000E+00  0.00000000E+00
0.00000000E+00  0.00000000E+00  0.00000000E+00
