Hf4N3  (n=3)
1.00000000000000
3.0500313878090632  0.0000000000000000  0.0000000000000000
-1.5250156939045318  2.6414046642696243  0.0000000000000000
0.0000000000000000  0.0000000000000000  36.5325346873098056
Hf  N  F
4  3  2
Selective  dynamics
Direct
-0.0000000000000000  0.0000000000000000  0.0384319199242631  T  T  T
0.0000000000000000  0.0000000000000000  0.1178610934927252  T  T  T
0.0000000000000000  0.0000000000000000  0.1978173672902883  T  T  T
0.0000000000000000  0.0000000000000000  0.2772465408587434  T  T  T
0.3333333333333357  0.6666666666666643  0.0772021092332179  T  T  T
0.3333333333333357  0.6666666666666643  0.1578392359425786  T  T  T
0.3333333333333357  0.6666666666666643  0.2384763515497885  T  T  T
0.3333333333333357  0.6666666666666643  0.0000000000000000  T  T  T
0.3333333333333357  0.6666666666666643  0.3156784708758746  T  T  T

0.00000000E+00  0.00000000E+00  0.00000000E+00
0.00000000E+00  0.00000000E+00  0.00000000E+00
0.00000000E+00  0.00000000E+00  0.00000000E+00
0.00000000E+00  0.00000000E+00  0.00000000E+00
0.00000000E+00  0.00000000E+00  0.00000000E+00
0.00000000E+00  0.00000000E+00  0.00000000E+00
0.00000000E+00  0.00000000E+00  0.00000000E+00
0.00000000E+00  0.00000000E+00  0.00000000E+00
0.00000000E+00  0.00000000E+00  0.00000000E+00
