Mo4C3  (n=3)
1.00000000000000
2.8936802689906660  0.0000000000000001  0.0000000000000000
-1.4468401344953330  2.5060006235211576  0.0000000000000000
0.0000000000000000  0.0000000000000000  36.4400351532714808
Mo  C  F
4  3  2
Selective  dynamics
Direct
-0.0000000000000000  -0.0000000000000000  0.0407648180105491  T  T  T
-0.0000000000000000  -0.0000000000000000  0.1177976074101984  T  T  T
-0.0000000000000000  -0.0000000000000000  0.1961437789016759  T  T  T
-0.0000000000000000  -0.0000000000000000  0.2731765683013252  T  T  T
0.3333333333333357  0.6666666666666643  0.0779641474937031  T  T  T
0.3333333333333357  0.6666666666666643  0.1569706931559333  T  T  T
0.3333333333333357  0.6666666666666643  0.2359772388181634  T  T  T
0.3333333333333357  0.6666666666666643  0.0000000000000000  T  T  T
0.3333333333333357  0.6666666666666643  0.3139413863118743  T  T  T

0.00000000E+00  0.00000000E+00  0.00000000E+00
0.00000000E+00  0.00000000E+00  0.00000000E+00
0.00000000E+00  0.00000000E+00  0.00000000E+00
0.00000000E+00  0.00000000E+00  0.00000000E+00
0.00000000E+00  0.00000000E+00  0.00000000E+00
0.00000000E+00  0.00000000E+00  0.00000000E+00
0.00000000E+00  0.00000000E+00  0.00000000E+00
0.00000000E+00  0.00000000E+00  0.00000000E+00
0.00000000E+00  0.00000000E+00  0.00000000E+00
