Ta4N3  (n=3)
1.00000000000000
3.1110169610386373  0.0000000000000001  0.0000000000000000
-1.5555084805193191  2.6942197203122293  0.0000000000000000
0.0000000000000003  0.0000000000000001  36.4250857392946230
Ta  N  Cl
4  3  2
Selective  dynamics
Direct
-0.0000000000000000  0.0000000000000000  0.0509053510893010  T  T  T
0.6666666666666643  0.3333333333333357  0.1221020487048784  T  T  T
0.3333333333333357  0.6666666666666643  0.1915577686272672  T  T  T
0.0000000000000000  -0.0000000000000000  0.2627544662428371  T  T  T
0.3333333333333357  0.6666666666666643  0.0849286091336404  T  T  T
-0.0000000000000000  -0.0000000000000000  0.1568299086660691  T  T  T
0.6666666666666643  0.3333333333333357  0.2287312081984904  T  T  T
0.3333333333333357  0.6666666666666643  0.0000000000000000  T  T  T
0.6666666666666643  0.3333333333333357  0.3136598173321382  T  T  T

0.00000000E+00  0.00000000E+00  0.00000000E+00
0.00000000E+00  0.00000000E+00  0.00000000E+00
0.00000000E+00  0.00000000E+00  0.00000000E+00
0.00000000E+00  0.00000000E+00  0.00000000E+00
0.00000000E+00  0.00000000E+00  0.00000000E+00
0.00000000E+00  0.00000000E+00  0.00000000E+00
0.00000000E+00  0.00000000E+00  0.00000000E+00
0.00000000E+00  0.00000000E+00  0.00000000E+00
0.00000000E+00  0.00000000E+00  0.00000000E+00
