Zr4C3  (n=3)
1.00000000000000
3.3676435721989484  0.0000000000000001  0.0000000000000001
-1.6838217860994742  2.9164648854518678  0.0000000000000000
0.0000000000000008  0.0000000000000020  36.6428937267487669
Zr  C  Cl
4  3  2
Selective  dynamics
Direct
-0.0000000000000000  -0.0000000000000000  0.0508687737249903  T  T  T
0.6666666666666643  0.3333333333333357  0.1231112656163155  T  T  T
0.3333333333333357  0.6666666666666643  0.1946282069693235  T  T  T
0.0000000000000000  0.0000000000000000  0.2668706988606487  T  T  T
0.3333333333333357  0.6666666666666643  0.0838008668017392  T  T  T
-0.0000000000000000  -0.0000000000000000  0.1588697362928195  T  T  T
0.6666666666666643  0.3333333333333357  0.2339386057838921  T  T  T
0.3333333333333357  0.6666666666666643  0.0000000000000000  T  T  T
0.6666666666666643  0.3333333333333357  0.3177394725856389  T  T  T

0.00000000E+00  0.00000000E+00  0.00000000E+00
0.00000000E+00  0.00000000E+00  0.00000000E+00
0.00000000E+00  0.00000000E+00  0.00000000E+00
0.00000000E+00  0.00000000E+00  0.00000000E+00
0.00000000E+00  0.00000000E+00  0.00000000E+00
0.00000000E+00  0.00000000E+00  0.00000000E+00
0.00000000E+00  0.00000000E+00  0.00000000E+00
0.00000000E+00  0.00000000E+00  0.00000000E+00
0.00000000E+00  0.00000000E+00  0.00000000E+00
