Mo4C3  (n=3)
1.00000000000000
3.1372490453030961  0.0000000000000002  -0.0000000000000001
-1.5686245226515483  2.7169373716955358  0.0000000000000000
-0.0000000000000007  -0.0000000000000013  36.0328551861143893
Mo  C  Cl
4  3  2
Selective  dynamics
Direct
0.0000000000000000  0.0000000000000000  0.0527088532655403  T  T  T
0.6666666666666643  0.3333333333333357  0.1175286843282925  T  T  T
0.3333333333333357  0.6666666666666643  0.1886600739349238  T  T  T
0.0000000000000000  0.0000000000000000  0.2534799049976685  T  T  T
0.3333333333333357  0.6666666666666643  0.0813237832439270  T  T  T
0.0000000000000000  0.0000000000000000  0.1530943791316044  T  T  T
0.6666666666666643  0.3333333333333357  0.2248649750192819  T  T  T
0.3333333333333357  0.6666666666666643  0.0000000000000000  T  T  T
0.6666666666666643  0.3333333333333357  0.3061887582632087  T  T  T

0.00000000E+00  0.00000000E+00  0.00000000E+00
0.00000000E+00  0.00000000E+00  0.00000000E+00
0.00000000E+00  0.00000000E+00  0.00000000E+00
0.00000000E+00  0.00000000E+00  0.00000000E+00
0.00000000E+00  0.00000000E+00  0.00000000E+00
0.00000000E+00  0.00000000E+00  0.00000000E+00
0.00000000E+00  0.00000000E+00  0.00000000E+00
0.00000000E+00  0.00000000E+00  0.00000000E+00
0.00000000E+00  0.00000000E+00  0.00000000E+00
