Sc4N3  (n=3)
1.00000000000000
3.2440762768566529  -0.0000000000000002  0.0000000000000000
-1.6220381384283267  2.8094524683048245  -0.0000000000000002
0.0000000000000003  -0.0000000000000013  36.2112252402067583
Sc  N  Cl
4  3  2
Selective  dynamics
Direct
0.0000000000000000  0.0000000000000000  0.0496209493041300  T  T  T
0.6666666666666643  0.3333333333333357  0.1200093735456351  T  T  T
0.3333333333333357  0.6666666666666643  0.1895969754756281  T  T  T
-0.0000000000000000  -0.0000000000000000  0.2599853997171331  T  T  T
0.3333333333333357  0.6666666666666643  0.0820939710145873  T  T  T
-0.0000000000000000  -0.0000000000000000  0.1548031745106316  T  T  T
0.6666666666666643  0.3333333333333357  0.2275123780066685  T  T  T
0.3333333333333357  0.6666666666666643  0.0000000000000000  T  T  T
0.6666666666666643  0.3333333333333357  0.3096063490212558  T  T  T

0.00000000E+00  0.00000000E+00  0.00000000E+00
0.00000000E+00  0.00000000E+00  0.00000000E+00
0.00000000E+00  0.00000000E+00  0.00000000E+00
0.00000000E+00  0.00000000E+00  0.00000000E+00
0.00000000E+00  0.00000000E+00  0.00000000E+00
0.00000000E+00  0.00000000E+00  0.00000000E+00
0.00000000E+00  0.00000000E+00  0.00000000E+00
0.00000000E+00  0.00000000E+00  0.00000000E+00
0.00000000E+00  0.00000000E+00  0.00000000E+00
