Sc4C3  (n=3)
1.00000000000000
3.3554859710643812  0.0000000000000004  -0.0000000000000001
-1.6777429855321899  2.9059360940047325  0.0000000000000002
-0.0000000000000021  0.0000000000000026  36.4720562958371133
Sc  C  Cl
4  3  2
Selective  dynamics
Direct
0.0000000000000000  -0.0000000000000000  0.0484549982513787  T  T  T
0.6666666666666643  0.3333333333333357  0.1192665970739037  T  T  T
0.3333333333333357  0.6666666666666643  0.1952771238170549  T  T  T
-0.0000000000000000  0.0000000000000000  0.2660887226395721  T  T  T
0.3333333333333357  0.6666666666666643  0.0833187113256052  T  T  T
-0.0000000000000000  -0.0000000000000000  0.1572718604454793  T  T  T
0.6666666666666643  0.3333333333333357  0.2312250095653456  T  T  T
0.3333333333333357  0.6666666666666643  0.0000000000000000  T  T  T
0.6666666666666643  0.3333333333333357  0.3145437208909584  T  T  T

0.00000000E+00  0.00000000E+00  0.00000000E+00
0.00000000E+00  0.00000000E+00  0.00000000E+00
0.00000000E+00  0.00000000E+00  0.00000000E+00
0.00000000E+00  0.00000000E+00  0.00000000E+00
0.00000000E+00  0.00000000E+00  0.00000000E+00
0.00000000E+00  0.00000000E+00  0.00000000E+00
0.00000000E+00  0.00000000E+00  0.00000000E+00
0.00000000E+00  0.00000000E+00  0.00000000E+00
0.00000000E+00  0.00000000E+00  0.00000000E+00
