Hf4N3  (n=3)
1.00000000000000
3.2204184049091196  -0.0000000000000004  0.0000000000000000
-1.6102092024545598  2.7889641502916525  0.0000000000000000
0.0000000000000002  -0.0000000000000007  36.4558717106088679
Hf  N  Cl
4  3  2
Selective  dynamics
Direct
0.0000000000000000  0.0000000000000000  0.0498363016748034  T  T  T
0.6666666666666643  0.3333333333333357  0.1208926787665705  T  T  T
0.3333333333333357  0.6666666666666643  0.1933467337908150  T  T  T
-0.0000000000000000  -0.0000000000000000  0.2644031108825821  T  T  T
0.3333333333333357  0.6666666666666643  0.0857022715459479  T  T  T
0.0000000000000000  -0.0000000000000000  0.1571197062786928  T  T  T
0.6666666666666643  0.3333333333333357  0.2285371410114226  T  T  T
0.3333333333333357  0.6666666666666643  0.0000000000000000  T  T  T
0.6666666666666643  0.3333333333333357  0.3142394125573781  T  T  T

0.00000000E+00  0.00000000E+00  0.00000000E+00
0.00000000E+00  0.00000000E+00  0.00000000E+00
0.00000000E+00  0.00000000E+00  0.00000000E+00
0.00000000E+00  0.00000000E+00  0.00000000E+00
0.00000000E+00  0.00000000E+00  0.00000000E+00
0.00000000E+00  0.00000000E+00  0.00000000E+00
0.00000000E+00  0.00000000E+00  0.00000000E+00
0.00000000E+00  0.00000000E+00  0.00000000E+00
0.00000000E+00  0.00000000E+00  0.00000000E+00
