Hf4C3  (n=3)
1.00000000000000
3.3163216535886146  0.0000000000000000  -0.0000000000000001
-1.6581608267943073  2.8720188002269866  -0.0000000000000004
-0.0000000000000014  0.0000000000000013  36.4904794360548763
Hf  C  Cl
4  3  2
Selective  dynamics
Direct
0.0000000000000000  0.0000000000000000  0.0508734738329743  T  T  T
0.6666666666666643  0.3333333333333357  0.1220924358460362  T  T  T
0.3333333333333357  0.6666666666666643  0.1927973549606462  T  T  T
-0.0000000000000000  -0.0000000000000000  0.2640163169737080  T  T  T
0.3333333333333357  0.6666666666666643  0.0833079985572745  T  T  T
-0.0000000000000000  -0.0000000000000000  0.1574448954033449  T  T  T
0.6666666666666643  0.3333333333333357  0.2315817922494003  T  T  T
0.3333333333333357  0.6666666666666643  0.0000000000000000  T  T  T
0.6666666666666643  0.3333333333333357  0.3148897908066827  T  T  T

0.00000000E+00  0.00000000E+00  0.00000000E+00
0.00000000E+00  0.00000000E+00  0.00000000E+00
0.00000000E+00  0.00000000E+00  0.00000000E+00
0.00000000E+00  0.00000000E+00  0.00000000E+00
0.00000000E+00  0.00000000E+00  0.00000000E+00
0.00000000E+00  0.00000000E+00  0.00000000E+00
0.00000000E+00  0.00000000E+00  0.00000000E+00
0.00000000E+00  0.00000000E+00  0.00000000E+00
0.00000000E+00  0.00000000E+00  0.00000000E+00
