Mo4N3  (n=3)
1.00000000000000
2.9358746616247902  0.0000000000000001  0.0000000000000003
-1.4679373308123953  2.5425420394503706  -0.0000000000000005
0.0000000000000015  -0.0000000000000015  37.2238165364216655
Mo  N  Cl
4  3  2
Selective  dynamics
Direct
0.0000000000000000  0.0000000000000000  0.0514676854935255  T  T  T
0.6666666666666643  0.3333333333333357  0.1268899851534036  T  T  T
0.3333333333333357  0.6666666666666643  0.2014969905469862  T  T  T
-0.0000000000000000  -0.0000000000000000  0.2769192902068643  T  T  T
0.3333333333333357  0.6666666666666643  0.0868752767323033  T  T  T
0.0000000000000000  0.0000000000000000  0.1641934878501949  T  T  T
0.6666666666666643  0.3333333333333357  0.2415116989680724  T  T  T
0.3333333333333357  0.6666666666666643  0.0000000000000000  T  T  T
0.6666666666666643  0.3333333333333357  0.3283869757003897  T  T  T

0.00000000E+00  0.00000000E+00  0.00000000E+00
0.00000000E+00  0.00000000E+00  0.00000000E+00
0.00000000E+00  0.00000000E+00  0.00000000E+00
0.00000000E+00  0.00000000E+00  0.00000000E+00
0.00000000E+00  0.00000000E+00  0.00000000E+00
0.00000000E+00  0.00000000E+00  0.00000000E+00
0.00000000E+00  0.00000000E+00  0.00000000E+00
0.00000000E+00  0.00000000E+00  0.00000000E+00
0.00000000E+00  0.00000000E+00  0.00000000E+00
