Nb4N3  (n=3)
1.00000000000000
3.1433056532663719  0.0000000000000001  0.0000000000000000
-1.5716528266331864  2.7221825480422206  0.0000000000000000
0.0000000000000000  0.0000000000000005  36.3956232912664888
Nb  N  Cl
4  3  2
Selective  dynamics
Direct
0.0000000000000000  0.0000000000000000  0.0508767618860969  T  T  T
0.6666666666666643  0.3333333333333357  0.1213304640524261  T  T  T
0.3333333333333357  0.6666666666666643  0.1917737573005019  T  T  T
-0.0000000000000000  -0.0000000000000000  0.2622274594668311  T  T  T
0.3333333333333357  0.6666666666666643  0.0841291643675318  T  T  T
0.0000000000000000  -0.0000000000000000  0.1565521106764679  T  T  T
0.6666666666666643  0.3333333333333357  0.2289750569853962  T  T  T
0.3333333333333357  0.6666666666666643  0.0000000000000000  T  T  T
0.6666666666666643  0.3333333333333357  0.3131042213529280  T  T  T

0.00000000E+00  0.00000000E+00  0.00000000E+00
0.00000000E+00  0.00000000E+00  0.00000000E+00
0.00000000E+00  0.00000000E+00  0.00000000E+00
0.00000000E+00  0.00000000E+00  0.00000000E+00
0.00000000E+00  0.00000000E+00  0.00000000E+00
0.00000000E+00  0.00000000E+00  0.00000000E+00
0.00000000E+00  0.00000000E+00  0.00000000E+00
0.00000000E+00  0.00000000E+00  0.00000000E+00
0.00000000E+00  0.00000000E+00  0.00000000E+00
