Cr4C3  (n=3)
1.00000000000000
2.9827788205971859  0.0000000000000001  0.0000000000000000
-1.4913894102985932  2.5831622324872985  0.0000000000000004
-0.0000000000000005  0.0000000000000026  35.1426481691671100
Cr  C  Cl
4  3  2
Selective  dynamics
Direct
0.0000000000000000  -0.0000000000000000  0.0494126594416750  T  T  T
0.6666666666666643  0.3333333333333357  0.1113074951930460  T  T  T
0.3333333333333357  0.6666666666666643  0.1773061607939238  T  T  T
-0.0000000000000000  0.0000000000000000  0.2392009965452947  T  T  T
0.3333333333333357  0.6666666666666643  0.0780289727225952  T  T  T
0.0000000000000000  0.0000000000000000  0.1443068279934848  T  T  T
0.6666666666666643  0.3333333333333357  0.2105846832643670  T  T  T
0.3333333333333357  0.6666666666666643  0.0000000000000000  T  T  T
0.6666666666666643  0.3333333333333357  0.2886136559869698  T  T  T

0.00000000E+00  0.00000000E+00  0.00000000E+00
0.00000000E+00  0.00000000E+00  0.00000000E+00
0.00000000E+00  0.00000000E+00  0.00000000E+00
0.00000000E+00  0.00000000E+00  0.00000000E+00
0.00000000E+00  0.00000000E+00  0.00000000E+00
0.00000000E+00  0.00000000E+00  0.00000000E+00
0.00000000E+00  0.00000000E+00  0.00000000E+00
0.00000000E+00  0.00000000E+00  0.00000000E+00
0.00000000E+00  0.00000000E+00  0.00000000E+00
