Cr4N3  (n=3)
1.00000000000000
2.9903719078455788  0.0000000000000000  -0.0000000000000001
-1.4951859539227894  2.5897380390323970  0.0000000000000001
-0.0000000000000007  0.0000000000000011  35.3946242040137378
Cr  N  Cl
4  3  2
Selective  dynamics
Direct
-0.0000000000000000  0.0000000000000000  0.0496091840051483  T  T  T
0.6666666666666643  0.3333333333333357  0.1134382833675735  T  T  T
0.3333333333333357  0.6666666666666643  0.1802397662735143  T  T  T
0.0000000000000000  -0.0000000000000000  0.2440688656359324  T  T  T
0.3333333333333357  0.6666666666666643  0.0792886092479574  T  T  T
-0.0000000000000000  -0.0000000000000000  0.1468390248205474  T  T  T
0.6666666666666643  0.3333333333333357  0.2143894403931231  T  T  T
0.3333333333333357  0.6666666666666643  0.0000000000000000  T  T  T
0.6666666666666643  0.3333333333333357  0.2936780496410806  T  T  T

0.00000000E+00  0.00000000E+00  0.00000000E+00
0.00000000E+00  0.00000000E+00  0.00000000E+00
0.00000000E+00  0.00000000E+00  0.00000000E+00
0.00000000E+00  0.00000000E+00  0.00000000E+00
0.00000000E+00  0.00000000E+00  0.00000000E+00
0.00000000E+00  0.00000000E+00  0.00000000E+00
0.00000000E+00  0.00000000E+00  0.00000000E+00
0.00000000E+00  0.00000000E+00  0.00000000E+00
0.00000000E+00  0.00000000E+00  0.00000000E+00
