Ti4N3  (n=3)
1.00000000000000
3.0537684388581998  0.0000000000000004  0.0000000000000000
-1.5268842194290999  2.6446410455260607  0.0000000000000001
0.0000000000000006  0.0000000000000002  35.6843236271169815
Ti  N  Cl
4  3  2
Selective  dynamics
Direct
-0.0000000000000000  -0.0000000000000000  0.0487428853484737  T  T  T
0.6666666666666643  0.3333333333333357  0.1148484472417201  T  T  T
0.3333333333333357  0.6666666666666643  0.1845638027637088  T  T  T
0.0000000000000000  0.0000000000000000  0.2506693646569552  T  T  T
0.3333333333333357  0.6666666666666643  0.0815214072014969  T  T  T
-0.0000000000000000  -0.0000000000000000  0.1497061250027108  T  T  T
0.6666666666666643  0.3333333333333357  0.2178908428039246  T  T  T
0.3333333333333357  0.6666666666666643  0.0000000000000000  T  T  T
0.6666666666666643  0.3333333333333357  0.2994122500054288  T  T  T

0.00000000E+00  0.00000000E+00  0.00000000E+00
0.00000000E+00  0.00000000E+00  0.00000000E+00
0.00000000E+00  0.00000000E+00  0.00000000E+00
0.00000000E+00  0.00000000E+00  0.00000000E+00
0.00000000E+00  0.00000000E+00  0.00000000E+00
0.00000000E+00  0.00000000E+00  0.00000000E+00
0.00000000E+00  0.00000000E+00  0.00000000E+00
0.00000000E+00  0.00000000E+00  0.00000000E+00
0.00000000E+00  0.00000000E+00  0.00000000E+00
