Ta4C3  (n=3)
1.00000000000000
3.1625562432236838  0.0000000000000002  -0.0000000000000001
-1.5812781216118419  2.7388540481933408  0.0000000000000000
-0.0000000000000010  -0.0000000000000024  36.3621983708651015
Ta  C  Cl
4  3  2
Selective  dynamics
Direct
-0.0000000000000000  -0.0000000000000000  0.0503868091032968  T  T  T
0.6666666666666643  0.3333333333333357  0.1212145027847518  T  T  T
0.3333333333333357  0.6666666666666643  0.1912583090892750  T  T  T
0.0000000000000000  0.0000000000000000  0.2620860027707225  T  T  T
0.3333333333333357  0.6666666666666643  0.0838166947351733  T  T  T
0.0000000000000000  -0.0000000000000000  0.1562364059370135  T  T  T
0.6666666666666643  0.3333333333333357  0.2286561171388459  T  T  T
0.3333333333333357  0.6666666666666643  0.0000000000000000  T  T  T
0.6666666666666643  0.3333333333333357  0.3124728118740192  T  T  T

0.00000000E+00  0.00000000E+00  0.00000000E+00
0.00000000E+00  0.00000000E+00  0.00000000E+00
0.00000000E+00  0.00000000E+00  0.00000000E+00
0.00000000E+00  0.00000000E+00  0.00000000E+00
0.00000000E+00  0.00000000E+00  0.00000000E+00
0.00000000E+00  0.00000000E+00  0.00000000E+00
0.00000000E+00  0.00000000E+00  0.00000000E+00
0.00000000E+00  0.00000000E+00  0.00000000E+00
0.00000000E+00  0.00000000E+00  0.00000000E+00
