Ti4C3  (n=3)
1.00000000000000
3.1290971270836070  0.0000000000000000  0.0000000000000000
-1.5645485635418035  2.7098776032693999  -0.0000000000000002
0.0000000000000009  -0.0000000000000024  35.7171003573629022
Ti  C  Cl
4  3  2
Selective  dynamics
Direct
0.0000000000000000  0.0000000000000000  0.0491723154473831  T  T  T
0.6666666666666643  0.3333333333333357  0.1166802504625962  T  T  T
0.3333333333333357  0.6666666666666643  0.1833749121943473  T  T  T
-0.0000000000000000  -0.0000000000000000  0.2508828472095603  T  T  T
0.3333333333333357  0.6666666666666643  0.0801771475060366  T  T  T
-0.0000000000000000  -0.0000000000000000  0.1500275813284717  T  T  T
0.6666666666666643  0.3333333333333357  0.2198780151508992  T  T  T
0.3333333333333357  0.6666666666666643  0.0000000000000000  T  T  T
0.6666666666666643  0.3333333333333357  0.3000551626569435  T  T  T

0.00000000E+00  0.00000000E+00  0.00000000E+00
0.00000000E+00  0.00000000E+00  0.00000000E+00
0.00000000E+00  0.00000000E+00  0.00000000E+00
0.00000000E+00  0.00000000E+00  0.00000000E+00
0.00000000E+00  0.00000000E+00  0.00000000E+00
0.00000000E+00  0.00000000E+00  0.00000000E+00
0.00000000E+00  0.00000000E+00  0.00000000E+00
0.00000000E+00  0.00000000E+00  0.00000000E+00
0.00000000E+00  0.00000000E+00  0.00000000E+00
