Zr4N3  (n=3)
1.00000000000000
3.2826197926857845  0.0000000000000000  0.0000000000000000
-1.6413098963428923  2.8428321324195807  0.0000000000000000
0.0000000000000002  -0.0000000000000005  36.5765654683888073
Zr  N  Cl
4  3  2
Selective  dynamics
Direct
-0.0000000000000000  -0.0000000000000000  0.0501960453939981  T  T  T
0.6666666666666643  0.3333333333333357  0.1215515380968373  T  T  T
0.3333333333333357  0.6666666666666643  0.1949507173813000  T  T  T
-0.0000000000000000  0.0000000000000000  0.2663062100841467  T  T  T
0.3333333333333357  0.6666666666666643  0.0856529814443629  T  T  T
-0.0000000000000000  0.0000000000000000  0.1582511277390687  T  T  T
0.6666666666666643  0.3333333333333357  0.2308492740337669  T  T  T
0.3333333333333357  0.6666666666666643  0.0000000000000000  T  T  T
0.6666666666666643  0.3333333333333357  0.3165022554781373  T  T  T

0.00000000E+00  0.00000000E+00  0.00000000E+00
0.00000000E+00  0.00000000E+00  0.00000000E+00
0.00000000E+00  0.00000000E+00  0.00000000E+00
0.00000000E+00  0.00000000E+00  0.00000000E+00
0.00000000E+00  0.00000000E+00  0.00000000E+00
0.00000000E+00  0.00000000E+00  0.00000000E+00
0.00000000E+00  0.00000000E+00  0.00000000E+00
0.00000000E+00  0.00000000E+00  0.00000000E+00
0.00000000E+00  0.00000000E+00  0.00000000E+00
