Nb4C3  (n=3)
1.00000000000000
3.1927208295373077  0.0000000000000000  0.0000000000000000
-1.5963604147686539  2.7649773463174054  0.0000000000000001
0.0000000000000000  0.0000000000000002  36.3569684612057529
Nb  C  Cl
4  3  2
Selective  dynamics
Direct
0.0000000000000000  0.0000000000000000  0.0508956614821389  T  T  T
0.6666666666666643  0.3333333333333357  0.1204446097653703  T  T  T
0.3333333333333357  0.6666666666666643  0.1919293020838551  T  T  T
-0.0000000000000000  -0.0000000000000000  0.2614782503670864  T  T  T
0.3333333333333357  0.6666666666666643  0.0836025931864906  T  T  T
-0.0000000000000000  0.0000000000000000  0.1561869559246165  T  T  T
0.6666666666666643  0.3333333333333357  0.2287713186627273  T  T  T
0.3333333333333357  0.6666666666666643  0.0000000000000000  T  T  T
0.6666666666666643  0.3333333333333357  0.3123739118492255  T  T  T

0.00000000E+00  0.00000000E+00  0.00000000E+00
0.00000000E+00  0.00000000E+00  0.00000000E+00
0.00000000E+00  0.00000000E+00  0.00000000E+00
0.00000000E+00  0.00000000E+00  0.00000000E+00
0.00000000E+00  0.00000000E+00  0.00000000E+00
0.00000000E+00  0.00000000E+00  0.00000000E+00
0.00000000E+00  0.00000000E+00  0.00000000E+00
0.00000000E+00  0.00000000E+00  0.00000000E+00
0.00000000E+00  0.00000000E+00  0.00000000E+00
