Nb3N2  (n=2)
1.00000000000000
3.3465473734691389  0.0000000000000001  0.0000000000000000
-1.6732736867345694  2.8981950406479347  0.0000000000000001
-0.0000000000000001  -0.0000000000000006  34.0050646687237048
Nb  N  I
3  2  2
Selective  dynamics
Direct
0.0000000000000000  0.0000000000000000  0.0633792281949447  T  T  T
0.6666666666666643  0.3333333333333357  0.1324076980363150  T  T  T
0.3333333333333357  0.6666666666666643  0.2014361678776922  T  T  T
0.3333333333333357  0.6666666666666643  0.0978823814679124  T  T  T
0.0000000000000000  -0.0000000000000000  0.1669330146047177  T  T  T
0.6666666666666643  0.3333333333333357  0.0000000000000000  T  T  T
0.6666666666666643  0.3333333333333357  0.2648153960726371  T  T  T

0.00000000E+00  0.00000000E+00  0.00000000E+00
0.00000000E+00  0.00000000E+00  0.00000000E+00
0.00000000E+00  0.00000000E+00  0.00000000E+00
0.00000000E+00  0.00000000E+00  0.00000000E+00
0.00000000E+00  0.00000000E+00  0.00000000E+00
0.00000000E+00  0.00000000E+00  0.00000000E+00
0.00000000E+00  0.00000000E+00  0.00000000E+00
