Ti3C2  (n=2)
1.00000000000000
3.3607752432895257  0.0000000000000000  0.0000000000000000
-1.6803876216447629  2.9105167372367573  0.0000000000000000
0.0000000000000001  0.0000000000000003  33.5228490340613305
Ti  C  I
3  2  2
Selective  dynamics
Direct
0.0000000000000000  0.0000000000000000  0.0614945849083700  T  T  T
0.6666666666666643  0.3333333333333357  0.1271199984434732  T  T  T
0.3333333333333357  0.6666666666666643  0.1927454119785845  T  T  T
0.3333333333333357  0.6666666666666643  0.0899806142916538  T  T  T
0.0000000000000000  -0.0000000000000000  0.1642593825952850  T  T  T
0.6666666666666643  0.3333333333333357  0.0000000000000000  T  T  T
0.6666666666666643  0.3333333333333357  0.2542399968869465  T  T  T

0.00000000E+00  0.00000000E+00  0.00000000E+00
0.00000000E+00  0.00000000E+00  0.00000000E+00
0.00000000E+00  0.00000000E+00  0.00000000E+00
0.00000000E+00  0.00000000E+00  0.00000000E+00
0.00000000E+00  0.00000000E+00  0.00000000E+00
0.00000000E+00  0.00000000E+00  0.00000000E+00
0.00000000E+00  0.00000000E+00  0.00000000E+00
