Mo3N2  (n=2)
1.00000000000000
3.4115860213591960  0.0000000000000000  0.0000000000000000
-1.7057930106795980  2.9545201618045627  0.0000000000000000
-0.0000000000000001  0.0000000000000014  33.3987511491435711
Mo  N  I
3  2  2
Selective  dynamics
Direct
-0.0000000000000000  -0.0000000000000000  0.0657764017809789  T  T  T
0.6666666666666643  0.3333333333333357  0.1257310909807156  T  T  T
0.3333333333333357  0.6666666666666643  0.1856926160765626  T  T  T
0.3333333333333357  0.6666666666666643  0.0898118535988126  T  T  T
-0.0000000000000000  0.0000000000000000  0.1616528098313018  T  T  T
0.6666666666666643  0.3333333333333357  0.0000000000000000  T  T  T
0.6666666666666643  0.3333333333333357  0.2514690178575415  T  T  T

0.00000000E+00  0.00000000E+00  0.00000000E+00
0.00000000E+00  0.00000000E+00  0.00000000E+00
0.00000000E+00  0.00000000E+00  0.00000000E+00
0.00000000E+00  0.00000000E+00  0.00000000E+00
0.00000000E+00  0.00000000E+00  0.00000000E+00
0.00000000E+00  0.00000000E+00  0.00000000E+00
0.00000000E+00  0.00000000E+00  0.00000000E+00
