Ti3N2  (n=2)
1.00000000000000
3.3442648783026789  0.0000000000000001  -0.0000000000000000
-1.6721324391513395  2.8962183416799681  -0.0000000000000000
-0.0000000000000002  -0.0000000000000010  33.3180910460587327
Ti  N  I
3  2  2
Selective  dynamics
Direct
-0.0000000000000000  -0.0000000000000000  0.0626648911816830  T  T  T
0.6666666666666643  0.3333333333333357  0.1248284458218187  T  T  T
0.3333333333333357  0.6666666666666643  0.1869920004619544  T  T  T
0.3333333333333357  0.6666666666666643  0.0883093607691003  T  T  T
0.0000000000000000  0.0000000000000000  0.1613475308745297  T  T  T
0.6666666666666643  0.3333333333333357  0.0000000000000000  T  T  T
0.6666666666666643  0.3333333333333357  0.2496568916436375  T  T  T

0.00000000E+00  0.00000000E+00  0.00000000E+00
0.00000000E+00  0.00000000E+00  0.00000000E+00
0.00000000E+00  0.00000000E+00  0.00000000E+00
0.00000000E+00  0.00000000E+00  0.00000000E+00
0.00000000E+00  0.00000000E+00  0.00000000E+00
0.00000000E+00  0.00000000E+00  0.00000000E+00
0.00000000E+00  0.00000000E+00  0.00000000E+00
