Cr3C2  (n=2)
1.00000000000000
3.2567638118383369  0.0000000000000000  0.0000000000000000
-1.6283819059191684  2.8204401952022473  0.0000000000000000
-0.0000000000000002  -0.0000000000000007  33.0770181635043485
Cr  C  I
3  2  2
Selective  dynamics
Direct
-0.0000000000000000  -0.0000000000000000  0.0640581080313772  T  T  T
0.6666666666666643  0.3333333333333357  0.1220941096258777  T  T  T
0.3333333333333357  0.6666666666666643  0.1801301112203935  T  T  T
0.3333333333333357  0.6666666666666643  0.0872443187749340  T  T  T
-0.0000000000000000  0.0000000000000000  0.1569439004768289  T  T  T
0.6666666666666643  0.3333333333333357  0.0000000000000000  T  T  T
0.6666666666666643  0.3333333333333357  0.2441882192517630  T  T  T

0.00000000E+00  0.00000000E+00  0.00000000E+00
0.00000000E+00  0.00000000E+00  0.00000000E+00
0.00000000E+00  0.00000000E+00  0.00000000E+00
0.00000000E+00  0.00000000E+00  0.00000000E+00
0.00000000E+00  0.00000000E+00  0.00000000E+00
0.00000000E+00  0.00000000E+00  0.00000000E+00
0.00000000E+00  0.00000000E+00  0.00000000E+00
