Mo3C2  (n=2)
1.00000000000000
3.4116649398075944  -0.0000000000000002  0.0000000000000001
-1.7058324699037974  2.9545885072919349  -0.0000000000000005
0.0000000000000001  -0.0000000000000022  33.5325580222687663
Mo  C  I
3  2  2
Selective  dynamics
Direct
-0.0000000000000000  -0.0000000000000000  0.0669947954088517  T  T  T
0.6666666666666643  0.3333333333333357  0.1272279618006169  T  T  T
0.3333333333333357  0.6666666666666643  0.1874611281923942  T  T  T
0.3333333333333357  0.6666666666666643  0.0894325693283960  T  T  T
0.0000000000000000  0.0000000000000000  0.1650233542728439  T  T  T
0.6666666666666643  0.3333333333333357  0.0000000000000000  T  T  T
0.6666666666666643  0.3333333333333357  0.2544559236012460  T  T  T

0.00000000E+00  0.00000000E+00  0.00000000E+00
0.00000000E+00  0.00000000E+00  0.00000000E+00
0.00000000E+00  0.00000000E+00  0.00000000E+00
0.00000000E+00  0.00000000E+00  0.00000000E+00
0.00000000E+00  0.00000000E+00  0.00000000E+00
0.00000000E+00  0.00000000E+00  0.00000000E+00
0.00000000E+00  0.00000000E+00  0.00000000E+00
