Sc3N2  (n=2)
1.00000000000000
3.4750921291083254  -0.0000000000000002  0.0000000000000000
-1.7375460645541638  3.0095180646224922  0.0000000000000001
-0.0000000000000004  0.0000000000000001  33.9476287304217266
Sc  N  I
3  2  2
Selective  dynamics
Direct
0.0000000000000000  0.0000000000000000  0.0616742038111977  T  T  T
0.6666666666666643  0.3333333333333357  0.1317857692134388  T  T  T
0.3333333333333357  0.6666666666666643  0.2018973346156800  T  T  T
0.3333333333333357  0.6666666666666643  0.0930067723554688  T  T  T
-0.0000000000000000  -0.0000000000000000  0.1705647660714020  T  T  T
0.6666666666666643  0.3333333333333357  0.0000000000000000  T  T  T
0.6666666666666643  0.3333333333333357  0.2635715384268777  T  T  T

0.00000000E+00  0.00000000E+00  0.00000000E+00
0.00000000E+00  0.00000000E+00  0.00000000E+00
0.00000000E+00  0.00000000E+00  0.00000000E+00
0.00000000E+00  0.00000000E+00  0.00000000E+00
0.00000000E+00  0.00000000E+00  0.00000000E+00
0.00000000E+00  0.00000000E+00  0.00000000E+00
0.00000000E+00  0.00000000E+00  0.00000000E+00
