Zr3C2  (n=2)
1.00000000000000
3.5508724123715210  -0.0000000000000002  0.0000000000000000
-1.7754362061857605  3.0751457149594374  0.0000000000000000
0.0000000000000001  -0.0000000000000015  34.2665599794136213
Zr  C  I
3  2  2
Selective  dynamics
Direct
0.0000000000000000  0.0000000000000000  0.0633807637700712  T  T  T
0.6666666666666643  0.3333333333333357  0.1352128720388113  T  T  T
0.3333333333333357  0.6666666666666643  0.2070449803075575  T  T  T
0.3333333333333357  0.6666666666666643  0.0950105435014628  T  T  T
0.0000000000000000  0.0000000000000000  0.1754152005761660  T  T  T
0.6666666666666643  0.3333333333333357  0.0000000000000000  T  T  T
0.6666666666666643  0.3333333333333357  0.2704257440776287  T  T  T

0.00000000E+00  0.00000000E+00  0.00000000E+00
0.00000000E+00  0.00000000E+00  0.00000000E+00
0.00000000E+00  0.00000000E+00  0.00000000E+00
0.00000000E+00  0.00000000E+00  0.00000000E+00
0.00000000E+00  0.00000000E+00  0.00000000E+00
0.00000000E+00  0.00000000E+00  0.00000000E+00
0.00000000E+00  0.00000000E+00  0.00000000E+00
