Nb3C2  (n=2)
1.00000000000000
3.4385077386835885  0.0000000000000000  0.0000000000000001
-1.7192538693417942  2.9778350531851956  -0.0000000000000002
0.0000000000000005  -0.0000000000000010  33.9125450036878391
Nb  C  I
3  2  2
Selective  dynamics
Direct
0.0000000000000000  0.0000000000000000  0.0653994576235006  T  T  T
0.6666666666666643  0.3333333333333357  0.1314048385740203  T  T  T
0.3333333333333357  0.6666666666666643  0.1974102195245470  T  T  T
0.3333333333333357  0.6666666666666643  0.0927803355688540  T  T  T
-0.0000000000000000  0.0000000000000000  0.1700293415791936  T  T  T
0.6666666666666643  0.3333333333333357  0.0000000000000000  T  T  T
0.6666666666666643  0.3333333333333357  0.2628096771480476  T  T  T

0.00000000E+00  0.00000000E+00  0.00000000E+00
0.00000000E+00  0.00000000E+00  0.00000000E+00
0.00000000E+00  0.00000000E+00  0.00000000E+00
0.00000000E+00  0.00000000E+00  0.00000000E+00
0.00000000E+00  0.00000000E+00  0.00000000E+00
0.00000000E+00  0.00000000E+00  0.00000000E+00
0.00000000E+00  0.00000000E+00  0.00000000E+00
