Hf3N2  (n=2)
1.00000000000000
3.4786272598303092  -0.0000000000000001  -0.0000000000000000
-1.7393136299151546  3.0125795774679496  0.0000000000000000
-0.0000000000000004  0.0000000000000000  33.9145426299298549
Hf  N  I
3  2  2
Selective  dynamics
Direct
0.0000000000000000  0.0000000000000000  0.0638549588037803  T  T  T
0.6666666666666643  0.3333333333333357  0.1314265494776632  T  T  T
0.3333333333333357  0.6666666666666643  0.1989981401515540  T  T  T
0.3333333333333357  0.6666666666666643  0.0929018849760703  T  T  T
0.0000000000000000  -0.0000000000000000  0.1699512139792562  T  T  T
0.6666666666666643  0.3333333333333357  0.0000000000000000  T  T  T
0.6666666666666643  0.3333333333333357  0.2628530989553342  T  T  T

0.00000000E+00  0.00000000E+00  0.00000000E+00
0.00000000E+00  0.00000000E+00  0.00000000E+00
0.00000000E+00  0.00000000E+00  0.00000000E+00
0.00000000E+00  0.00000000E+00  0.00000000E+00
0.00000000E+00  0.00000000E+00  0.00000000E+00
0.00000000E+00  0.00000000E+00  0.00000000E+00
0.00000000E+00  0.00000000E+00  0.00000000E+00
