Hf3C2  (n=2)
1.00000000000000
3.5070788254237009  0.0000000000000000  0.0000000000000000
-1.7535394127118502  3.0372193563570664  -0.0000000000000001
0.0000000000000000  -0.0000000000000017  34.1212552907389153
Hf  C  I
3  2  2
Selective  dynamics
Direct
0.0000000000000000  0.0000000000000000  0.0631735099866719  T  T  T
0.6666666666666643  0.3333333333333357  0.1336594332919309  T  T  T
0.3333333333333357  0.6666666666666643  0.2041453565971897  T  T  T
0.3333333333333357  0.6666666666666643  0.0939444444259446  T  T  T
0.0000000000000000  -0.0000000000000000  0.1733744221579243  T  T  T
0.6666666666666643  0.3333333333333357  0.0000000000000000  T  T  T
0.6666666666666643  0.3333333333333357  0.2673188665838615  T  T  T

0.00000000E+00  0.00000000E+00  0.00000000E+00
0.00000000E+00  0.00000000E+00  0.00000000E+00
0.00000000E+00  0.00000000E+00  0.00000000E+00
0.00000000E+00  0.00000000E+00  0.00000000E+00
0.00000000E+00  0.00000000E+00  0.00000000E+00
0.00000000E+00  0.00000000E+00  0.00000000E+00
0.00000000E+00  0.00000000E+00  0.00000000E+00
