Zr3N2  (n=2)
1.00000000000000
3.5156479993775958  0.0000000000000000  0.0000000000000000
-1.7578239996887979  3.0446404787443102  0.0000000000000000
0.0000000000000005  -0.0000000000000001  34.1132233956147459
Zr  N  I
3  2  2
Selective  dynamics
Direct
0.0000000000000000  0.0000000000000000  0.0644349169955715  T  T  T
0.6666666666666643  0.3333333333333357  0.1335731790855266  T  T  T
0.3333333333333357  0.6666666666666643  0.2027114411754885  T  T  T
0.3333333333333357  0.6666666666666643  0.0944310993541051  T  T  T
-0.0000000000000000  -0.0000000000000000  0.1727152588169550  T  T  T
0.6666666666666643  0.3333333333333357  0.0000000000000000  T  T  T
0.6666666666666643  0.3333333333333357  0.2671463581710736  T  T  T

0.00000000E+00  0.00000000E+00  0.00000000E+00
0.00000000E+00  0.00000000E+00  0.00000000E+00
0.00000000E+00  0.00000000E+00  0.00000000E+00
0.00000000E+00  0.00000000E+00  0.00000000E+00
0.00000000E+00  0.00000000E+00  0.00000000E+00
0.00000000E+00  0.00000000E+00  0.00000000E+00
0.00000000E+00  0.00000000E+00  0.00000000E+00
