Sc3C2  (n=2)
1.00000000000000
3.4838375021150081  0.0000000000000000  0.0000000000000000
-1.7419187510575040  3.0170917796772487  0.0000000000000000
-0.0000000000000001  0.0000000000000004  34.5352036668473588
Sc  C  I
3  2  2
Selective  dynamics
Direct
0.0000000000000000  0.0000000000000000  0.0650846799727348  T  T  T
0.6666666666666643  0.3333333333333357  0.1380504913020181  T  T  T
0.3333333333333357  0.6666666666666643  0.2110163026313096  T  T  T
0.3333333333333357  0.6666666666666643  0.0965629615513077  T  T  T
-0.0000000000000000  0.0000000000000000  0.1795380210527286  T  T  T
0.6666666666666643  0.3333333333333357  0.0000000000000000  T  T  T
0.6666666666666643  0.3333333333333357  0.2761009826040445  T  T  T

0.00000000E+00  0.00000000E+00  0.00000000E+00
0.00000000E+00  0.00000000E+00  0.00000000E+00
0.00000000E+00  0.00000000E+00  0.00000000E+00
0.00000000E+00  0.00000000E+00  0.00000000E+00
0.00000000E+00  0.00000000E+00  0.00000000E+00
0.00000000E+00  0.00000000E+00  0.00000000E+00
0.00000000E+00  0.00000000E+00  0.00000000E+00
