Ta3C2  (n=2)
1.00000000000000
3.4244355839069542  0.0000000000000001  0.0000000000000001
-1.7122177919534771  2.9656482095992316  -0.0000000000000001
0.0000000000000010  -0.0000000000000006  33.8567912079935738
Ta  C  I
3  2  2
Selective  dynamics
Direct
0.0000000000000000  0.0000000000000000  0.0654905083159761  T  T  T
0.6666666666666643  0.3333333333333357  0.1307978531335611  T  T  T
0.3333333333333357  0.6666666666666643  0.1961051979511462  T  T  T
0.3333333333333357  0.6666666666666643  0.0920149804833392  T  T  T
0.0000000000000000  0.0000000000000000  0.1695807257837757  T  T  T
0.6666666666666643  0.3333333333333357  0.0000000000000000  T  T  T
0.6666666666666643  0.3333333333333357  0.2615957062671223  T  T  T

0.00000000E+00  0.00000000E+00  0.00000000E+00
0.00000000E+00  0.00000000E+00  0.00000000E+00
0.00000000E+00  0.00000000E+00  0.00000000E+00
0.00000000E+00  0.00000000E+00  0.00000000E+00
0.00000000E+00  0.00000000E+00  0.00000000E+00
0.00000000E+00  0.00000000E+00  0.00000000E+00
0.00000000E+00  0.00000000E+00  0.00000000E+00
