Ta3N2  (n=2)
1.00000000000000
3.3445432683851499  0.0000000000000000  0.0000000000000000
-1.6722716341925750  2.8964594345922534  0.0000000000000000
0.0000000000000002  0.0000000000000000  33.8805032038554401
Ta  N  I
3  2  2
Selective  dynamics
Direct
0.0000000000000000  -0.0000000000000000  0.0627884846199068  T  T  T
0.6666666666666643  0.3333333333333357  0.1310562471640673  T  T  T
0.3333333333333357  0.6666666666666643  0.1993240097082358  T  T  T
0.3333333333333357  0.6666666666666643  0.0974500782313679  T  T  T
-0.0000000000000000  0.0000000000000000  0.1646624160967747  T  T  T
0.6666666666666643  0.3333333333333357  0.0000000000000000  T  T  T
0.6666666666666643  0.3333333333333357  0.2621124943281505  T  T  T

0.00000000E+00  0.00000000E+00  0.00000000E+00
0.00000000E+00  0.00000000E+00  0.00000000E+00
0.00000000E+00  0.00000000E+00  0.00000000E+00
0.00000000E+00  0.00000000E+00  0.00000000E+00
0.00000000E+00  0.00000000E+00  0.00000000E+00
0.00000000E+00  0.00000000E+00  0.00000000E+00
0.00000000E+00  0.00000000E+00  0.00000000E+00
