Cr3N2  (n=2)
1.00000000000000
3.3020941874330982  0.0000000000000002  0.0000000000000000
-1.6510470937165491  2.8596974520356540  0.0000000000000000
0.0000000000000000  0.0000000000000001  32.7661923903933072
Cr  N  I
3  2  2
Selective  dynamics
Direct
0.0000000000000000  0.0000000000000000  0.0622352488646468  T  T  T
0.6666666666666643  0.3333333333333357  0.1185092289311869  T  T  T
0.3333333333333357  0.6666666666666643  0.1747832089977406  T  T  T
0.3333333333333357  0.6666666666666643  0.0858352409894454  T  T  T
0.0000000000000000  0.0000000000000000  0.1511832168729284  T  T  T
0.6666666666666643  0.3333333333333357  0.0000000000000000  T  T  T
0.6666666666666643  0.3333333333333357  0.2370184578623873  T  T  T

0.00000000E+00  0.00000000E+00  0.00000000E+00
0.00000000E+00  0.00000000E+00  0.00000000E+00
0.00000000E+00  0.00000000E+00  0.00000000E+00
0.00000000E+00  0.00000000E+00  0.00000000E+00
0.00000000E+00  0.00000000E+00  0.00000000E+00
0.00000000E+00  0.00000000E+00  0.00000000E+00
0.00000000E+00  0.00000000E+00  0.00000000E+00
