Mo2N  (n=1)
1.00000000000000
2.9614484777386054  0.0000000000000002  0.0000000000000002
-1.4807242388693023  2.5646896138555708  -0.0000000000000005
0.0000000000000020  -0.0000000000000061  32.3632132421174390
Mo  N  O  H
2  1  2  2
Selective  dynamics
Direct
0.0000000000000000  0.0000000000000000  0.0751543752867325  T  T  T
0.6666666666666643  0.3333333333333357  0.1523636151869381  T  T  T
0.3333333333333357  0.6666666666666643  0.1137589952368389  T  T  T
0.3333333333333357  0.6666666666666643  0.0304919848889931  T  T  T
0.3333333333333357  0.6666666666666643  0.1970260055846775  T  T  T
0.3333333333333357  0.6666666666666643  0.0000000000000000  T  T  T
0.3333333333333357  0.6666666666666643  0.2275179904736705  T  T  T

0.00000000E+00  0.00000000E+00  0.00000000E+00
0.00000000E+00  0.00000000E+00  0.00000000E+00
0.00000000E+00  0.00000000E+00  0.00000000E+00
0.00000000E+00  0.00000000E+00  0.00000000E+00
0.00000000E+00  0.00000000E+00  0.00000000E+00
0.00000000E+00  0.00000000E+00  0.00000000E+00
0.00000000E+00  0.00000000E+00  0.00000000E+00
