Nb2C  (n=1)
1.00000000000000
3.0420401191963342  -0.0000000000000001  0.0000000000000000
-1.5210200595981671  2.6344840226574981  0.0000000000000000
0.0000000000000001  0.0000000000000001  32.4132545498502012
Nb  C  O  H
2  1  2  2
Selective  dynamics
Direct
-0.0000000000000000  0.0000000000000000  0.0730190002716296  T  T  T
0.6666666666666643  0.3333333333333357  0.1556915890475843  T  T  T
0.3333333333333357  0.6666666666666643  0.1143552946596111  T  T  T
0.3333333333333357  0.6666666666666643  0.0301479264231575  T  T  T
0.3333333333333357  0.6666666666666643  0.1985626628960563  T  T  T
0.3333333333333357  0.6666666666666643  0.0000000000000000  T  T  T
0.3333333333333357  0.6666666666666643  0.2287105893192223  T  T  T

0.00000000E+00  0.00000000E+00  0.00000000E+00
0.00000000E+00  0.00000000E+00  0.00000000E+00
0.00000000E+00  0.00000000E+00  0.00000000E+00
0.00000000E+00  0.00000000E+00  0.00000000E+00
0.00000000E+00  0.00000000E+00  0.00000000E+00
0.00000000E+00  0.00000000E+00  0.00000000E+00
0.00000000E+00  0.00000000E+00  0.00000000E+00
