Ti2N  (n=1)
1.00000000000000
2.9204706059822989  0.0000000000000000  0.0000000000000000
-1.4602353029911495  2.5292017358334822  0.0000000000000000
0.0000000000000000  0.0000000000000004  32.0403774647212458
Ti  N  O  H
2  1  2  2
Selective  dynamics
Direct
-0.0000000000000000  -0.0000000000000000  0.0712592940712695  T  T  T
0.6666666666666643  0.3333333333333357  0.1484752415930873  T  T  T
0.3333333333333357  0.6666666666666643  0.1098672678321785  T  T  T
0.3333333333333357  0.6666666666666643  0.0304679904675974  T  T  T
0.3333333333333357  0.6666666666666643  0.1892665451967594  T  T  T
0.3333333333333357  0.6666666666666643  0.0000000000000000  T  T  T
0.3333333333333357  0.6666666666666643  0.2197345356643569  T  T  T

0.00000000E+00  0.00000000E+00  0.00000000E+00
0.00000000E+00  0.00000000E+00  0.00000000E+00
0.00000000E+00  0.00000000E+00  0.00000000E+00
0.00000000E+00  0.00000000E+00  0.00000000E+00
0.00000000E+00  0.00000000E+00  0.00000000E+00
0.00000000E+00  0.00000000E+00  0.00000000E+00
0.00000000E+00  0.00000000E+00  0.00000000E+00
