Sc2N
1.00000000000000
3.1436503049101092  0.0000000000000003  0.0000000000000002
-1.5718251524550546  2.7224810247172648  0.0000000000000000
0.0000000000000004  0.0000000000000006  32.1294847932524661
Sc  N  O  H
2  1  2  2
Selective  dynamics
Direct
0.0000000000000000  -0.0000000000000000  0.0714047878546106  T  T  T
0.6666666666666643  0.3333333333333357  0.1504937218516432  T  T  T
0.3333333333333357  0.6666666666666643  0.1109492548531269  T  T  T
0.3333333333333357  0.6666666666666643  0.0302475969445785  T  T  T
0.3333333333333357  0.6666666666666643  0.1916509127616753  T  T  T
0.3333333333333357  0.6666666666666643  0.0000000000000000  T  T  T
0.3333333333333357  0.6666666666666643  0.2218985097062537  T  T  T

0.00000000E+00  0.00000000E+00  0.00000000E+00
0.00000000E+00  0.00000000E+00  0.00000000E+00
0.00000000E+00  0.00000000E+00  0.00000000E+00
0.00000000E+00  0.00000000E+00  0.00000000E+00
0.00000000E+00  0.00000000E+00  0.00000000E+00
0.00000000E+00  0.00000000E+00  0.00000000E+00
0.00000000E+00  0.00000000E+00  0.00000000E+00
