Zr2C  (n=1)
1.00000000000000
3.2487987758166033  -0.0000000000000009  0.0000000000000004
-1.6243993879083023  2.8135422717668437  -0.0000000000000001
0.0000000000000026  -0.0000000000000010  32.3823358062543107
Zr  C  O  H
2  1  2  2
Selective  dynamics
Direct
-0.0000000000000000  -0.0000000000000000  0.0738979517320726  T  T  T
0.6666666666666643  0.3333333333333357  0.1540762083292355  T  T  T
0.3333333333333357  0.6666666666666643  0.1139870800306580  T  T  T
0.3333333333333357  0.6666666666666643  0.0301620932791530  T  T  T
0.3333333333333357  0.6666666666666643  0.1978120667821553  T  T  T
0.3333333333333357  0.6666666666666643  0.0000000000000000  T  T  T
0.3333333333333357  0.6666666666666643  0.2279741600613162  T  T  T

0.00000000E+00  0.00000000E+00  0.00000000E+00
0.00000000E+00  0.00000000E+00  0.00000000E+00
0.00000000E+00  0.00000000E+00  0.00000000E+00
0.00000000E+00  0.00000000E+00  0.00000000E+00
0.00000000E+00  0.00000000E+00  0.00000000E+00
0.00000000E+00  0.00000000E+00  0.00000000E+00
0.00000000E+00  0.00000000E+00  0.00000000E+00
