Nb2N  (n=1)
1.00000000000000
2.9766307754936641  0.0000000000000001  0.0000000000000000
-1.4883153877468323  2.5778378693238597  0.0000000000000000
-0.0000000000000001  0.0000000000000001  32.5499520431427456
Nb  N  O  H
2  1  2  2
Selective  dynamics
Direct
0.0000000000000000  0.0000000000000000  0.0730847003075874  T  T  T
0.6666666666666643  0.3333333333333357  0.1588650129557623  T  T  T
0.3333333333333357  0.6666666666666643  0.1159748566316749  T  T  T
0.3333333333333357  0.6666666666666643  0.0303806107036123  T  T  T
0.3333333333333357  0.6666666666666643  0.2015691025597375  T  T  T
0.3333333333333357  0.6666666666666643  0.0000000000000000  T  T  T
0.3333333333333357  0.6666666666666643  0.2319497132633498  T  T  T

0.00000000E+00  0.00000000E+00  0.00000000E+00
0.00000000E+00  0.00000000E+00  0.00000000E+00
0.00000000E+00  0.00000000E+00  0.00000000E+00
0.00000000E+00  0.00000000E+00  0.00000000E+00
0.00000000E+00  0.00000000E+00  0.00000000E+00
0.00000000E+00  0.00000000E+00  0.00000000E+00
0.00000000E+00  0.00000000E+00  0.00000000E+00
