Ta2C  (n=1)
1.00000000000000
3.0136290295513621  0.0000000000000000  0.0000000000000003
-1.5068145147756813  2.6098792972786744  -0.0000000000000010
0.0000000000000030  -0.0000000000000060  32.4201912477280700
Ta  C  O  H
2  1  2  2
Selective  dynamics
Direct
-0.0000000000000000  -0.0000000000000000  0.0731152280276939  T  T  T
0.6666666666666643  0.3333333333333357  0.1557603881285821  T  T  T
0.3333333333333357  0.6666666666666643  0.1144378080781340  T  T  T
0.3333333333333357  0.6666666666666643  0.0302570247654358  T  T  T
0.3333333333333357  0.6666666666666643  0.1986185913908403  T  T  T
0.3333333333333357  0.6666666666666643  0.0000000000000000  T  T  T
0.3333333333333357  0.6666666666666643  0.2288756161562760  T  T  T

0.00000000E+00  0.00000000E+00  0.00000000E+00
0.00000000E+00  0.00000000E+00  0.00000000E+00
0.00000000E+00  0.00000000E+00  0.00000000E+00
0.00000000E+00  0.00000000E+00  0.00000000E+00
0.00000000E+00  0.00000000E+00  0.00000000E+00
0.00000000E+00  0.00000000E+00  0.00000000E+00
0.00000000E+00  0.00000000E+00  0.00000000E+00
