Ta2N  (n=1)
1.00000000000000
2.9510224930932325  0.0000000000000000  0.0000000000000000
-1.4755112465466163  2.5556604462521118  0.0000000000000000
0.0000000000000000  0.0000000000000000  32.5629615874621408
Ta  N  O  H
2  1  2  2
Selective  dynamics
Direct
-0.0000000000000000  -0.0000000000000000  0.0730819419596741  T  T  T
0.6666666666666643  0.3333333333333357  0.1591746225161486  T  T  T
0.3333333333333357  0.6666666666666643  0.1161282822379114  T  T  T
0.3333333333333357  0.6666666666666643  0.0305467363428273  T  T  T
0.3333333333333357  0.6666666666666643  0.2017098281329954  T  T  T
0.3333333333333357  0.6666666666666643  0.0000000000000000  T  T  T
0.3333333333333357  0.6666666666666643  0.2322565644758227  T  T  T

0.00000000E+00  0.00000000E+00  0.00000000E+00
0.00000000E+00  0.00000000E+00  0.00000000E+00
0.00000000E+00  0.00000000E+00  0.00000000E+00
0.00000000E+00  0.00000000E+00  0.00000000E+00
0.00000000E+00  0.00000000E+00  0.00000000E+00
0.00000000E+00  0.00000000E+00  0.00000000E+00
0.00000000E+00  0.00000000E+00  0.00000000E+00
