Hf2C  (n=1)
1.00000000000000
3.2001046649528910  0.0000000000000007  0.0000000000000001
-1.6000523324764451  2.7713719347332408  -0.0000000000000002
0.0000000000000006  -0.0000000000000045  32.2862091129357296
Hf  C  O  H
2  1  2  2
Selective  dynamics
Direct
-0.0000000000000000  0.0000000000000000  0.0734825202830852  T  T  T
0.6666666666666643  0.3333333333333357  0.1521930642195392  T  T  T
0.3333333333333357  0.6666666666666643  0.1128377922513122  T  T  T
0.3333333333333357  0.6666666666666643  0.0303584988067172  T  T  T
0.3333333333333357  0.6666666666666643  0.1953170856959072  T  T  T
0.3333333333333357  0.6666666666666643  0.0000000000000000  T  T  T
0.3333333333333357  0.6666666666666643  0.2256755845026243  T  T  T

0.00000000E+00  0.00000000E+00  0.00000000E+00
0.00000000E+00  0.00000000E+00  0.00000000E+00
0.00000000E+00  0.00000000E+00  0.00000000E+00
0.00000000E+00  0.00000000E+00  0.00000000E+00
0.00000000E+00  0.00000000E+00  0.00000000E+00
0.00000000E+00  0.00000000E+00  0.00000000E+00
0.00000000E+00  0.00000000E+00  0.00000000E+00
