Mo2C  (n=1)
1.00000000000000
2.9998983477068824  -0.0000000000000001  0.0000000000000000
-1.4999491738534414  2.5979881780179879  0.0000000000000000
0.0000000000000001  -0.0000000000000001  32.3221435691568999
Mo  C  O  H
2  1  2  2
Selective  dynamics
Direct
0.0000000000000000  -0.0000000000000000  0.0761571953948799  T  T  T
0.6666666666666643  0.3333333333333357  0.1503792517776394  T  T  T
0.3333333333333357  0.6666666666666643  0.1132682235862596  T  T  T
0.3333333333333357  0.6666666666666643  0.0303436455750426  T  T  T
0.3333333333333357  0.6666666666666643  0.1961928015974765  T  T  T
0.3333333333333357  0.6666666666666643  0.0000000000000000  T  T  T
0.3333333333333357  0.6666666666666643  0.2265364471725193  T  T  T

0.00000000E+00  0.00000000E+00  0.00000000E+00
0.00000000E+00  0.00000000E+00  0.00000000E+00
0.00000000E+00  0.00000000E+00  0.00000000E+00
0.00000000E+00  0.00000000E+00  0.00000000E+00
0.00000000E+00  0.00000000E+00  0.00000000E+00
0.00000000E+00  0.00000000E+00  0.00000000E+00
0.00000000E+00  0.00000000E+00  0.00000000E+00
