Ti2C  (n=1)
1.00000000000000
2.9941122449029356  0.0000000000000000  0.0000000000000000
-1.4970561224514678  2.5929772659385328  0.0000000000000000
0.0000000000000001  -0.0000000000000001  31.9909238365044359
Ti  C  O  H
2  1  2  2
Selective  dynamics
Direct
-0.0000000000000000  -0.0000000000000000  0.0717440897361832  T  T  T
0.6666666666666643  0.3333333333333357  0.1467842613746770  T  T  T
0.3333333333333357  0.6666666666666643  0.1092641755554342  T  T  T
0.3333333333333357  0.6666666666666643  0.0305419006719737  T  T  T
0.3333333333333357  0.6666666666666643  0.1879864504388866  T  T  T
0.3333333333333357  0.6666666666666643  0.0000000000000000  T  T  T
0.3333333333333357  0.6666666666666643  0.2185283511108604  T  T  T

0.00000000E+00  0.00000000E+00  0.00000000E+00
0.00000000E+00  0.00000000E+00  0.00000000E+00
0.00000000E+00  0.00000000E+00  0.00000000E+00
0.00000000E+00  0.00000000E+00  0.00000000E+00
0.00000000E+00  0.00000000E+00  0.00000000E+00
0.00000000E+00  0.00000000E+00  0.00000000E+00
0.00000000E+00  0.00000000E+00  0.00000000E+00
