Cr2C  (n=1)
1.00000000000000
2.7765756672270792  0.0000000000000000  0.0000000000000000
-1.3882878336135394  2.4045850633570844  0.0000000000000000
-0.0000000000000001  -0.0000000000000003  31.9217777141842447
Cr  C  O  H
2  1  2  2
Selective  dynamics
Direct
0.0000000000000000  0.0000000000000000  0.0711078610381614  T  T  T
0.6666666666666643  0.3333333333333357  0.1457277355304030  T  T  T
0.3333333333333357  0.6666666666666643  0.1084177982842822  T  T  T
0.3333333333333357  0.6666666666666643  0.0308064506584576  T  T  T
0.3333333333333357  0.6666666666666643  0.1860291459101068  T  T  T
0.3333333333333357  0.6666666666666643  0.0000000000000000  T  T  T
0.3333333333333357  0.6666666666666643  0.2168355965685644  T  T  T

0.00000000E+00  0.00000000E+00  0.00000000E+00
0.00000000E+00  0.00000000E+00  0.00000000E+00
0.00000000E+00  0.00000000E+00  0.00000000E+00
0.00000000E+00  0.00000000E+00  0.00000000E+00
0.00000000E+00  0.00000000E+00  0.00000000E+00
0.00000000E+00  0.00000000E+00  0.00000000E+00
0.00000000E+00  0.00000000E+00  0.00000000E+00
