Zr2N  (n=1)
1.00000000000000
3.1629991485055142  0.0000000000000005  -0.0000000000000001
-1.5814995742527571  2.7392376148742614  0.0000000000000003
-0.0000000000000003  0.0000000000000021  32.4664232760597145
Zr  N  O  H
2  1  2  2
Selective  dynamics
Direct
0.0000000000000000  0.0000000000000000  0.0734522394455062  T  T  T
0.6666666666666643  0.3333333333333357  0.1565214540708075  T  T  T
0.3333333333333357  0.6666666666666643  0.1149868467581609  T  T  T
0.3333333333333357  0.6666666666666643  0.0300858201195424  T  T  T
0.3333333333333357  0.6666666666666643  0.1998878733967792  T  T  T
0.3333333333333357  0.6666666666666643  0.0000000000000000  T  T  T
0.3333333333333357  0.6666666666666643  0.2299736935163213  T  T  T

0.00000000E+00  0.00000000E+00  0.00000000E+00
0.00000000E+00  0.00000000E+00  0.00000000E+00
0.00000000E+00  0.00000000E+00  0.00000000E+00
0.00000000E+00  0.00000000E+00  0.00000000E+00
0.00000000E+00  0.00000000E+00  0.00000000E+00
0.00000000E+00  0.00000000E+00  0.00000000E+00
0.00000000E+00  0.00000000E+00  0.00000000E+00
