Cr2N  (n=1)
1.00000000000000
2.8382780906581400  0.0000000000000000  0.0000000000000000
-1.4191390453290700  2.4580209296011959  0.0000000000000000
-0.0000000000000002  0.0000000000000000  31.8515492108186891
Cr  N  O  H
2  1  2  2
Selective  dynamics
Direct
0.0000000000000000  -0.0000000000000000  0.0714813938488295  T  T  T
0.6666666666666643  0.3333333333333357  0.1436274275610720  T  T  T
0.3333333333333357  0.6666666666666643  0.1075544107049548  T  T  T
0.3333333333333357  0.6666666666666643  0.0307810706451110  T  T  T
0.3333333333333357  0.6666666666666643  0.1843277507647906  T  T  T
0.3333333333333357  0.6666666666666643  0.0000000000000000  T  T  T
0.3333333333333357  0.6666666666666643  0.2151088214099015  T  T  T

0.00000000E+00  0.00000000E+00  0.00000000E+00
0.00000000E+00  0.00000000E+00  0.00000000E+00
0.00000000E+00  0.00000000E+00  0.00000000E+00
0.00000000E+00  0.00000000E+00  0.00000000E+00
0.00000000E+00  0.00000000E+00  0.00000000E+00
0.00000000E+00  0.00000000E+00  0.00000000E+00
0.00000000E+00  0.00000000E+00  0.00000000E+00
