Hf2N  (n=1)
1.00000000000000
3.1038951496435523  -0.0000000000000006  0.0000000000000000
-1.5519475748217766  2.6880520503796919  0.0000000000000000
0.0000000000000000  0.0000000000000001  32.3999328234449990
Hf  N  O  H
2  1  2  2
Selective  dynamics
Direct
0.0000000000000000  0.0000000000000000  0.0730901852628089  T  T  T
0.6666666666666643  0.3333333333333357  0.1553032766548132  T  T  T
0.3333333333333357  0.6666666666666643  0.1141967309588150  T  T  T
0.3333333333333357  0.6666666666666643  0.0303159581029185  T  T  T
0.3333333333333357  0.6666666666666643  0.1980775038147036  T  T  T
0.3333333333333357  0.6666666666666643  0.0000000000000000  T  T  T
0.3333333333333357  0.6666666666666643  0.2283934619176220  T  T  T

0.00000000E+00  0.00000000E+00  0.00000000E+00
0.00000000E+00  0.00000000E+00  0.00000000E+00
0.00000000E+00  0.00000000E+00  0.00000000E+00
0.00000000E+00  0.00000000E+00  0.00000000E+00
0.00000000E+00  0.00000000E+00  0.00000000E+00
0.00000000E+00  0.00000000E+00  0.00000000E+00
0.00000000E+00  0.00000000E+00  0.00000000E+00
