Sc2C  (n=1)
1.00000000000000
3.2189900428388198  -0.0000000000000001  0.0000000000000000
-1.6094950214194097  2.7877271517428479  0.0000000000000000
-0.0000000000000002  0.0000000000000003  32.2238235675904860
Sc  C  O  H
2  1  2  2
Selective  dynamics
Direct
0.0000000000000000  -0.0000000000000000  0.0715665977947665  T  T  T
0.6666666666666643  0.3333333333333357  0.1526098892828235  T  T  T
0.3333333333333357  0.6666666666666643  0.1120882435387949  T  T  T
0.3333333333333357  0.6666666666666643  0.0302237450625763  T  T  T
0.3333333333333357  0.6666666666666643  0.1939527420150136  T  T  T
0.3333333333333357  0.6666666666666643  0.0000000000000000  T  T  T
0.3333333333333357  0.6666666666666643  0.2241764870775899  T  T  T

0.00000000E+00  0.00000000E+00  0.00000000E+00
0.00000000E+00  0.00000000E+00  0.00000000E+00
0.00000000E+00  0.00000000E+00  0.00000000E+00
0.00000000E+00  0.00000000E+00  0.00000000E+00
0.00000000E+00  0.00000000E+00  0.00000000E+00
0.00000000E+00  0.00000000E+00  0.00000000E+00
0.00000000E+00  0.00000000E+00  0.00000000E+00
