Ti4N3  (n=3)
1.00000000000000
2.9763571932650326  0.0000000000000000  0.0000000000000000
-1.4881785966325163  2.5776009401485616  0.0000000000000000
0.0000000000000000  0.0000000000000003  36.8202554327412557
Ti  N  H
4  5  2
Selective  dynamics
Direct
0.0000000000000000  0.0000000000000000  0.0583719046948918  T  T  T
0.6666666666666643  0.3333333333333357  0.1257797223921258  T  T  T
0.3333333333333357  0.6666666666666643  0.1952461720189831  T  T  T
-0.0000000000000000  -0.0000000000000000  0.2626539897162173  T  T  T
0.3333333333333357  0.6666666666666643  0.0941226230046897  T  T  T
0.0000000000000000  0.0000000000000000  0.1605129472055506  T  T  T
0.6666666666666643  0.3333333333333357  0.2269032714064113  T  T  T
0.3333333333333357  0.6666666666666643  0.0278337932951923  T  T  T
0.6666666666666643  0.3333333333333357  0.2931921011159166  T  T  T
0.3333333333333357  0.6666666666666643  0.0000000000000000  T  T  T
0.6666666666666643  0.3333333333333357  0.3210258944111090  T  T  T

0.00000000E+00  0.00000000E+00  0.00000000E+00
0.00000000E+00  0.00000000E+00  0.00000000E+00
0.00000000E+00  0.00000000E+00  0.00000000E+00
0.00000000E+00  0.00000000E+00  0.00000000E+00
0.00000000E+00  0.00000000E+00  0.00000000E+00
0.00000000E+00  0.00000000E+00  0.00000000E+00
0.00000000E+00  0.00000000E+00  0.00000000E+00
0.00000000E+00  0.00000000E+00  0.00000000E+00
0.00000000E+00  0.00000000E+00  0.00000000E+00
0.00000000E+00  0.00000000E+00  0.00000000E+00
0.00000000E+00  0.00000000E+00  0.00000000E+00
