Ta4C3  (n=3)
1.00000000000000
3.1242323796577836  0.0000000000000000  0.0000000000000000
-1.5621161898288918  2.7056646082437963  0.0000000000000000
0.0000000000000000  -0.0000000000000005  37.2752626727916834
Ta  C  N  H
4  3  2  2
Selective  dynamics
Direct
0.0000000000000000  0.0000000000000000  0.0600900221324583  T  T  T
0.6666666666666643  0.3333333333333357  0.1282396198647490  T  T  T
0.3333333333333357  0.6666666666666643  0.2010742948498412  T  T  T
0.0000000000000000  -0.0000000000000000  0.2692238925821320  T  T  T
0.3333333333333357  0.6666666666666643  0.0950813413507097  T  T  T
0.0000000000000000  0.0000000000000000  0.1646569573572912  T  T  T
0.6666666666666643  0.3333333333333357  0.2342325733638725  T  T  T
0.3333333333333357  0.6666666666666643  0.0274860210804798  T  T  T
0.6666666666666643  0.3333333333333357  0.3018278936341104  T  T  T
0.3333333333333357  0.6666666666666643  0.0000000000000000  T  T  T
0.6666666666666643  0.3333333333333357  0.3293139147145905  T  T  T

0.00000000E+00  0.00000000E+00  0.00000000E+00
0.00000000E+00  0.00000000E+00  0.00000000E+00
0.00000000E+00  0.00000000E+00  0.00000000E+00
0.00000000E+00  0.00000000E+00  0.00000000E+00
0.00000000E+00  0.00000000E+00  0.00000000E+00
0.00000000E+00  0.00000000E+00  0.00000000E+00
0.00000000E+00  0.00000000E+00  0.00000000E+00
0.00000000E+00  0.00000000E+00  0.00000000E+00
0.00000000E+00  0.00000000E+00  0.00000000E+00
0.00000000E+00  0.00000000E+00  0.00000000E+00
0.00000000E+00  0.00000000E+00  0.00000000E+00
