Zr4N3  (n=3)
1.00000000000000
3.2434852174457185  0.0000000000000000  0.0000000000000000
-1.6217426087228592  2.8089405953164923  0.0000000000000000
-0.0000000000000001  -0.0000000000000004  37.5562141783683927
Zr  N  H
4  5  2
Selective  dynamics
Direct
-0.0000000000000000  -0.0000000000000000  0.0586921451034333  T  T  T
0.6666666666666643  0.3333333333333357  0.1301779437433980  T  T  T
0.3333333333333357  0.6666666666666643  0.2041532569131503  T  T  T
-0.0000000000000000  0.0000000000000000  0.2756390555531150  T  T  T
0.3333333333333357  0.6666666666666643  0.0965953854832894  T  T  T
-0.0000000000000000  -0.0000000000000000  0.1671656003282702  T  T  T
0.6666666666666643  0.3333333333333357  0.2377358151732590  T  T  T
0.3333333333333357  0.6666666666666643  0.0273193173628592  T  T  T
0.6666666666666643  0.3333333333333357  0.3070118832936813  T  T  T
0.3333333333333357  0.6666666666666643  0.0000000000000000  T  T  T
0.6666666666666643  0.3333333333333357  0.3343312006565484  T  T  T

0.00000000E+00  0.00000000E+00  0.00000000E+00
0.00000000E+00  0.00000000E+00  0.00000000E+00
0.00000000E+00  0.00000000E+00  0.00000000E+00
0.00000000E+00  0.00000000E+00  0.00000000E+00
0.00000000E+00  0.00000000E+00  0.00000000E+00
0.00000000E+00  0.00000000E+00  0.00000000E+00
0.00000000E+00  0.00000000E+00  0.00000000E+00
0.00000000E+00  0.00000000E+00  0.00000000E+00
0.00000000E+00  0.00000000E+00  0.00000000E+00
0.00000000E+00  0.00000000E+00  0.00000000E+00
0.00000000E+00  0.00000000E+00  0.00000000E+00
