Mo4C3  (n=3)
1.00000000000000
3.0245330421334065  0.0000000000000000  0.0000000000000000
-1.5122665210667032  2.6193224491611731  0.0000000000000000
-0.0000000000000002  -0.0000000000000004  37.2287954181662144
Mo  C  N  H
4  3  2  2
Selective  dynamics
Direct
0.0000000000000000  -0.0000000000000000  0.0600058790588910  T  T  T
0.6666666666666643  0.3333333333333357  0.1325307938321345  T  T  T
0.3333333333333357  0.6666666666666643  0.1959460016378405  T  T  T
0.0000000000000000  0.0000000000000000  0.2684709164110760  T  T  T
0.3333333333333357  0.6666666666666643  0.0944296383253157  T  T  T
0.0000000000000000  0.0000000000000000  0.1642383977349836  T  T  T
0.6666666666666643  0.3333333333333357  0.2340471571446514  T  T  T
0.3333333333333357  0.6666666666666643  0.0275165491824389  T  T  T
0.6666666666666643  0.3333333333333357  0.3009602462875359  T  T  T
0.3333333333333357  0.6666666666666643  0.0000000000000000  T  T  T
0.6666666666666643  0.3333333333333357  0.3284767954699667  T  T  T

0.00000000E+00  0.00000000E+00  0.00000000E+00
0.00000000E+00  0.00000000E+00  0.00000000E+00
0.00000000E+00  0.00000000E+00  0.00000000E+00
0.00000000E+00  0.00000000E+00  0.00000000E+00
0.00000000E+00  0.00000000E+00  0.00000000E+00
0.00000000E+00  0.00000000E+00  0.00000000E+00
0.00000000E+00  0.00000000E+00  0.00000000E+00
0.00000000E+00  0.00000000E+00  0.00000000E+00
0.00000000E+00  0.00000000E+00  0.00000000E+00
0.00000000E+00  0.00000000E+00  0.00000000E+00
0.00000000E+00  0.00000000E+00  0.00000000E+00
