Ti4C3  (n=3)
1.00000000000000
3.0487846009729744  0.0000000000000000  0.0000000000000000
-1.5243923004864872  2.6403249151852366  0.0000000000000000
0.0000000000000001  -0.0000000000000008  36.8741913299098485
Ti  C  N  H
4  3  2  2
Selective  dynamics
Direct
0.0000000000000000  0.0000000000000000  0.0572813830020396  T  T  T
0.6666666666666643  0.3333333333333357  0.1268488432652227  T  T  T
0.3333333333333357  0.6666666666666643  0.1951701868925536  T  T  T
-0.0000000000000000  -0.0000000000000000  0.2647376471557288  T  T  T
0.3333333333333357  0.6666666666666643  0.0936824144057244  T  T  T
0.0000000000000000  -0.0000000000000000  0.1610095150788842  T  T  T
0.6666666666666643  0.3333333333333357  0.2283366157520441  T  T  T
0.3333333333333357  0.6666666666666643  0.0279408045021368  T  T  T
0.6666666666666643  0.3333333333333357  0.2940782256556317  T  T  T
0.3333333333333357  0.6666666666666643  0.0000000000000000  T  T  T
0.6666666666666643  0.3333333333333357  0.3220190301577763  T  T  T

0.00000000E+00  0.00000000E+00  0.00000000E+00
0.00000000E+00  0.00000000E+00  0.00000000E+00
0.00000000E+00  0.00000000E+00  0.00000000E+00
0.00000000E+00  0.00000000E+00  0.00000000E+00
0.00000000E+00  0.00000000E+00  0.00000000E+00
0.00000000E+00  0.00000000E+00  0.00000000E+00
0.00000000E+00  0.00000000E+00  0.00000000E+00
0.00000000E+00  0.00000000E+00  0.00000000E+00
0.00000000E+00  0.00000000E+00  0.00000000E+00
0.00000000E+00  0.00000000E+00  0.00000000E+00
0.00000000E+00  0.00000000E+00  0.00000000E+00
