Hf4N3  (n=3)
1.00000000000000
3.1915344987507765  0.0000000000000000  0.0000000000000000
-1.5957672493753883  2.7639499531705378  0.0000000000000000
0.0000000000000000  -0.0000000000000004  37.3684947659400279
Hf  N  H
4  5  2
Selective  dynamics
Direct
-0.0000000000000000  -0.0000000000000000  0.0584119298968884  T  T  T
0.6666666666666643  0.3333333333333357  0.1288988068375108  T  T  T
0.3333333333333357  0.6666666666666643  0.2020884283564915  T  T  T
-0.0000000000000000  0.0000000000000000  0.2725753052971057  T  T  T
0.3333333333333357  0.6666666666666643  0.0961314358585757  T  T  T
0.0000000000000000  -0.0000000000000000  0.1654936175969971  T  T  T
0.6666666666666643  0.3333333333333357  0.2348557993354104  T  T  T
0.3333333333333357  0.6666666666666643  0.0274157891677202  T  T  T
0.6666666666666643  0.3333333333333357  0.3035714460262819  T  T  T
0.3333333333333357  0.6666666666666643  0.0000000000000000  T  T  T
0.6666666666666643  0.3333333333333357  0.3309872351940021  T  T  T

0.00000000E+00  0.00000000E+00  0.00000000E+00
0.00000000E+00  0.00000000E+00  0.00000000E+00
0.00000000E+00  0.00000000E+00  0.00000000E+00
0.00000000E+00  0.00000000E+00  0.00000000E+00
0.00000000E+00  0.00000000E+00  0.00000000E+00
0.00000000E+00  0.00000000E+00  0.00000000E+00
0.00000000E+00  0.00000000E+00  0.00000000E+00
0.00000000E+00  0.00000000E+00  0.00000000E+00
0.00000000E+00  0.00000000E+00  0.00000000E+00
0.00000000E+00  0.00000000E+00  0.00000000E+00
0.00000000E+00  0.00000000E+00  0.00000000E+00
