Cr4N3  (n=3)
1.00000000000000
2.7578384477352147  0.0000000000000000  0.0000000000000000
-1.3789192238676073  2.3883581552899740  0.0000000000000000
0.0000000000000000  0.0000000000000006  36.9308683356506862
Cr  N  H
4  5  2
Selective  dynamics
Direct
-0.0000000000000000  -0.0000000000000000  0.0582582441817428  T  T  T
0.6666666666666643  0.3333333333333357  0.1283355792371259  T  T  T
0.3333333333333357  0.6666666666666643  0.1947239336672577  T  T  T
0.0000000000000000  0.0000000000000000  0.2648012687226333  T  T  T
0.3333333333333357  0.6666666666666643  0.0919497257573312  T  T  T
-0.0000000000000000  -0.0000000000000000  0.1615297564521918  T  T  T
0.6666666666666643  0.3333333333333357  0.2311097871470449  T  T  T
0.3333333333333357  0.6666666666666643  0.0277688805126961  T  T  T
0.6666666666666643  0.3333333333333357  0.2952906323916801  T  T  T
0.3333333333333357  0.6666666666666643  0.0000000000000000  T  T  T
0.6666666666666643  0.3333333333333357  0.3230595129043689  T  T  T

0.00000000E+00  0.00000000E+00  0.00000000E+00
0.00000000E+00  0.00000000E+00  0.00000000E+00
0.00000000E+00  0.00000000E+00  0.00000000E+00
0.00000000E+00  0.00000000E+00  0.00000000E+00
0.00000000E+00  0.00000000E+00  0.00000000E+00
0.00000000E+00  0.00000000E+00  0.00000000E+00
0.00000000E+00  0.00000000E+00  0.00000000E+00
0.00000000E+00  0.00000000E+00  0.00000000E+00
0.00000000E+00  0.00000000E+00  0.00000000E+00
0.00000000E+00  0.00000000E+00  0.00000000E+00
0.00000000E+00  0.00000000E+00  0.00000000E+00
