Mo4N3  (n=3)
1.00000000000000
2.8606674125980098  0.0000000000000000  0.0000000000000000
-1.4303337062990049  2.4774106511213914  0.0000000000000000
-0.0000000000000001  0.0000000000000000  38.2491175997106936
Mo  N  H
4  5  2
Selective  dynamics
Direct
0.0000000000000000  0.0000000000000000  0.0592533530085416  T  T  T
0.6666666666666643  0.3333333333333357  0.1359599983310747  T  T  T
0.3333333333333357  0.6666666666666643  0.2104301521128379  T  T  T
0.0000000000000000  0.0000000000000000  0.2871367974353710  T  T  T
0.3333333333333357  0.6666666666666643  0.0944342081490231  T  T  T
0.0000000000000000  0.0000000000000000  0.1731950752219606  T  T  T
0.6666666666666643  0.3333333333333357  0.2519559422948814  T  T  T
0.3333333333333357  0.6666666666666643  0.0267223695493713  T  T  T
0.6666666666666643  0.3333333333333357  0.3196677808945413  T  T  T
0.3333333333333357  0.6666666666666643  0.0000000000000000  T  T  T
0.6666666666666643  0.3333333333333357  0.3463901504439126  T  T  T

0.00000000E+00  0.00000000E+00  0.00000000E+00
0.00000000E+00  0.00000000E+00  0.00000000E+00
0.00000000E+00  0.00000000E+00  0.00000000E+00
0.00000000E+00  0.00000000E+00  0.00000000E+00
0.00000000E+00  0.00000000E+00  0.00000000E+00
0.00000000E+00  0.00000000E+00  0.00000000E+00
0.00000000E+00  0.00000000E+00  0.00000000E+00
0.00000000E+00  0.00000000E+00  0.00000000E+00
0.00000000E+00  0.00000000E+00  0.00000000E+00
0.00000000E+00  0.00000000E+00  0.00000000E+00
0.00000000E+00  0.00000000E+00  0.00000000E+00
