Nb4N3  (n=3)
1.00000000000000
3.0784558138530964  0.0000000000000000  0.0000000000000000
-1.5392279069265482  2.6660209393467613  0.0000000000000000
0.0000000000000000  0.0000000000000001  37.4441151688902067
Nb  N  H
4  5  2
Selective  dynamics
Direct
0.0000000000000000  0.0000000000000000  0.0599779932334628  T  T  T
0.6666666666666643  0.3333333333333357  0.1324655817614129  T  T  T
0.3333333333333357  0.6666666666666643  0.1998727606660023  T  T  T
-0.0000000000000000  0.0000000000000000  0.2723603491939525  T  T  T
0.3333333333333357  0.6666666666666643  0.0960181708119265  T  T  T
0.0000000000000000  0.0000000000000000  0.1661691712137076  T  T  T
0.6666666666666643  0.3333333333333357  0.2363201716154809  T  T  T
0.3333333333333357  0.6666666666666643  0.0273154254985556  T  T  T
0.6666666666666643  0.3333333333333357  0.3050229169288596  T  T  T
0.3333333333333357  0.6666666666666643  0.0000000000000000  T  T  T
0.6666666666666643  0.3333333333333357  0.3323383424274152  T  T  T

0.00000000E+00  0.00000000E+00  0.00000000E+00
0.00000000E+00  0.00000000E+00  0.00000000E+00
0.00000000E+00  0.00000000E+00  0.00000000E+00
0.00000000E+00  0.00000000E+00  0.00000000E+00
0.00000000E+00  0.00000000E+00  0.00000000E+00
0.00000000E+00  0.00000000E+00  0.00000000E+00
0.00000000E+00  0.00000000E+00  0.00000000E+00
0.00000000E+00  0.00000000E+00  0.00000000E+00
0.00000000E+00  0.00000000E+00  0.00000000E+00
0.00000000E+00  0.00000000E+00  0.00000000E+00
0.00000000E+00  0.00000000E+00  0.00000000E+00
