Hf4C3  (n=3)
1.00000000000000
3.2694267325171360  0.0000000000000000  0.0000000000000000
-1.6347133662585680  2.8314066064251544  -0.0000000000000001
-0.0000000000000003  0.0000000000000017  37.5043246367417993
Hf  C  N  H
4  3  2  2
Selective  dynamics
Direct
-0.0000000000000000  0.0000000000000000  0.0575373272652399  T  T  T
0.6666666666666643  0.3333333333333357  0.1306764786966376  T  T  T
0.3333333333333357  0.6666666666666643  0.2027337282023209  T  T  T
0.0000000000000000  0.0000000000000000  0.2758728796337265  T  T  T
0.3333333333333357  0.6666666666666643  0.0956494876321051  T  T  T
-0.0000000000000000  0.0000000000000000  0.1667051034494832  T  T  T
0.6666666666666643  0.3333333333333357  0.2377607192668456  T  T  T
0.3333333333333357  0.6666666666666643  0.0274839529142403  T  T  T
0.6666666666666643  0.3333333333333357  0.3059262539847261  T  T  T
0.3333333333333357  0.6666666666666643  0.0000000000000000  T  T  T
0.6666666666666643  0.3333333333333357  0.3334102068989587  T  T  T

0.00000000E+00  0.00000000E+00  0.00000000E+00
0.00000000E+00  0.00000000E+00  0.00000000E+00
0.00000000E+00  0.00000000E+00  0.00000000E+00
0.00000000E+00  0.00000000E+00  0.00000000E+00
0.00000000E+00  0.00000000E+00  0.00000000E+00
0.00000000E+00  0.00000000E+00  0.00000000E+00
0.00000000E+00  0.00000000E+00  0.00000000E+00
0.00000000E+00  0.00000000E+00  0.00000000E+00
0.00000000E+00  0.00000000E+00  0.00000000E+00
0.00000000E+00  0.00000000E+00  0.00000000E+00
0.00000000E+00  0.00000000E+00  0.00000000E+00
