Sc4N3  (n=3)
1.00000000000000
3.1994458153103098  0.0000000000000000  0.0000000000000000
-1.5997229076551549  2.7708013542670291  -0.0000000000000001
-0.0000000000000001  0.0000000000000001  37.3042869263556014
Sc  N  H
4  5  2
Selective  dynamics
Direct
-0.0000000000000000  -0.0000000000000000  0.0547944923023818  T  T  T
0.6666666666666643  0.3333333333333357  0.1288757977731163  T  T  T
0.3333333333333357  0.6666666666666643  0.2009599380136623  T  T  T
0.0000000000000000  0.0000000000000000  0.2750412434843967  T  T  T
0.3333333333333357  0.6666666666666643  0.0974635758723102  T  T  T
-0.0000000000000000  -0.0000000000000000  0.1649178678933893  T  T  T
0.6666666666666643  0.3333333333333357  0.2323721599144684  T  T  T
0.3333333333333357  0.6666666666666643  0.0275794058850926  T  T  T
0.6666666666666643  0.3333333333333357  0.3022563299016860  T  T  T
0.3333333333333357  0.6666666666666643  0.0000000000000000  T  T  T
0.6666666666666643  0.3333333333333357  0.3298357357867785  T  T  T

0.00000000E+00  0.00000000E+00  0.00000000E+00
0.00000000E+00  0.00000000E+00  0.00000000E+00
0.00000000E+00  0.00000000E+00  0.00000000E+00
0.00000000E+00  0.00000000E+00  0.00000000E+00
0.00000000E+00  0.00000000E+00  0.00000000E+00
0.00000000E+00  0.00000000E+00  0.00000000E+00
0.00000000E+00  0.00000000E+00  0.00000000E+00
0.00000000E+00  0.00000000E+00  0.00000000E+00
0.00000000E+00  0.00000000E+00  0.00000000E+00
0.00000000E+00  0.00000000E+00  0.00000000E+00
0.00000000E+00  0.00000000E+00  0.00000000E+00
