Cr4C3  (n=3)
1.00000000000000
2.7866516532999390  0.0000000000000000  0.0000000000000000
-1.3933258266499695  2.4133111232505127  0.0000000000000001
-0.0000000000000001  0.0000000000000006  36.7070661336676807
Cr  C  N  H
4  3  2  2
Selective  dynamics
Direct
0.0000000000000000  0.0000000000000000  0.0588080876899233  T  T  T
0.6666666666666643  0.3333333333333357  0.1258240951951397  T  T  T
0.3333333333333357  0.6666666666666643  0.1931081259482432  T  T  T
0.0000000000000000  0.0000000000000000  0.2601241334534596  T  T  T
0.3333333333333357  0.6666666666666643  0.0919268461428061  T  T  T
0.0000000000000000  0.0000000000000000  0.1594661105716915  T  T  T
0.6666666666666643  0.3333333333333357  0.2270053750005694  T  T  T
0.3333333333333357  0.6666666666666643  0.0279706762080862  T  T  T
0.6666666666666643  0.3333333333333357  0.2909615449352967  T  T  T
0.3333333333333357  0.6666666666666643  0.0000000000000000  T  T  T
0.6666666666666643  0.3333333333333357  0.3189322211433829  T  T  T

0.00000000E+00  0.00000000E+00  0.00000000E+00
0.00000000E+00  0.00000000E+00  0.00000000E+00
0.00000000E+00  0.00000000E+00  0.00000000E+00
0.00000000E+00  0.00000000E+00  0.00000000E+00
0.00000000E+00  0.00000000E+00  0.00000000E+00
0.00000000E+00  0.00000000E+00  0.00000000E+00
0.00000000E+00  0.00000000E+00  0.00000000E+00
0.00000000E+00  0.00000000E+00  0.00000000E+00
0.00000000E+00  0.00000000E+00  0.00000000E+00
0.00000000E+00  0.00000000E+00  0.00000000E+00
0.00000000E+00  0.00000000E+00  0.00000000E+00
