Zr4C3  (n=3)
1.00000000000000
3.3220523296997078  0.0000000000000000  0.0000000000000000
-1.6610261648498539  2.8769817104788697  0.0000000000000000
0.0000000000000000  0.0000000000000004  37.6573249043718477
Zr  C  N  H
4  3  2  2
Selective  dynamics
Direct
0.0000000000000000  0.0000000000000000  0.0575474414981271  T  T  T
0.6666666666666643  0.3333333333333357  0.1315998756916964  T  T  T
0.3333333333333357  0.6666666666666643  0.2045186599853475  T  T  T
0.0000000000000000  0.0000000000000000  0.2785710941789090  T  T  T
0.3333333333333357  0.6666666666666643  0.0961234559883099  T  T  T
0.0000000000000000  0.0000000000000000  0.1680592678385180  T  T  T
0.6666666666666643  0.3333333333333357  0.2399950796887264  T  T  T
0.3333333333333357  0.6666666666666643  0.0273824815783123  T  T  T
0.6666666666666643  0.3333333333333357  0.3087360540987240  T  T  T
0.3333333333333357  0.6666666666666643  0.0000000000000000  T  T  T
0.6666666666666643  0.3333333333333357  0.3361185356770361  T  T  T

0.00000000E+00  0.00000000E+00  0.00000000E+00
0.00000000E+00  0.00000000E+00  0.00000000E+00
0.00000000E+00  0.00000000E+00  0.00000000E+00
0.00000000E+00  0.00000000E+00  0.00000000E+00
0.00000000E+00  0.00000000E+00  0.00000000E+00
0.00000000E+00  0.00000000E+00  0.00000000E+00
0.00000000E+00  0.00000000E+00  0.00000000E+00
0.00000000E+00  0.00000000E+00  0.00000000E+00
0.00000000E+00  0.00000000E+00  0.00000000E+00
0.00000000E+00  0.00000000E+00  0.00000000E+00
0.00000000E+00  0.00000000E+00  0.00000000E+00
