Ta4N3  (n=3)
1.00000000000000
3.0545016039386441  0.0000000000000000  0.0000000000000000
-1.5272508019693221  2.6452759849966920  0.0000000000000000
0.0000000000000001  0.0000000000000002  37.4017465031415668
Ta  N  H
4  5  2
Selective  dynamics
Direct
0.0000000000000000  0.0000000000000000  0.0597566951162462  T  T  T
0.6666666666666643  0.3333333333333357  0.1322675729407823  T  T  T
0.3333333333333357  0.6666666666666643  0.1993144429444968  T  T  T
0.0000000000000000  0.0000000000000000  0.2718253207690247  T  T  T
0.3333333333333357  0.6666666666666643  0.0960361901284013  T  T  T
0.0000000000000000  0.0000000000000000  0.1657910079426355  T  T  T
0.6666666666666643  0.3333333333333357  0.2355458257568616  T  T  T
0.3333333333333357  0.6666666666666643  0.0273112999204726  T  T  T
0.6666666666666643  0.3333333333333357  0.3042707159647984  T  T  T
0.3333333333333357  0.6666666666666643  0.0000000000000000  T  T  T
0.6666666666666643  0.3333333333333357  0.3315820158852709  T  T  T

0.00000000E+00  0.00000000E+00  0.00000000E+00
0.00000000E+00  0.00000000E+00  0.00000000E+00
0.00000000E+00  0.00000000E+00  0.00000000E+00
0.00000000E+00  0.00000000E+00  0.00000000E+00
0.00000000E+00  0.00000000E+00  0.00000000E+00
0.00000000E+00  0.00000000E+00  0.00000000E+00
0.00000000E+00  0.00000000E+00  0.00000000E+00
0.00000000E+00  0.00000000E+00  0.00000000E+00
0.00000000E+00  0.00000000E+00  0.00000000E+00
0.00000000E+00  0.00000000E+00  0.00000000E+00
0.00000000E+00  0.00000000E+00  0.00000000E+00
