Sc4C3  (n=3)
1.00000000000000
3.3158008232122222  0.0000000000000001  0.0000000000000000
-1.6579004116061111  2.8715677470643817  -0.0000000000000002
0.0000000000000006  -0.0000000000000001  37.4172040875660556
Sc  C  N  H
4  3  2  2
Selective  dynamics
Direct
0.0000000000000000  0.0000000000000000  0.0521596596708062  T  T  T
0.6666666666666643  0.3333333333333357  0.1296220183330382  T  T  T
0.3333333333333357  0.6666666666666643  0.2022361306218187  T  T  T
0.0000000000000000  0.0000000000000000  0.2796984892840584  T  T  T
0.3333333333333357  0.6666666666666643  0.0976681563361663  T  T  T
0.0000000000000000  0.0000000000000000  0.1659290744774284  T  T  T
0.6666666666666643  0.3333333333333357  0.2341899926186830  T  T  T
0.3333333333333357  0.6666666666666643  0.0276047591256597  T  T  T
0.6666666666666643  0.3333333333333357  0.3042533898291974  T  T  T
0.3333333333333357  0.6666666666666643  0.0000000000000000  T  T  T
0.6666666666666643  0.3333333333333357  0.3318581489548644  T  T  T

0.00000000E+00  0.00000000E+00  0.00000000E+00
0.00000000E+00  0.00000000E+00  0.00000000E+00
0.00000000E+00  0.00000000E+00  0.00000000E+00
0.00000000E+00  0.00000000E+00  0.00000000E+00
0.00000000E+00  0.00000000E+00  0.00000000E+00
0.00000000E+00  0.00000000E+00  0.00000000E+00
0.00000000E+00  0.00000000E+00  0.00000000E+00
0.00000000E+00  0.00000000E+00  0.00000000E+00
0.00000000E+00  0.00000000E+00  0.00000000E+00
0.00000000E+00  0.00000000E+00  0.00000000E+00
0.00000000E+00  0.00000000E+00  0.00000000E+00
