Nb4C3  (n=3)
1.00000000000000
3.1366846615118176  0.0000000000000000  0.0000000000000000
-1.5683423307559088  2.7164486006816388  0.0000000000000000
0.0000000000000000  0.0000000000000002  37.3854590704169709
Nb  C  N  H
4  3  2  2
Selective  dynamics
Direct
0.0000000000000000  0.0000000000000000  0.0604156523992506  T  T  T
0.6666666666666643  0.3333333333333357  0.1293457664505430  T  T  T
0.3333333333333357  0.6666666666666643  0.2019450449606119  T  T  T
-0.0000000000000000  -0.0000000000000000  0.2708751590119044  T  T  T
0.3333333333333357  0.6666666666666643  0.0952292861550970  T  T  T
-0.0000000000000000  0.0000000000000000  0.1656454057055814  T  T  T
0.6666666666666643  0.3333333333333357  0.2360615252560501  T  T  T
0.3333333333333357  0.6666666666666643  0.0274317946871609  T  T  T
0.6666666666666643  0.3333333333333357  0.3038590167239942  T  T  T
0.3333333333333357  0.6666666666666643  0.0000000000000000  T  T  T
0.6666666666666643  0.3333333333333357  0.3312908114111551  T  T  T

0.00000000E+00  0.00000000E+00  0.00000000E+00
0.00000000E+00  0.00000000E+00  0.00000000E+00
0.00000000E+00  0.00000000E+00  0.00000000E+00
0.00000000E+00  0.00000000E+00  0.00000000E+00
0.00000000E+00  0.00000000E+00  0.00000000E+00
0.00000000E+00  0.00000000E+00  0.00000000E+00
0.00000000E+00  0.00000000E+00  0.00000000E+00
0.00000000E+00  0.00000000E+00  0.00000000E+00
0.00000000E+00  0.00000000E+00  0.00000000E+00
0.00000000E+00  0.00000000E+00  0.00000000E+00
0.00000000E+00  0.00000000E+00  0.00000000E+00
