Sc2N
1.00000000000000
3.3871165471492568  0.0000000000000000  0.0000000000000002
-1.6935582735746286  2.9333289754679974  0.0000000000000000
0.0000000000000004  0.0000000000000005  31.8209449318607547
Sc  N  Te
2  1  2
Selective  dynamics
Direct
-0.0000000000000000  -0.0000000000000000  0.0694230526874386  T  T  T
0.6666666666666643  0.3333333333333357  0.1449308876643225  T  T  T
0.3333333333333357  0.6666666666666643  0.1071769701758806  T  T  T
0.6666666666666643  0.3333333333333357  0.0000000000000000  T  T  T
-0.0000000000000000  0.0000000000000000  0.2143539403517611  T  T  T

0.00000000E+00  0.00000000E+00  0.00000000E+00
0.00000000E+00  0.00000000E+00  0.00000000E+00
0.00000000E+00  0.00000000E+00  0.00000000E+00
0.00000000E+00  0.00000000E+00  0.00000000E+00
0.00000000E+00  0.00000000E+00  0.00000000E+00
