Zr2N  (n=1)
1.00000000000000
3.4822072476578088  0.0000000000000003  -0.0000000000000001
-1.7411036238289044  3.0156799377759227  0.0000000000000002
-0.0000000000000002  0.0000000000000005  31.7225893044750400
Zr  N  Te
2  1  2
Selective  dynamics
Direct
-0.0000000000000000  -0.0000000000000000  0.0683007340805779  T  T  T
0.6666666666666643  0.3333333333333357  0.1436173171210754  T  T  T
0.3333333333333357  0.6666666666666643  0.1059590256008311  T  T  T
0.6666666666666643  0.3333333333333357  0.0000000000000000  T  T  T
0.0000000000000000  0.0000000000000000  0.2119180512016621  T  T  T

0.00000000E+00  0.00000000E+00  0.00000000E+00
0.00000000E+00  0.00000000E+00  0.00000000E+00
0.00000000E+00  0.00000000E+00  0.00000000E+00
0.00000000E+00  0.00000000E+00  0.00000000E+00
0.00000000E+00  0.00000000E+00  0.00000000E+00
