Ti2N  (n=1)
1.00000000000000
3.3010572328583723  0.0000000000000000  0.0000000000000000
-1.6505286164291861  2.8587994230406841  0.0000000000000000
0.0000000000000000  0.0000000000000000  31.2234153550842812
Ti  N  Te
2  1  2
Selective  dynamics
Direct
-0.0000000000000000  -0.0000000000000000  0.0670049417051915  T  T  T
0.6666666666666643  0.3333333333333357  0.1323139119278686  T  T  T
0.3333333333333357  0.6666666666666643  0.0996594268165301  T  T  T
0.6666666666666643  0.3333333333333357  0.0000000000000000  T  T  T
-0.0000000000000000  -0.0000000000000000  0.1993188536330600  T  T  T

0.00000000E+00  0.00000000E+00  0.00000000E+00
0.00000000E+00  0.00000000E+00  0.00000000E+00
0.00000000E+00  0.00000000E+00  0.00000000E+00
0.00000000E+00  0.00000000E+00  0.00000000E+00
0.00000000E+00  0.00000000E+00  0.00000000E+00
