Mo2C  (n=1)
1.00000000000000
3.3694483627421232  0.0000000000000000  0.0000000000000000
-1.6847241813710616  2.9180278789147422  0.0000000000000000
0.0000000000000000  0.0000000000000000  31.1444349748552582
Mo  C  Te
2  1  2
Selective  dynamics
Direct
0.0000000000000000  -0.0000000000000000  0.0665012401390163  T  T  T
0.6666666666666643  0.3333333333333357  0.1307871351298246  T  T  T
0.3333333333333357  0.6666666666666643  0.0986441876344204  T  T  T
0.6666666666666643  0.3333333333333357  0.0000000000000000  T  T  T
-0.0000000000000000  0.0000000000000000  0.1972883752688409  T  T  T

0.00000000E+00  0.00000000E+00  0.00000000E+00
0.00000000E+00  0.00000000E+00  0.00000000E+00
0.00000000E+00  0.00000000E+00  0.00000000E+00
0.00000000E+00  0.00000000E+00  0.00000000E+00
0.00000000E+00  0.00000000E+00  0.00000000E+00
