Hf2C  (n=1)
1.00000000000000
3.4720571847470589  0.0000000000000004  0.0000000000000000
-1.7360285923735295  3.0068897254445588  0.0000000000000000
-0.0000000000000001  -0.0000000000000026  31.7279810930509427
Hf  C  Te
2  1  2
Selective  dynamics
Direct
0.0000000000000000  0.0000000000000000  0.0678405515197729  T  T  T
0.6666666666666643  0.3333333333333357  0.1442114247254041  T  T  T
0.3333333333333357  0.6666666666666643  0.1060259881225847  T  T  T
0.6666666666666643  0.3333333333333357  0.0000000000000000  T  T  T
0.0000000000000000  0.0000000000000000  0.2120519762451732  T  T  T

0.00000000E+00  0.00000000E+00  0.00000000E+00
0.00000000E+00  0.00000000E+00  0.00000000E+00
0.00000000E+00  0.00000000E+00  0.00000000E+00
0.00000000E+00  0.00000000E+00  0.00000000E+00
0.00000000E+00  0.00000000E+00  0.00000000E+00
