Nb2N  (n=1)
1.00000000000000
3.4197882039217600  0.0000000000000000  0.0000000000000000
-1.7098941019608800  2.9616234602228655  0.0000000000000000
0.0000000000000000  0.0000000000000000  31.2768844378457729
Nb  N  Te
2  1  2
Selective  dynamics
Direct
0.0000000000000000  0.0000000000000000  0.0659983700176944  T  T  T
0.6666666666666643  0.3333333333333357  0.1346892800044693  T  T  T
0.3333333333333357  0.6666666666666643  0.1003438250110819  T  T  T
0.6666666666666643  0.3333333333333357  0.0000000000000000  T  T  T
-0.0000000000000000  0.0000000000000000  0.2006876500221548  T  T  T

0.00000000E+00  0.00000000E+00  0.00000000E+00
0.00000000E+00  0.00000000E+00  0.00000000E+00
0.00000000E+00  0.00000000E+00  0.00000000E+00
0.00000000E+00  0.00000000E+00  0.00000000E+00
0.00000000E+00  0.00000000E+00  0.00000000E+00
