Ti2C  (n=1)
1.00000000000000
3.2903846818769695  0.0000000000000000  0.0000000000000000
-1.6451923409384848  2.8495567227808012  0.0000000000000000
0.0000000000000000  -0.0000000000000001  31.4698383430053994
Ti  C  Te
2  1  2
Selective  dynamics
Direct
-0.0000000000000000  -0.0000000000000000  0.0681328858262156  T  T  T
0.6666666666666643  0.3333333333333357  0.1374556612926841  T  T  T
0.3333333333333357  0.6666666666666643  0.1027942735594542  T  T  T
0.6666666666666643  0.3333333333333357  0.0000000000000000  T  T  T
0.0000000000000000  -0.0000000000000000  0.2055885471189085  T  T  T

0.00000000E+00  0.00000000E+00  0.00000000E+00
0.00000000E+00  0.00000000E+00  0.00000000E+00
0.00000000E+00  0.00000000E+00  0.00000000E+00
0.00000000E+00  0.00000000E+00  0.00000000E+00
0.00000000E+00  0.00000000E+00  0.00000000E+00
