Nb2C  (n=1)
1.00000000000000
3.4081829380406394  0.0000000000000000  0.0000000000000000
-1.7040914690203197  2.9515730051580147  0.0000000000000000
0.0000000000000000  0.0000000000000000  31.4100309956880643
Nb  C  Te
2  1  2
Selective  dynamics
Direct
-0.0000000000000000  0.0000000000000000  0.0657348877998133  T  T  T
0.6666666666666643  0.3333333333333357  0.1383410329328899  T  T  T
0.3333333333333357  0.6666666666666643  0.1020379603663561  T  T  T
0.6666666666666643  0.3333333333333357  0.0000000000000000  T  T  T
0.0000000000000000  -0.0000000000000000  0.2040759207327120  T  T  T

0.00000000E+00  0.00000000E+00  0.00000000E+00
0.00000000E+00  0.00000000E+00  0.00000000E+00
0.00000000E+00  0.00000000E+00  0.00000000E+00
0.00000000E+00  0.00000000E+00  0.00000000E+00
0.00000000E+00  0.00000000E+00  0.00000000E+00
