Hf2N  (n=1)
1.00000000000000
3.4760213027885141  -0.0000000000000003  0.0000000000000000
-1.7380106513942573  3.0103227523704117  0.0000000000000000
0.0000000000000000  0.0000000000000000  31.5201204562268060
Hf  N  Te
2  1  2
Selective  dynamics
Direct
-0.0000000000000000  -0.0000000000000000  0.0665938483657292  T  T  T
0.6666666666666643  0.3333333333333357  0.1402619745770055  T  T  T
0.3333333333333357  0.6666666666666643  0.1034279114713711  T  T  T
0.6666666666666643  0.3333333333333357  0.0000000000000000  T  T  T
-0.0000000000000000  0.0000000000000000  0.2068558229427310  T  T  T

0.00000000E+00  0.00000000E+00  0.00000000E+00
0.00000000E+00  0.00000000E+00  0.00000000E+00
0.00000000E+00  0.00000000E+00  0.00000000E+00
0.00000000E+00  0.00000000E+00  0.00000000E+00
0.00000000E+00  0.00000000E+00  0.00000000E+00
