Sc2C  (n=1)
1.00000000000000
3.4032449228319903  0.0000000000000000  0.0000000000000000
-1.7016224614159952  2.9472965585630382  0.0000000000000000
0.0000000000000000  0.0000000000000001  32.1333428480544825
Sc  C  Te
2  1  2
Selective  dynamics
Direct
-0.0000000000000000  0.0000000000000000  0.0731882303680008  T  T  T
0.6666666666666643  0.3333333333333357  0.1488037012459978  T  T  T
0.3333333333333357  0.6666666666666643  0.1109959658069992  T  T  T
0.6666666666666643  0.3333333333333357  0.0000000000000000  T  T  T
-0.0000000000000000  -0.0000000000000000  0.2219919316139987  T  T  T

0.00000000E+00  0.00000000E+00  0.00000000E+00
0.00000000E+00  0.00000000E+00  0.00000000E+00
0.00000000E+00  0.00000000E+00  0.00000000E+00
0.00000000E+00  0.00000000E+00  0.00000000E+00
0.00000000E+00  0.00000000E+00  0.00000000E+00
