Ta2C  (n=1)
1.00000000000000
3.4338161046677698  0.0000000000000000  0.0000000000000002
-1.7169080523338849  2.9737719786226613  -0.0000000000000006
0.0000000000000008  -0.0000000000000009  31.2673544382452455
Ta  C  Te
2  1  2
Selective  dynamics
Direct
0.0000000000000000  0.0000000000000000  0.0649355700432776  T  T  T
0.6666666666666643  0.3333333333333357  0.1355084569889252  T  T  T
0.3333333333333357  0.6666666666666643  0.1002220135160990  T  T  T
0.6666666666666643  0.3333333333333357  0.0000000000000000  T  T  T
0.0000000000000000  0.0000000000000000  0.2004440270322075  T  T  T

0.00000000E+00  0.00000000E+00  0.00000000E+00
0.00000000E+00  0.00000000E+00  0.00000000E+00
0.00000000E+00  0.00000000E+00  0.00000000E+00
0.00000000E+00  0.00000000E+00  0.00000000E+00
0.00000000E+00  0.00000000E+00  0.00000000E+00
