Ta2N  (n=1)
1.00000000000000
3.4323053599644409  0.0000000000000000  0.0000000000000000
-1.7161526799822204  2.9724636353345493  0.0000000000000000
0.0000000000000000  0.0000000000000000  31.1950119991415598
Ta  N  Te
2  1  2
Selective  dynamics
Direct
0.0000000000000000  0.0000000000000000  0.0652888856719355  T  T  T
0.6666666666666643  0.3333333333333357  0.1333009401409836  T  T  T
0.3333333333333357  0.6666666666666643  0.0992949129064558  T  T  T
0.6666666666666643  0.3333333333333357  0.0000000000000000  T  T  T
0.0000000000000000  0.0000000000000000  0.1985898258129228  T  T  T

0.00000000E+00  0.00000000E+00  0.00000000E+00
0.00000000E+00  0.00000000E+00  0.00000000E+00
0.00000000E+00  0.00000000E+00  0.00000000E+00
0.00000000E+00  0.00000000E+00  0.00000000E+00
0.00000000E+00  0.00000000E+00  0.00000000E+00
