Zr2C  (n=1)
1.00000000000000
3.4942215019101730  -0.0000000000000006  0.0000000000000002
-1.7471107509550865  3.0260845871678450  0.0000000000000000
0.0000000000000003  -0.0000000000000016  31.8686869008761953
Zr  C  Te
2  1  2
Selective  dynamics
Direct
0.0000000000000000  -0.0000000000000000  0.0691372994049391  T  T  T
0.6666666666666643  0.3333333333333357  0.1463936047154648  T  T  T
0.3333333333333357  0.6666666666666643  0.1077654520602062  T  T  T
0.6666666666666643  0.3333333333333357  0.0000000000000000  T  T  T
-0.0000000000000000  -0.0000000000000000  0.2155309041204126  T  T  T

0.00000000E+00  0.00000000E+00  0.00000000E+00
0.00000000E+00  0.00000000E+00  0.00000000E+00
0.00000000E+00  0.00000000E+00  0.00000000E+00
0.00000000E+00  0.00000000E+00  0.00000000E+00
0.00000000E+00  0.00000000E+00  0.00000000E+00
