Cr2N  (n=1)
1.00000000000000
3.2085181701613821  0.0000000000000000  0.0000000000000000
-1.6042590850806910  2.7786582439136489  0.0000000000000000
0.0000000000000000  0.0000000000000000  30.9172720708685844
Cr  N  Te
2  1  2
Selective  dynamics
Direct
-0.0000000000000000  -0.0000000000000000  0.0672937792923964  T  T  T
0.6666666666666643  0.3333333333333357  0.1240967178156605  T  T  T
0.3333333333333357  0.6666666666666643  0.0956952485540333  T  T  T
0.6666666666666643  0.3333333333333357  0.0000000000000000  T  T  T
-0.0000000000000000  -0.0000000000000000  0.1913904971080569  T  T  T

0.00000000E+00  0.00000000E+00  0.00000000E+00
0.00000000E+00  0.00000000E+00  0.00000000E+00
0.00000000E+00  0.00000000E+00  0.00000000E+00
0.00000000E+00  0.00000000E+00  0.00000000E+00
0.00000000E+00  0.00000000E+00  0.00000000E+00
