Cr2C  (n=1)
1.00000000000000
3.2041484706560581  0.0000000000000000  0.0000000000000000
-1.6020742353280291  2.7748739730933010  0.0000000000000000
0.0000000000000000  -0.0000000000000001  30.9295393311555245
Cr  C  Te
2  1  2
Selective  dynamics
Direct
0.0000000000000000  0.0000000000000000  0.0669059239220028  T  T  T
0.6666666666666643  0.3333333333333357  0.1248052835314707  T  T  T
0.3333333333333357  0.6666666666666643  0.0958556037267367  T  T  T
0.6666666666666643  0.3333333333333357  0.0000000000000000  T  T  T
-0.0000000000000000  -0.0000000000000000  0.1917112074534734  T  T  T

0.00000000E+00  0.00000000E+00  0.00000000E+00
0.00000000E+00  0.00000000E+00  0.00000000E+00
0.00000000E+00  0.00000000E+00  0.00000000E+00
0.00000000E+00  0.00000000E+00  0.00000000E+00
0.00000000E+00  0.00000000E+00  0.00000000E+00
