Ti4C3  (n=3)
1.00000000000000
3.2125533539835094  0.0000000000000001  0.0000000000000000
-1.6062766769917547  2.7821528159293147  0.0000000000000000
0.0000000000000006  -0.0000000000000016  35.7220195212434746
Ti  C  Br
4  3  2
Selective  dynamics
Direct
-0.0000000000000000  -0.0000000000000000  0.0525105759211696  T  T  T
0.6666666666666643  0.3333333333333357  0.1176081606150108  T  T  T
0.3333333333333357  0.6666666666666643  0.1825433891837685  T  T  T
0.0000000000000000  0.0000000000000000  0.2476409738776098  T  T  T
0.3333333333333357  0.6666666666666643  0.0804713366201920  T  T  T
0.0000000000000000  0.0000000000000000  0.1500757748993897  T  T  T
0.6666666666666643  0.3333333333333357  0.2196802131785801  T  T  T
0.6666666666666643  0.3333333333333357  0.0000000000000000  T  T  T
0.3333333333333357  0.6666666666666643  0.3001515497987793  T  T  T

0.00000000E+00  0.00000000E+00  0.00000000E+00
0.00000000E+00  0.00000000E+00  0.00000000E+00
0.00000000E+00  0.00000000E+00  0.00000000E+00
0.00000000E+00  0.00000000E+00  0.00000000E+00
0.00000000E+00  0.00000000E+00  0.00000000E+00
0.00000000E+00  0.00000000E+00  0.00000000E+00
0.00000000E+00  0.00000000E+00  0.00000000E+00
0.00000000E+00  0.00000000E+00  0.00000000E+00
0.00000000E+00  0.00000000E+00  0.00000000E+00
