Ta4N3  (n=3)
1.00000000000000
3.1970329409609053  0.0000000000000003  -0.0000000000000001
-1.5985164704804529  2.7687117444241713  0.0000000000000000
-0.0000000000000004  0.0000000000000007  36.3624197876281698
Ta  N  Br
4  3  2
Selective  dynamics
Direct
0.0000000000000000  0.0000000000000000  0.0552275824455376  T  T  T
0.6666666666666643  0.3333333333333357  0.1214316085166898  T  T  T
0.3333333333333357  0.6666666666666643  0.1910453898236225  T  T  T
-0.0000000000000000  -0.0000000000000000  0.2572494158947677  T  T  T
0.3333333333333357  0.6666666666666643  0.0880636979028512  T  T  T
0.0000000000000000  -0.0000000000000000  0.1562384991701526  T  T  T
0.6666666666666643  0.3333333333333357  0.2244133004374471  T  T  T
0.6666666666666643  0.3333333333333357  0.0000000000000000  T  T  T
0.3333333333333357  0.6666666666666643  0.3124769983403053  T  T  T

0.00000000E+00  0.00000000E+00  0.00000000E+00
0.00000000E+00  0.00000000E+00  0.00000000E+00
0.00000000E+00  0.00000000E+00  0.00000000E+00
0.00000000E+00  0.00000000E+00  0.00000000E+00
0.00000000E+00  0.00000000E+00  0.00000000E+00
0.00000000E+00  0.00000000E+00  0.00000000E+00
0.00000000E+00  0.00000000E+00  0.00000000E+00
0.00000000E+00  0.00000000E+00  0.00000000E+00
0.00000000E+00  0.00000000E+00  0.00000000E+00
