Hf4N3  (n=3)
1.00000000000000
3.3281388222896653  0.0000000000000000  0.0000000000000000
-1.6640694111448326  2.8822527688314765  -0.0000000000000001
0.0000000000000000  -0.0000000000000015  36.3015034051664927
Hf  N  Br
4  3  2
Selective  dynamics
Direct
0.0000000000000000  0.0000000000000000  0.0547626438127396  T  T  T
0.6666666666666643  0.3333333333333357  0.1203069844064542  T  T  T
0.3333333333333357  0.6666666666666643  0.1910163037513112  T  T  T
-0.0000000000000000  -0.0000000000000000  0.2565606443450258  T  T  T
0.3333333333333357  0.6666666666666643  0.0857938994917191  T  T  T
-0.0000000000000000  0.0000000000000000  0.1556616440788827  T  T  T
0.6666666666666643  0.3333333333333357  0.2255293886660322  T  T  T
0.6666666666666643  0.3333333333333357  0.0000000000000000  T  T  T
0.3333333333333357  0.6666666666666643  0.3113232881577583  T  T  T

0.00000000E+00  0.00000000E+00  0.00000000E+00
0.00000000E+00  0.00000000E+00  0.00000000E+00
0.00000000E+00  0.00000000E+00  0.00000000E+00
0.00000000E+00  0.00000000E+00  0.00000000E+00
0.00000000E+00  0.00000000E+00  0.00000000E+00
0.00000000E+00  0.00000000E+00  0.00000000E+00
0.00000000E+00  0.00000000E+00  0.00000000E+00
0.00000000E+00  0.00000000E+00  0.00000000E+00
0.00000000E+00  0.00000000E+00  0.00000000E+00
