Nb4C3  (n=3)
1.00000000000000
3.2665550304138313  -0.0000000000000001  -0.0000000000000000
-1.6332775152069159  2.8289196406433010  0.0000000000000001
0.0000000000000002  0.0000000000000012  36.4424922438540051
Nb  C  Br
4  3  2
Selective  dynamics
Direct
0.0000000000000000  0.0000000000000000  0.0553918513406883  T  T  T
0.6666666666666643  0.3333333333333357  0.1206798432225813  T  T  T
0.3333333333333357  0.6666666666666643  0.1933077997543825  T  T  T
-0.0000000000000000  -0.0000000000000000  0.2585957916362755  T  T  T
0.3333333333333357  0.6666666666666643  0.0861525351410983  T  T  T
0.0000000000000000  0.0000000000000000  0.1569938214884855  T  T  T
0.6666666666666643  0.3333333333333357  0.2278351078358585  T  T  T
0.6666666666666643  0.3333333333333357  0.0000000000000000  T  T  T
0.3333333333333357  0.6666666666666643  0.3139876429769639  T  T  T

0.00000000E+00  0.00000000E+00  0.00000000E+00
0.00000000E+00  0.00000000E+00  0.00000000E+00
0.00000000E+00  0.00000000E+00  0.00000000E+00
0.00000000E+00  0.00000000E+00  0.00000000E+00
0.00000000E+00  0.00000000E+00  0.00000000E+00
0.00000000E+00  0.00000000E+00  0.00000000E+00
0.00000000E+00  0.00000000E+00  0.00000000E+00
0.00000000E+00  0.00000000E+00  0.00000000E+00
0.00000000E+00  0.00000000E+00  0.00000000E+00
