Cr4C3  (n=3)
1.00000000000000
3.1063554176817632  0.0000000000000001  -0.0000000000000001
-1.5531777088408816  2.6901827048610834  0.0000000000000005
-0.0000000000000008  0.0000000000000067  34.9351695879656035
Cr  C  Br
4  3  2
Selective  dynamics
Direct
0.0000000000000000  0.0000000000000000  0.0539730998741396  T  T  T
0.6666666666666643  0.3333333333333357  0.1106751286576585  T  T  T
0.3333333333333357  0.6666666666666643  0.1737136321568316  T  T  T
-0.0000000000000000  -0.0000000000000000  0.2304156609403506  T  T  T
0.3333333333333357  0.6666666666666643  0.0772987100470905  T  T  T
-0.0000000000000000  -0.0000000000000000  0.1421943804072450  T  T  T
0.6666666666666643  0.3333333333333357  0.2070900507673927  T  T  T
0.6666666666666643  0.3333333333333357  0.0000000000000000  T  T  T
0.3333333333333357  0.6666666666666643  0.2843887608144903  T  T  T

0.00000000E+00  0.00000000E+00  0.00000000E+00
0.00000000E+00  0.00000000E+00  0.00000000E+00
0.00000000E+00  0.00000000E+00  0.00000000E+00
0.00000000E+00  0.00000000E+00  0.00000000E+00
0.00000000E+00  0.00000000E+00  0.00000000E+00
0.00000000E+00  0.00000000E+00  0.00000000E+00
0.00000000E+00  0.00000000E+00  0.00000000E+00
0.00000000E+00  0.00000000E+00  0.00000000E+00
0.00000000E+00  0.00000000E+00  0.00000000E+00
