Ti4N3  (n=3)
1.00000000000000
3.1586060738954900  0.0000000000000000  0.0000000000000000
-1.5793030369477450  2.7354331008094692  0.0000000000000001
-0.0000000000000002  0.0000000000000009  35.6119105522071777
Ti  N  Br
4  3  2
Selective  dynamics
Direct
0.0000000000000000  0.0000000000000000  0.0531405047822461  T  T  T
0.6666666666666643  0.3333333333333357  0.1149529456461592  T  T  T
0.3333333333333357  0.6666666666666643  0.1830347328483737  T  T  T
0.0000000000000000  0.0000000000000000  0.2448471737122869  T  T  T
0.3333333333333357  0.6666666666666643  0.0818538037520085  T  T  T
0.0000000000000000  0.0000000000000000  0.1489938392472630  T  T  T
0.6666666666666643  0.3333333333333357  0.2161338747425174  T  T  T
0.6666666666666643  0.3333333333333357  0.0000000000000000  T  T  T
0.3333333333333357  0.6666666666666643  0.2979876784945328  T  T  T

0.00000000E+00  0.00000000E+00  0.00000000E+00
0.00000000E+00  0.00000000E+00  0.00000000E+00
0.00000000E+00  0.00000000E+00  0.00000000E+00
0.00000000E+00  0.00000000E+00  0.00000000E+00
0.00000000E+00  0.00000000E+00  0.00000000E+00
0.00000000E+00  0.00000000E+00  0.00000000E+00
0.00000000E+00  0.00000000E+00  0.00000000E+00
0.00000000E+00  0.00000000E+00  0.00000000E+00
0.00000000E+00  0.00000000E+00  0.00000000E+00
