Sc4C3  (n=3)
1.00000000000000
3.4242290248509550  0.0000000000000006  -0.0000000000000002
-1.7121145124254766  2.9654693256043281  -0.0000000000000005
-0.0000000000000011  -0.0000000000000020  36.5240637580595902
Sc  C  Br
4  3  2
Selective  dynamics
Direct
-0.0000000000000000  -0.0000000000000000  0.0514502245119445  T  T  T
0.6666666666666643  0.3333333333333357  0.1207347162749912  T  T  T
0.3333333333333357  0.6666666666666643  0.1947850417233679  T  T  T
0.0000000000000000  0.0000000000000000  0.2640695334864069  T  T  T
0.3333333333333357  0.6666666666666643  0.0841849570309793  T  T  T
0.0000000000000000  -0.0000000000000000  0.1577598789991795  T  T  T
0.6666666666666643  0.3333333333333357  0.2313348009673721  T  T  T
0.6666666666666643  0.3333333333333357  0.0000000000000000  T  T  T
0.3333333333333357  0.6666666666666643  0.3155197579983588  T  T  T

0.00000000E+00  0.00000000E+00  0.00000000E+00
0.00000000E+00  0.00000000E+00  0.00000000E+00
0.00000000E+00  0.00000000E+00  0.00000000E+00
0.00000000E+00  0.00000000E+00  0.00000000E+00
0.00000000E+00  0.00000000E+00  0.00000000E+00
0.00000000E+00  0.00000000E+00  0.00000000E+00
0.00000000E+00  0.00000000E+00  0.00000000E+00
0.00000000E+00  0.00000000E+00  0.00000000E+00
0.00000000E+00  0.00000000E+00  0.00000000E+00
