Mo4C3  (n=3)
1.00000000000000
3.2337321946234803  0.0000000000000001  -0.0000000000000000
-1.6168660973117404  2.8004942305486495  -0.0000000000000000
-0.0000000000000008  -0.0000000000000015  36.0021440018736101
Mo  C  Br
4  3  2
Selective  dynamics
Direct
-0.0000000000000000  -0.0000000000000000  0.0573261104156791  T  T  T
0.6666666666666643  0.3333333333333357  0.1168264432144624  T  T  T
0.3333333333333357  0.6666666666666643  0.1887704679389759  T  T  T
0.0000000000000000  0.0000000000000000  0.2482708007377522  T  T  T
0.3333333333333357  0.6666666666666643  0.0827240339262996  T  T  T
0.0000000000000000  -0.0000000000000000  0.1527984555767156  T  T  T
0.6666666666666643  0.3333333333333357  0.2228728772271318  T  T  T
0.6666666666666643  0.3333333333333357  0.0000000000000000  T  T  T
0.3333333333333357  0.6666666666666643  0.3055969111534313  T  T  T

0.00000000E+00  0.00000000E+00  0.00000000E+00
0.00000000E+00  0.00000000E+00  0.00000000E+00
0.00000000E+00  0.00000000E+00  0.00000000E+00
0.00000000E+00  0.00000000E+00  0.00000000E+00
0.00000000E+00  0.00000000E+00  0.00000000E+00
0.00000000E+00  0.00000000E+00  0.00000000E+00
0.00000000E+00  0.00000000E+00  0.00000000E+00
0.00000000E+00  0.00000000E+00  0.00000000E+00
0.00000000E+00  0.00000000E+00  0.00000000E+00
