Sc4N3  (n=3)
1.00000000000000
3.3192762855176081  -0.0000000000000003  0.0000000000000000
-1.6596381427588038  2.8745775862767693  -0.0000000000000003
0.0000000000000000  -0.0000000000000023  36.2640105933483170
Sc  N  Br
4  3  2
Selective  dynamics
Direct
-0.0000000000000000  -0.0000000000000000  0.0527196041731196  T  T  T
0.6666666666666643  0.3333333333333357  0.1213150736227714  T  T  T
0.3333333333333357  0.6666666666666643  0.1892962021034347  T  T  T
-0.0000000000000000  -0.0000000000000000  0.2578916715530867  T  T  T
0.3333333333333357  0.6666666666666643  0.0824830412674030  T  T  T
-0.0000000000000000  0.0000000000000000  0.1553056378631032  T  T  T
0.6666666666666643  0.3333333333333357  0.2281282344587960  T  T  T
0.6666666666666643  0.3333333333333357  0.0000000000000000  T  T  T
0.3333333333333357  0.6666666666666643  0.3106112757261990  T  T  T

0.00000000E+00  0.00000000E+00  0.00000000E+00
0.00000000E+00  0.00000000E+00  0.00000000E+00
0.00000000E+00  0.00000000E+00  0.00000000E+00
0.00000000E+00  0.00000000E+00  0.00000000E+00
0.00000000E+00  0.00000000E+00  0.00000000E+00
0.00000000E+00  0.00000000E+00  0.00000000E+00
0.00000000E+00  0.00000000E+00  0.00000000E+00
0.00000000E+00  0.00000000E+00  0.00000000E+00
0.00000000E+00  0.00000000E+00  0.00000000E+00
