Ta4C3  (n=3)
1.00000000000000
3.2462617995486798  -0.0000000000000003  0.0000000000000000
-1.6231308997743410  2.8113451868921482  -0.0000000000000001
0.0000000000000005  -0.0000000000000018  36.3901511446084953
Ta  C  Br
4  3  2
Selective  dynamics
Direct
-0.0000000000000000  -0.0000000000000000  0.0554542575198904  T  T  T
0.6666666666666643  0.3333333333333357  0.1203400625371155  T  T  T
0.3333333333333357  0.6666666666666643  0.1926608672844224  T  T  T
0.0000000000000000  0.0000000000000000  0.2575466723016404  T  T  T
0.3333333333333357  0.6666666666666643  0.0860797310512852  T  T  T
0.0000000000000000  0.0000000000000000  0.1565004649107690  T  T  T
0.6666666666666643  0.3333333333333357  0.2269211987702457  T  T  T
0.6666666666666643  0.3333333333333357  0.0000000000000000  T  T  T
0.3333333333333357  0.6666666666666643  0.3130009298215307  T  T  T

0.00000000E+00  0.00000000E+00  0.00000000E+00
0.00000000E+00  0.00000000E+00  0.00000000E+00
0.00000000E+00  0.00000000E+00  0.00000000E+00
0.00000000E+00  0.00000000E+00  0.00000000E+00
0.00000000E+00  0.00000000E+00  0.00000000E+00
0.00000000E+00  0.00000000E+00  0.00000000E+00
0.00000000E+00  0.00000000E+00  0.00000000E+00
0.00000000E+00  0.00000000E+00  0.00000000E+00
0.00000000E+00  0.00000000E+00  0.00000000E+00
