Cr4N3  (n=3)
1.00000000000000
3.1079422728621280  0.0000000000000000  0.0000000000000000
-1.5539711364310640  2.6915569618894355  0.0000000000000000
0.0000000000000002  0.0000000000000020  35.2522764842650034
Cr  N  Br
4  3  2
Selective  dynamics
Direct
0.0000000000000000  0.0000000000000000  0.0524963858270344  T  T  T
0.6666666666666643  0.3333333333333357  0.1164583754893066  T  T  T
0.3333333333333357  0.6666666666666643  0.1743675656053454  T  T  T
-0.0000000000000000  -0.0000000000000000  0.2383295552676108  T  T  T
0.3333333333333357  0.6666666666666643  0.0789906196451300  T  T  T
0.0000000000000000  -0.0000000000000000  0.1454129705473295  T  T  T
0.6666666666666643  0.3333333333333357  0.2118353214495153  T  T  T
0.6666666666666643  0.3333333333333357  0.0000000000000000  T  T  T
0.3333333333333357  0.6666666666666643  0.2908259410946453  T  T  T

0.00000000E+00  0.00000000E+00  0.00000000E+00
0.00000000E+00  0.00000000E+00  0.00000000E+00
0.00000000E+00  0.00000000E+00  0.00000000E+00
0.00000000E+00  0.00000000E+00  0.00000000E+00
0.00000000E+00  0.00000000E+00  0.00000000E+00
0.00000000E+00  0.00000000E+00  0.00000000E+00
0.00000000E+00  0.00000000E+00  0.00000000E+00
0.00000000E+00  0.00000000E+00  0.00000000E+00
0.00000000E+00  0.00000000E+00  0.00000000E+00
