Zr4C3  (n=3)
1.00000000000000
3.4409376097653017  -0.0000000000000001  0.0000000000000000
-1.7204688048826509  2.9799393847552698  -0.0000000000000000
0.0000000000000014  0.0000000000000009  36.6923417600734894
Zr  C  Br
4  3  2
Selective  dynamics
Direct
0.0000000000000000  0.0000000000000000  0.0544559341445288  T  T  T
0.6666666666666643  0.3333333333333357  0.1245068159454428  T  T  T
0.3333333333333357  0.6666666666666643  0.1941520975828411  T  T  T
-0.0000000000000000  -0.0000000000000000  0.2642029793837550  T  T  T
0.3333333333333357  0.6666666666666643  0.0843586344400306  T  T  T
-0.0000000000000000  0.0000000000000000  0.1593294567641419  T  T  T
0.6666666666666643  0.3333333333333357  0.2343002790882459  T  T  T
0.6666666666666643  0.3333333333333357  0.0000000000000000  T  T  T
0.3333333333333357  0.6666666666666643  0.3186589135282837  T  T  T

0.00000000E+00  0.00000000E+00  0.00000000E+00
0.00000000E+00  0.00000000E+00  0.00000000E+00
0.00000000E+00  0.00000000E+00  0.00000000E+00
0.00000000E+00  0.00000000E+00  0.00000000E+00
0.00000000E+00  0.00000000E+00  0.00000000E+00
0.00000000E+00  0.00000000E+00  0.00000000E+00
0.00000000E+00  0.00000000E+00  0.00000000E+00
0.00000000E+00  0.00000000E+00  0.00000000E+00
0.00000000E+00  0.00000000E+00  0.00000000E+00
