Zr4N3  (n=3)
1.00000000000000
3.3814484937961953  -0.0000000000000001  0.0000000000000000
-1.6907242468980979  2.9284202983698568  -0.0000000000000001
-0.0000000000000002  -0.0000000000000016  36.4744616170042590
Zr  N  Br
4  3  2
Selective  dynamics
Direct
-0.0000000000000000  0.0000000000000000  0.0549663333483138  T  T  T
0.6666666666666643  0.3333333333333357  0.1214648071979920  T  T  T
0.3333333333333357  0.6666666666666643  0.1931241163477612  T  T  T
0.0000000000000000  -0.0000000000000000  0.2596225901974465  T  T  T
0.3333333333333357  0.6666666666666643  0.0864108957957233  T  T  T
0.0000000000000000  -0.0000000000000000  0.1572944617728766  T  T  T
0.6666666666666643  0.3333333333333357  0.2281780277500228  T  T  T
0.6666666666666643  0.3333333333333357  0.0000000000000000  T  T  T
0.3333333333333357  0.6666666666666643  0.3145889235457531  T  T  T

0.00000000E+00  0.00000000E+00  0.00000000E+00
0.00000000E+00  0.00000000E+00  0.00000000E+00
0.00000000E+00  0.00000000E+00  0.00000000E+00
0.00000000E+00  0.00000000E+00  0.00000000E+00
0.00000000E+00  0.00000000E+00  0.00000000E+00
0.00000000E+00  0.00000000E+00  0.00000000E+00
0.00000000E+00  0.00000000E+00  0.00000000E+00
0.00000000E+00  0.00000000E+00  0.00000000E+00
0.00000000E+00  0.00000000E+00  0.00000000E+00
