Hf4C3  (n=3)
1.00000000000000
3.3921875879071401  0.0000000000000000  -0.0000000000000001
-1.6960937939535701  2.9377206272862653  -0.0000000000000000
-0.0000000000000008  0.0000000000000036  36.5039518295213270
Hf  C  Br
4  3  2
Selective  dynamics
Direct
0.0000000000000000  0.0000000000000000  0.0543435827287757  T  T  T
0.6666666666666643  0.3333333333333357  0.1232890377447439  T  T  T
0.3333333333333357  0.6666666666666643  0.1918536044340106  T  T  T
-0.0000000000000000  -0.0000000000000000  0.2607990594499788  T  T  T
0.3333333333333357  0.6666666666666643  0.0835140992312986  T  T  T
0.0000000000000000  0.0000000000000000  0.1575713210893810  T  T  T
0.6666666666666643  0.3333333333333357  0.2316285429474488  T  T  T
0.6666666666666643  0.3333333333333357  0.0000000000000000  T  T  T
0.3333333333333357  0.6666666666666643  0.3151426421787544  T  T  T

0.00000000E+00  0.00000000E+00  0.00000000E+00
0.00000000E+00  0.00000000E+00  0.00000000E+00
0.00000000E+00  0.00000000E+00  0.00000000E+00
0.00000000E+00  0.00000000E+00  0.00000000E+00
0.00000000E+00  0.00000000E+00  0.00000000E+00
0.00000000E+00  0.00000000E+00  0.00000000E+00
0.00000000E+00  0.00000000E+00  0.00000000E+00
0.00000000E+00  0.00000000E+00  0.00000000E+00
0.00000000E+00  0.00000000E+00  0.00000000E+00
