Nb4N3  (n=3)
1.00000000000000
3.3006374126043503  -0.0000000000000001  0.0000000000000000
-1.6503187063021754  2.8584358489589707  0.0000000000000000
0.0000000000000000  0.0000000000000001  36.0351003065122129
Nb  N  Br
4  3  2
Selective  dynamics
Direct
0.0000000000000000  0.0000000000000000  0.0562324431667570  T  T  T
0.6666666666666643  0.3333333333333357  0.1167336111943204  T  T  T
0.3333333333333357  0.6666666666666643  0.1894983740824895  T  T  T
-0.0000000000000000  -0.0000000000000000  0.2499995421100528  T  T  T
0.3333333333333357  0.6666666666666643  0.0836019815868591  T  T  T
0.0000000000000000  -0.0000000000000000  0.1531159926384085  T  T  T
0.6666666666666643  0.3333333333333357  0.2226300036899508  T  T  T
0.6666666666666643  0.3333333333333357  0.0000000000000000  T  T  T
0.3333333333333357  0.6666666666666643  0.3062319852768098  T  T  T

0.00000000E+00  0.00000000E+00  0.00000000E+00
0.00000000E+00  0.00000000E+00  0.00000000E+00
0.00000000E+00  0.00000000E+00  0.00000000E+00
0.00000000E+00  0.00000000E+00  0.00000000E+00
0.00000000E+00  0.00000000E+00  0.00000000E+00
0.00000000E+00  0.00000000E+00  0.00000000E+00
0.00000000E+00  0.00000000E+00  0.00000000E+00
0.00000000E+00  0.00000000E+00  0.00000000E+00
0.00000000E+00  0.00000000E+00  0.00000000E+00
