Mo4N3  (n=3)
1.00000000000000
3.2948296285676486  0.0000000000000000  0.0000000000000000
-1.6474148142838243  2.8534061595194848  0.0000000000000000
-0.0000000000000001  0.0000000000000000  35.5454908828095313
Mo  N  Br
4  3  2
Selective  dynamics
Direct
0.0000000000000000  -0.0000000000000000  0.0570115630823514  T  T  T
0.6666666666666643  0.3333333333333357  0.1130610307556070  T  T  T
0.3333333333333357  0.6666666666666643  0.1836148800533651  T  T  T
0.0000000000000000  0.0000000000000000  0.2396643477266206  T  T  T
0.3333333333333357  0.6666666666666643  0.0748586824354689  T  T  T
0.0000000000000000  0.0000000000000000  0.1483379554044861  T  T  T
0.6666666666666643  0.3333333333333357  0.2218172283734840  T  T  T
0.6666666666666643  0.3333333333333357  0.0000000000000000  T  T  T
0.3333333333333357  0.6666666666666643  0.2966759108089722  T  T  T

0.00000000E+00  0.00000000E+00  0.00000000E+00
0.00000000E+00  0.00000000E+00  0.00000000E+00
0.00000000E+00  0.00000000E+00  0.00000000E+00
0.00000000E+00  0.00000000E+00  0.00000000E+00
0.00000000E+00  0.00000000E+00  0.00000000E+00
0.00000000E+00  0.00000000E+00  0.00000000E+00
0.00000000E+00  0.00000000E+00  0.00000000E+00
0.00000000E+00  0.00000000E+00  0.00000000E+00
0.00000000E+00  0.00000000E+00  0.00000000E+00
