Nb2N  (n=1)
1.00000000000000
3.0639599047086037  0.0000000000000000  0.0000000000000000
-1.5319799523543018  2.6534671137121744  0.0000000000000000
0.0000000000000000  0.0000000000000000  32.1866719854262726
Nb  N  H
2  3  2
Selective  dynamics
Direct
-0.0000000000000000  0.0000000000000000  0.0702811952450608  T  T  T
0.6666666666666643  0.3333333333333357  0.1532029825143260  T  T  T
0.3333333333333357  0.6666666666666643  0.1109420401756082  T  T  T
0.3333333333333357  0.6666666666666643  0.0317957468991835  T  T  T
0.0000000000000000  0.0000000000000000  0.1913960982462500  T  T  T
0.3333333333333357  0.6666666666666643  0.0000000000000000  T  T  T
0.0000000000000000  0.0000000000000000  0.2232809899911463  T  T  T

0.00000000E+00  0.00000000E+00  0.00000000E+00
0.00000000E+00  0.00000000E+00  0.00000000E+00
0.00000000E+00  0.00000000E+00  0.00000000E+00
0.00000000E+00  0.00000000E+00  0.00000000E+00
0.00000000E+00  0.00000000E+00  0.00000000E+00
0.00000000E+00  0.00000000E+00  0.00000000E+00
0.00000000E+00  0.00000000E+00  0.00000000E+00
