Hf2C  (n=1)
1.00000000000000
3.2642931377432980  0.0000000000000004  0.0000000000000000
-1.6321465688716490  2.8269607827425673  0.0000000000000000
-0.0000000000000001  -0.0000000000000025  32.0602441181138929
Hf  C  N  H
2  1  2  2
Selective  dynamics
Direct
0.0000000000000000  0.0000000000000000  0.0674215862276941  T  T  T
0.6666666666666643  0.3333333333333357  0.1543271521951335  T  T  T
0.3333333333333357  0.6666666666666643  0.1120392679494490  T  T  T
0.3333333333333357  0.6666666666666643  0.0321804019585361  T  T  T
0.0000000000000000  0.0000000000000000  0.1882657307330752  T  T  T
0.3333333333333357  0.6666666666666643  0.0000000000000000  T  T  T
0.0000000000000000  0.0000000000000000  0.2202180398908718  T  T  T

0.00000000E+00  0.00000000E+00  0.00000000E+00
0.00000000E+00  0.00000000E+00  0.00000000E+00
0.00000000E+00  0.00000000E+00  0.00000000E+00
0.00000000E+00  0.00000000E+00  0.00000000E+00
0.00000000E+00  0.00000000E+00  0.00000000E+00
0.00000000E+00  0.00000000E+00  0.00000000E+00
0.00000000E+00  0.00000000E+00  0.00000000E+00
