Cr2N  (n=1)
1.00000000000000
2.8134491792977188  0.0000000000000000  0.0000000000000000
-1.4067245896488594  2.4365184615720854  0.0000000000000000
0.0000000000000000  0.0000000000000000  31.7963303556011532
Cr  N  H
2  3  2
Selective  dynamics
Direct
0.0000000000000000  -0.0000000000000000  0.0674186559862213  T  T  T
0.6666666666666643  0.3333333333333357  0.1492651369740423  T  T  T
0.3333333333333357  0.6666666666666643  0.1053676242037843  T  T  T
0.3333333333333357  0.6666666666666643  0.0322745986769787  T  T  T
0.0000000000000000  -0.0000000000000000  0.1815105101792151  T  T  T
0.3333333333333357  0.6666666666666643  0.0000000000000000  T  T  T
0.0000000000000000  -0.0000000000000000  0.2137457461157599  T  T  T

0.00000000E+00  0.00000000E+00  0.00000000E+00
0.00000000E+00  0.00000000E+00  0.00000000E+00
0.00000000E+00  0.00000000E+00  0.00000000E+00
0.00000000E+00  0.00000000E+00  0.00000000E+00
0.00000000E+00  0.00000000E+00  0.00000000E+00
0.00000000E+00  0.00000000E+00  0.00000000E+00
0.00000000E+00  0.00000000E+00  0.00000000E+00
