Mo2N  (n=1)
1.00000000000000
2.8697169602036801  -0.0000000000000001  0.0000000000000001
-1.4348584801018398  2.4852477892458475  -0.0000000000000002
0.0000000000000000  -0.0000000000000015  32.5016286959705525
Mo  N  H
2  3  2
Selective  dynamics
Direct
-0.0000000000000000  0.0000000000000000  0.0696507699337970  T  T  T
0.6666666666666643  0.3333333333333357  0.1608724593748291  T  T  T
0.3333333333333357  0.6666666666666643  0.1100735879124582  T  T  T
0.3333333333333357  0.6666666666666643  0.0314313852462512  T  T  T
-0.0000000000000000  -0.0000000000000000  0.1992438961068666  T  T  T
0.3333333333333357  0.6666666666666643  0.0000000000000000  T  T  T
0.0000000000000000  0.0000000000000000  0.2308077778545472  T  T  T

0.00000000E+00  0.00000000E+00  0.00000000E+00
0.00000000E+00  0.00000000E+00  0.00000000E+00
0.00000000E+00  0.00000000E+00  0.00000000E+00
0.00000000E+00  0.00000000E+00  0.00000000E+00
0.00000000E+00  0.00000000E+00  0.00000000E+00
0.00000000E+00  0.00000000E+00  0.00000000E+00
0.00000000E+00  0.00000000E+00  0.00000000E+00
