Zr2C  (n=1)
1.00000000000000
3.3184476664102989  -0.0000000000000006  0.0000000000000002
-1.6592238332051494  2.8738599803011162  0.0000000000000000
0.0000000000000003  -0.0000000000000016  32.1285646464357271
Zr  C  N  H
2  1  2  2
Selective  dynamics
Direct
-0.0000000000000000  -0.0000000000000000  0.0674793727240125  T  T  T
0.6666666666666643  0.3333333333333357  0.1556585924491138  T  T  T
0.3333333333333357  0.6666666666666643  0.1127332330803724  T  T  T
0.3333333333333357  0.6666666666666643  0.0321253942667758  T  T  T
0.0000000000000000  0.0000000000000000  0.1899577029883300  T  T  T
0.3333333333333357  0.6666666666666643  0.0000000000000000  T  T  T
-0.0000000000000000  -0.0000000000000000  0.2218762252495010  T  T  T

0.00000000E+00  0.00000000E+00  0.00000000E+00
0.00000000E+00  0.00000000E+00  0.00000000E+00
0.00000000E+00  0.00000000E+00  0.00000000E+00
0.00000000E+00  0.00000000E+00  0.00000000E+00
0.00000000E+00  0.00000000E+00  0.00000000E+00
0.00000000E+00  0.00000000E+00  0.00000000E+00
0.00000000E+00  0.00000000E+00  0.00000000E+00
