Ti2C  (n=1)
1.00000000000000
3.0455643896357349  0.0000000000000000  0.0000000000000000
-1.5227821948178675  2.6375361303340799  0.0000000000000000
0.0000000000000000  -0.0000000000000001  31.8102703697067852
Ti  C  N  H
2  1  2  2
Selective  dynamics
Direct
-0.0000000000000000  -0.0000000000000000  0.0664009100537439  T  T  T
0.6666666666666643  0.3333333333333357  0.1483631589307732  T  T  T
0.3333333333333357  0.6666666666666643  0.1086431983635569  T  T  T
0.3333333333333357  0.6666666666666643  0.0324307724290526  T  T  T
0.0000000000000000  0.0000000000000000  0.1819180397217538  T  T  T
0.3333333333333357  0.6666666666666643  0.0000000000000000  T  T  T
0.0000000000000000  0.0000000000000000  0.2140903013572708  T  T  T

0.00000000E+00  0.00000000E+00  0.00000000E+00
0.00000000E+00  0.00000000E+00  0.00000000E+00
0.00000000E+00  0.00000000E+00  0.00000000E+00
0.00000000E+00  0.00000000E+00  0.00000000E+00
0.00000000E+00  0.00000000E+00  0.00000000E+00
0.00000000E+00  0.00000000E+00  0.00000000E+00
0.00000000E+00  0.00000000E+00  0.00000000E+00
