Mo2C  (n=1)
1.00000000000000
2.9454960938581838  0.0000000000000000  0.0000000000000000
-1.4727480469290919  2.5508744440641440  0.0000000000000000
0.0000000000000000  0.0000000000000000  32.2257624434335668
Mo  C  N  H
2  1  2  2
Selective  dynamics
Direct
0.0000000000000000  -0.0000000000000000  0.0699444538432479  T  T  T
0.6666666666666643  0.3333333333333357  0.1540519751178219  T  T  T
0.3333333333333357  0.6666666666666643  0.1105388879249288  T  T  T
0.3333333333333357  0.6666666666666643  0.0317437670603235  T  T  T
0.0000000000000000  0.0000000000000000  0.1924066420423274  T  T  T
0.3333333333333357  0.6666666666666643  0.0000000000000000  T  T  T
-0.0000000000000000  0.0000000000000000  0.2242231648084999  T  T  T

0.00000000E+00  0.00000000E+00  0.00000000E+00
0.00000000E+00  0.00000000E+00  0.00000000E+00
0.00000000E+00  0.00000000E+00  0.00000000E+00
0.00000000E+00  0.00000000E+00  0.00000000E+00
0.00000000E+00  0.00000000E+00  0.00000000E+00
0.00000000E+00  0.00000000E+00  0.00000000E+00
0.00000000E+00  0.00000000E+00  0.00000000E+00
