Ta2C  (n=1)
1.00000000000000
3.1248244995537937  0.0000000000000000  0.0000000000000002
-1.5624122497768969  2.7061773990327653  -0.0000000000000006
0.0000000000000008  -0.0000000000000009  31.9638540387325527
Ta  C  N  H
2  1  2  2
Selective  dynamics
Direct
0.0000000000000000  0.0000000000000000  0.0699843512567347  T  T  T
0.6666666666666643  0.3333333333333357  0.1482452868459143  T  T  T
0.3333333333333357  0.6666666666666643  0.1106824017320034  T  T  T
0.3333333333333357  0.6666666666666643  0.0320346080626885  T  T  T
0.0000000000000000  0.0000000000000000  0.1858926350070775  T  T  T
0.3333333333333357  0.6666666666666643  0.0000000000000000  T  T  T
-0.0000000000000000  -0.0000000000000000  0.2178665323115925  T  T  T

0.00000000E+00  0.00000000E+00  0.00000000E+00
0.00000000E+00  0.00000000E+00  0.00000000E+00
0.00000000E+00  0.00000000E+00  0.00000000E+00
0.00000000E+00  0.00000000E+00  0.00000000E+00
0.00000000E+00  0.00000000E+00  0.00000000E+00
0.00000000E+00  0.00000000E+00  0.00000000E+00
0.00000000E+00  0.00000000E+00  0.00000000E+00
