Sc2N
1.00000000000000
3.2079211584301408  0.0000000000000000  0.0000000000000002
-1.6039605792150706  2.7781412165931409  0.0000000000000000
0.0000000000000004  0.0000000000000005  32.0802892607215213
Sc  N  H
2  3  2
Selective  dynamics
Direct
-0.0000000000000000  0.0000000000000000  0.0645396124593686  T  T  T
0.6666666666666643  0.3333333333333357  0.1521441343741966  T  T  T
0.3333333333333357  0.6666666666666643  0.1132136774542317  T  T  T
0.3333333333333357  0.6666666666666643  0.0321014269977756  T  T  T
0.0000000000000000  0.0000000000000000  0.1887122943004696  T  T  T
0.3333333333333357  0.6666666666666643  0.0000000000000000  T  T  T
0.0000000000000000  0.0000000000000000  0.2207052811518906  T  T  T

0.00000000E+00  0.00000000E+00  0.00000000E+00
0.00000000E+00  0.00000000E+00  0.00000000E+00
0.00000000E+00  0.00000000E+00  0.00000000E+00
0.00000000E+00  0.00000000E+00  0.00000000E+00
0.00000000E+00  0.00000000E+00  0.00000000E+00
0.00000000E+00  0.00000000E+00  0.00000000E+00
0.00000000E+00  0.00000000E+00  0.00000000E+00
