Nb2C  (n=1)
1.00000000000000
3.1369110651449654  0.0000000000000000  0.0000000000000000
-1.5684555325724827  2.7166446718925958  0.0000000000000000
0.0000000000000000  0.0000000000000000  32.0091779476380722
Nb  C  N  H
2  1  2  2
Selective  dynamics
Direct
-0.0000000000000000  -0.0000000000000000  0.0702475814071671  T  T  T
0.6666666666666643  0.3333333333333357  0.1490254173625299  T  T  T
0.3333333333333357  0.6666666666666643  0.1106938607074273  T  T  T
0.3333333333333357  0.6666666666666643  0.0320092511887520  T  T  T
-0.0000000000000000  0.0000000000000000  0.1870235555193117  T  T  T
0.3333333333333357  0.6666666666666643  0.0000000000000000  T  T  T
-0.0000000000000000  -0.0000000000000000  0.2189740067396911  T  T  T

0.00000000E+00  0.00000000E+00  0.00000000E+00
0.00000000E+00  0.00000000E+00  0.00000000E+00
0.00000000E+00  0.00000000E+00  0.00000000E+00
0.00000000E+00  0.00000000E+00  0.00000000E+00
0.00000000E+00  0.00000000E+00  0.00000000E+00
0.00000000E+00  0.00000000E+00  0.00000000E+00
0.00000000E+00  0.00000000E+00  0.00000000E+00
