Zr2N  (n=1)
1.00000000000000
3.2688450609168629  0.0000000000000003  -0.0000000000000001
-1.6344225304584314  2.8309028638474678  0.0000000000000002
-0.0000000000000002  0.0000000000000005  32.0873555604644949
Zr  N  H
2  3  2
Selective  dynamics
Direct
-0.0000000000000000  -0.0000000000000000  0.0682212005064005  T  T  T
0.6666666666666643  0.3333333333333357  0.1534929391295925  T  T  T
0.3333333333333357  0.6666666666666643  0.1128330151225027  T  T  T
0.3333333333333357  0.6666666666666643  0.0320195726870376  T  T  T
0.0000000000000000  0.0000000000000000  0.1889631456074256  T  T  T
0.3333333333333357  0.6666666666666643  0.0000000000000000  T  T  T
-0.0000000000000000  -0.0000000000000000  0.2208768979765031  T  T  T

0.00000000E+00  0.00000000E+00  0.00000000E+00
0.00000000E+00  0.00000000E+00  0.00000000E+00
0.00000000E+00  0.00000000E+00  0.00000000E+00
0.00000000E+00  0.00000000E+00  0.00000000E+00
0.00000000E+00  0.00000000E+00  0.00000000E+00
0.00000000E+00  0.00000000E+00  0.00000000E+00
0.00000000E+00  0.00000000E+00  0.00000000E+00
