Hf2N  (n=1)
1.00000000000000
3.2185409307899553  -0.0000000000000003  0.0000000000000000
-1.6092704653949779  2.7873382092393717  0.0000000000000000
0.0000000000000000  0.0000000000000000  32.0027883378967104
Hf  N  H
2  3  2
Selective  dynamics
Direct
-0.0000000000000000  -0.0000000000000000  0.0677929123879690  T  T  T
0.6666666666666643  0.3333333333333357  0.1519396273854961  T  T  T
0.3333333333333357  0.6666666666666643  0.1120964736939152  T  T  T
0.3333333333333357  0.6666666666666643  0.0320717084715471  T  T  T
0.0000000000000000  0.0000000000000000  0.1868460319212048  T  T  T
0.3333333333333357  0.6666666666666643  0.0000000000000000  T  T  T
-0.0000000000000000  -0.0000000000000000  0.2188180687244750  T  T  T

0.00000000E+00  0.00000000E+00  0.00000000E+00
0.00000000E+00  0.00000000E+00  0.00000000E+00
0.00000000E+00  0.00000000E+00  0.00000000E+00
0.00000000E+00  0.00000000E+00  0.00000000E+00
0.00000000E+00  0.00000000E+00  0.00000000E+00
0.00000000E+00  0.00000000E+00  0.00000000E+00
0.00000000E+00  0.00000000E+00  0.00000000E+00
