Sc2C  (n=1)
1.00000000000000
3.3224658818139372  0.0000000000000000  0.0000000000000000
-1.6612329409069686  2.8773398569459192  0.0000000000000000
0.0000000000000000  0.0000000000000001  31.9810006129131317
Sc  C  N  H
2  1  2  2
Selective  dynamics
Direct
0.0000000000000000  0.0000000000000000  0.0611316751644492  T  T  T
0.6666666666666643  0.3333333333333357  0.1567837785382427  T  T  T
0.3333333333333357  0.6666666666666643  0.1115405068814782  T  T  T
0.3333333333333357  0.6666666666666643  0.0323286064810943  T  T  T
-0.0000000000000000  -0.0000000000000000  0.1860557178616319  T  T  T
0.3333333333333357  0.6666666666666643  0.0000000000000000  T  T  T
0.0000000000000000  0.0000000000000000  0.2182858722092134  T  T  T

0.00000000E+00  0.00000000E+00  0.00000000E+00
0.00000000E+00  0.00000000E+00  0.00000000E+00
0.00000000E+00  0.00000000E+00  0.00000000E+00
0.00000000E+00  0.00000000E+00  0.00000000E+00
0.00000000E+00  0.00000000E+00  0.00000000E+00
0.00000000E+00  0.00000000E+00  0.00000000E+00
0.00000000E+00  0.00000000E+00  0.00000000E+00
