Ti2N  (n=1)
1.00000000000000
2.9923353852962635  0.0000000000000000  0.0000000000000000
-1.4961676926481318  2.5914384603449871  0.0000000000000000
0.0000000000000000  0.0000000000000000  31.7829247655591978
Ti  N  H
2  3  2
Selective  dynamics
Direct
-0.0000000000000000  -0.0000000000000000  0.0673669851672620  T  T  T
0.6666666666666643  0.3333333333333357  0.1467977771749950  T  T  T
0.3333333333333357  0.6666666666666643  0.1087026555663734  T  T  T
0.3333333333333357  0.6666666666666643  0.0322882073466486  T  T  T
-0.0000000000000000  -0.0000000000000000  0.1812692687409596  T  T  T
0.3333333333333357  0.6666666666666643  0.0000000000000000  T  T  T
0.0000000000000000  0.0000000000000000  0.2134141151449142  T  T  T

0.00000000E+00  0.00000000E+00  0.00000000E+00
0.00000000E+00  0.00000000E+00  0.00000000E+00
0.00000000E+00  0.00000000E+00  0.00000000E+00
0.00000000E+00  0.00000000E+00  0.00000000E+00
0.00000000E+00  0.00000000E+00  0.00000000E+00
0.00000000E+00  0.00000000E+00  0.00000000E+00
0.00000000E+00  0.00000000E+00  0.00000000E+00
