Ta2N  (n=1)
1.00000000000000
3.0399763512472773  0.0000000000000000  0.0000000000000000
-1.5199881756236386  2.6326967471370786  0.0000000000000000
0.0000000000000000  0.0000000000000000  32.1815288669042658
Ta  N  H
2  3  2
Selective  dynamics
Direct
-0.0000000000000000  -0.0000000000000000  0.0700545693853794  T  T  T
0.6666666666666643  0.3333333333333357  0.1532604566174487  T  T  T
0.3333333333333357  0.6666666666666643  0.1113348904126627  T  T  T
0.3333333333333357  0.6666666666666643  0.0317817381024225  T  T  T
-0.0000000000000000  -0.0000000000000000  0.1911957447857806  T  T  T
0.3333333333333357  0.6666666666666643  0.0000000000000000  T  T  T
0.0000000000000000  -0.0000000000000000  0.2231568579791685  T  T  T

0.00000000E+00  0.00000000E+00  0.00000000E+00
0.00000000E+00  0.00000000E+00  0.00000000E+00
0.00000000E+00  0.00000000E+00  0.00000000E+00
0.00000000E+00  0.00000000E+00  0.00000000E+00
0.00000000E+00  0.00000000E+00  0.00000000E+00
0.00000000E+00  0.00000000E+00  0.00000000E+00
0.00000000E+00  0.00000000E+00  0.00000000E+00
