Cr2C  (n=1)
1.00000000000000
2.8126392849542805  0.0000000000000000  0.0000000000000000
-1.4063196424771403  2.4358170724596122  0.0000000000000000
0.0000000000000000  -0.0000000000000001  31.7015444446403443
Cr  C  N  H
2  1  2  2
Selective  dynamics
Direct
0.0000000000000000  0.0000000000000000  0.0681398734238419  T  T  T
0.6666666666666643  0.3333333333333357  0.1449020845924312  T  T  T
0.3333333333333357  0.6666666666666643  0.1049388012509560  T  T  T
0.3333333333333357  0.6666666666666643  0.0324084492670432  T  T  T
-0.0000000000000000  0.0000000000000000  0.1790907744092662  T  T  T
0.3333333333333357  0.6666666666666643  0.0000000000000000  T  T  T
-0.0000000000000000  -0.0000000000000000  0.2113948882314895  T  T  T

0.00000000E+00  0.00000000E+00  0.00000000E+00
0.00000000E+00  0.00000000E+00  0.00000000E+00
0.00000000E+00  0.00000000E+00  0.00000000E+00
0.00000000E+00  0.00000000E+00  0.00000000E+00
0.00000000E+00  0.00000000E+00  0.00000000E+00
0.00000000E+00  0.00000000E+00  0.00000000E+00
0.00000000E+00  0.00000000E+00  0.00000000E+00
