Sc4N3  (n=3)
1.00000000000000
3.2065496329598497  0.0000000000000000  0.0000000000000000
-1.6032748164799246  2.7769534409486831  0.0000000000000000
0.0000000000000000  0.0000000000000000  37.6511423999424721
Sc  N  H
4  5  2
Selective  dynamics
Direct
0.0000000000000000  -0.0000000000000000  0.0529924611907548  T  T  T
0.0000000000000000  -0.0000000000000000  0.1299823680480828  T  T  T
0.0000000000000000  -0.0000000000000000  0.2060271549979378  T  T  T
0.0000000000000000  -0.0000000000000000  0.2830170618552734  T  T  T
0.3333333333333357  0.6666666666666643  0.0983564578932961  T  T  T
0.3333333333333357  0.6666666666666643  0.1680047615230141  T  T  T
0.3333333333333357  0.6666666666666643  0.2376530651527169  T  T  T
0.3333333333333357  0.6666666666666643  0.0273400538115005  T  T  T
0.3333333333333357  0.6666666666666643  0.3086694692345200  T  T  T
0.3333333333333357  0.6666666666666643  0.0000000000000000  T  T  T
0.3333333333333357  0.6666666666666643  0.3360095230460206  T  T  T

0.00000000E+00  0.00000000E+00  0.00000000E+00
0.00000000E+00  0.00000000E+00  0.00000000E+00
0.00000000E+00  0.00000000E+00  0.00000000E+00
0.00000000E+00  0.00000000E+00  0.00000000E+00
0.00000000E+00  0.00000000E+00  0.00000000E+00
0.00000000E+00  0.00000000E+00  0.00000000E+00
0.00000000E+00  0.00000000E+00  0.00000000E+00
0.00000000E+00  0.00000000E+00  0.00000000E+00
0.00000000E+00  0.00000000E+00  0.00000000E+00
0.00000000E+00  0.00000000E+00  0.00000000E+00
0.00000000E+00  0.00000000E+00  0.00000000E+00
