Sc4C3  (n=3)
1.00000000000000
3.3312162390083113  0.0000000000000000  0.0000000000000000
-1.6656081195041557  2.8849178890274882  0.0000000000000000
0.0000000000000000  0.0000000000000000  37.6759393239144913
Sc  C  N  H
4  3  2  2
Selective  dynamics
Direct
-0.0000000000000000  -0.0000000000000000  0.0511059890074658  T  T  T
-0.0000000000000000  0.0000000000000000  0.1313941149296332  T  T  T
-0.0000000000000000  0.0000000000000000  0.2050524223400706  T  T  T
-0.0000000000000000  0.0000000000000000  0.2853405482622380  T  T  T
0.3333333333333357  0.6666666666666643  0.0994101625442012  T  T  T
0.3333333333333357  0.6666666666666643  0.1682232686348560  T  T  T
0.3333333333333357  0.6666666666666643  0.2370363747254948  T  T  T
0.3333333333333357  0.6666666666666643  0.0274299192400921  T  T  T
0.3333333333333357  0.6666666666666643  0.3090166180296118  T  T  T
0.3333333333333357  0.6666666666666643  0.0000000000000000  T  T  T
0.3333333333333357  0.6666666666666643  0.3364465372697037  T  T  T

0.00000000E+00  0.00000000E+00  0.00000000E+00
0.00000000E+00  0.00000000E+00  0.00000000E+00
0.00000000E+00  0.00000000E+00  0.00000000E+00
0.00000000E+00  0.00000000E+00  0.00000000E+00
0.00000000E+00  0.00000000E+00  0.00000000E+00
0.00000000E+00  0.00000000E+00  0.00000000E+00
0.00000000E+00  0.00000000E+00  0.00000000E+00
0.00000000E+00  0.00000000E+00  0.00000000E+00
0.00000000E+00  0.00000000E+00  0.00000000E+00
0.00000000E+00  0.00000000E+00  0.00000000E+00
0.00000000E+00  0.00000000E+00  0.00000000E+00
