Ti4C3  (n=3)
1.00000000000000
3.0233146759653318  0.0000000000000000  0.0000000000000000
-1.5116573379826659  2.6182673131544014  0.0000000000000000
0.0000000000000000  0.0000000000000000  37.5043996017202090
Ti  C  N  H
4  3  2  2
Selective  dynamics
Direct
-0.0000000000000000  0.0000000000000000  0.0556564274967807  T  T  T
-0.0000000000000000  0.0000000000000000  0.1300539148392999  T  T  T
-0.0000000000000000  0.0000000000000000  0.2033576244603899  T  T  T
-0.0000000000000000  0.0000000000000000  0.2777551118029090  T  T  T
0.3333333333333357  0.6666666666666643  0.0940163165387941  T  T  T
0.3333333333333357  0.6666666666666643  0.1667057696498448  T  T  T
0.3333333333333357  0.6666666666666643  0.2393952227608955  T  T  T
0.3333333333333357  0.6666666666666643  0.0274860242824503  T  T  T
0.3333333333333357  0.6666666666666643  0.3059255150172392  T  T  T
0.3333333333333357  0.6666666666666643  0.0000000000000000  T  T  T
0.3333333333333357  0.6666666666666643  0.3334115392996898  T  T  T

0.00000000E+00  0.00000000E+00  0.00000000E+00
0.00000000E+00  0.00000000E+00  0.00000000E+00
0.00000000E+00  0.00000000E+00  0.00000000E+00
0.00000000E+00  0.00000000E+00  0.00000000E+00
0.00000000E+00  0.00000000E+00  0.00000000E+00
0.00000000E+00  0.00000000E+00  0.00000000E+00
0.00000000E+00  0.00000000E+00  0.00000000E+00
0.00000000E+00  0.00000000E+00  0.00000000E+00
0.00000000E+00  0.00000000E+00  0.00000000E+00
0.00000000E+00  0.00000000E+00  0.00000000E+00
0.00000000E+00  0.00000000E+00  0.00000000E+00
