Mo4C3  (n=3)
1.00000000000000
2.9224402592143268  0.0000000000000000  0.0000000000000000
-1.4612201296071634  2.5309075055821064  0.0000000000000000
0.0000000000000000  0.0000000000000000  37.9578251207130819
Mo  C  N  H
4  3  2  2
Selective  dynamics
Direct
0.0000000000000000  -0.0000000000000000  0.0592928151100061  T  T  T
0.0000000000000000  0.0000000000000000  0.1333862666281197  T  T  T
0.0000000000000000  0.0000000000000000  0.2079880107311530  T  T  T
0.0000000000000000  -0.0000000000000000  0.2820814622492666  T  T  T
0.3333333333333357  0.6666666666666643  0.0962602384290515  T  T  T
0.3333333333333357  0.6666666666666643  0.1706871386796363  T  T  T
0.3333333333333357  0.6666666666666643  0.2451140389302212  T  T  T
0.3333333333333357  0.6666666666666643  0.0269210749711795  T  T  T
0.3333333333333357  0.6666666666666643  0.3144532023881013  T  T  T
0.3333333333333357  0.6666666666666643  0.0000000000000000  T  T  T
0.3333333333333357  0.6666666666666643  0.3413742773592729  T  T  T

0.00000000E+00  0.00000000E+00  0.00000000E+00
0.00000000E+00  0.00000000E+00  0.00000000E+00
0.00000000E+00  0.00000000E+00  0.00000000E+00
0.00000000E+00  0.00000000E+00  0.00000000E+00
0.00000000E+00  0.00000000E+00  0.00000000E+00
0.00000000E+00  0.00000000E+00  0.00000000E+00
0.00000000E+00  0.00000000E+00  0.00000000E+00
0.00000000E+00  0.00000000E+00  0.00000000E+00
0.00000000E+00  0.00000000E+00  0.00000000E+00
0.00000000E+00  0.00000000E+00  0.00000000E+00
0.00000000E+00  0.00000000E+00  0.00000000E+00
