Zr4C3  (n=3)
1.00000000000000
3.2775150859516406  0.0000000000000000  0.0000000000000000
-1.6387575429758203  2.8384113266030107  0.0000000000000000
0.0000000000000000  0.0000000000000000  38.3432643930168666
Zr  C  N  H
4  3  2  2
Selective  dynamics
Direct
-0.0000000000000000  -0.0000000000000000  0.0561646118324456  T  T  T
-0.0000000000000000  -0.0000000000000000  0.1350565112125113  T  T  T
-0.0000000000000000  -0.0000000000000000  0.2129384914103473  T  T  T
-0.0000000000000000  -0.0000000000000000  0.2918303907904130  T  T  T
0.3333333333333357  0.6666666666666643  0.0965167913950321  T  T  T
0.3333333333333357  0.6666666666666643  0.1739975013114332  T  T  T
0.3333333333333357  0.6666666666666643  0.2514782112278264  T  T  T
0.3333333333333357  0.6666666666666643  0.0268858465458413  T  T  T
0.3333333333333357  0.6666666666666643  0.3211091560770173  T  T  T
0.3333333333333357  0.6666666666666643  0.0000000000000000  T  T  T
0.3333333333333357  0.6666666666666643  0.3479950026228587  T  T  T

0.00000000E+00  0.00000000E+00  0.00000000E+00
0.00000000E+00  0.00000000E+00  0.00000000E+00
0.00000000E+00  0.00000000E+00  0.00000000E+00
0.00000000E+00  0.00000000E+00  0.00000000E+00
0.00000000E+00  0.00000000E+00  0.00000000E+00
0.00000000E+00  0.00000000E+00  0.00000000E+00
0.00000000E+00  0.00000000E+00  0.00000000E+00
0.00000000E+00  0.00000000E+00  0.00000000E+00
0.00000000E+00  0.00000000E+00  0.00000000E+00
0.00000000E+00  0.00000000E+00  0.00000000E+00
0.00000000E+00  0.00000000E+00  0.00000000E+00
