Ta4N3  (n=3)
1.00000000000000
2.9709675414275609  0.0000000000000000  0.0000000000000000
-1.4854837707137805  2.5729333647764019  0.0000000000000000
0.0000000000000000  0.0000000000000000  38.1957278511719736
Ta  N  H
4  5  2
Selective  dynamics
Direct
-0.0000000000000000  0.0000000000000000  0.0591432729522620  T  T  T
0.0000000000000000  0.0000000000000000  0.1346538206285181  T  T  T
0.0000000000000000  0.0000000000000000  0.2108227180720549  T  T  T
-0.0000000000000000  0.0000000000000000  0.2863332657483110  T  T  T
0.3333333333333357  0.6666666666666643  0.0974998174741683  T  T  T
0.3333333333333357  0.6666666666666643  0.1727382693502865  T  T  T
0.3333333333333357  0.6666666666666643  0.2479767212263966  T  T  T
0.3333333333333357  0.6666666666666643  0.0267062169933700  T  T  T
0.3333333333333357  0.6666666666666643  0.3187703217072111  T  T  T
0.3333333333333357  0.6666666666666643  0.0000000000000000  T  T  T
0.3333333333333357  0.6666666666666643  0.3454765387005732  T  T  T

0.00000000E+00  0.00000000E+00  0.00000000E+00
0.00000000E+00  0.00000000E+00  0.00000000E+00
0.00000000E+00  0.00000000E+00  0.00000000E+00
0.00000000E+00  0.00000000E+00  0.00000000E+00
0.00000000E+00  0.00000000E+00  0.00000000E+00
0.00000000E+00  0.00000000E+00  0.00000000E+00
0.00000000E+00  0.00000000E+00  0.00000000E+00
0.00000000E+00  0.00000000E+00  0.00000000E+00
0.00000000E+00  0.00000000E+00  0.00000000E+00
0.00000000E+00  0.00000000E+00  0.00000000E+00
0.00000000E+00  0.00000000E+00  0.00000000E+00
