Cr4N3  (n=3)
1.00000000000000
2.6799327939351074  0.0000000000000000  0.0000000000000000
-1.3399663969675537  2.3208898799834947  0.0000000000000000
0.0000000000000000  0.0000000000000000  37.1215051282979047
Cr  N  H
4  5  2
Selective  dynamics
Direct
-0.0000000000000000  -0.0000000000000000  0.0583506796552900  T  T  T
-0.0000000000000000  -0.0000000000000000  0.1281999675714988  T  T  T
-0.0000000000000000  -0.0000000000000000  0.1983359604951037  T  T  T
-0.0000000000000000  -0.0000000000000000  0.2681852484113045  T  T  T
0.3333333333333357  0.6666666666666643  0.0937721818352807  T  T  T
0.3333333333333357  0.6666666666666643  0.1632679640332972  T  T  T
0.3333333333333357  0.6666666666666643  0.2327637462313136  T  T  T
0.3333333333333357  0.6666666666666643  0.0275927017339061  T  T  T
0.3333333333333357  0.6666666666666643  0.2989432263326964  T  T  T
0.3333333333333357  0.6666666666666643  0.0000000000000000  T  T  T
0.3333333333333357  0.6666666666666643  0.3265359280666026  T  T  T

0.00000000E+00  0.00000000E+00  0.00000000E+00
0.00000000E+00  0.00000000E+00  0.00000000E+00
0.00000000E+00  0.00000000E+00  0.00000000E+00
0.00000000E+00  0.00000000E+00  0.00000000E+00
0.00000000E+00  0.00000000E+00  0.00000000E+00
0.00000000E+00  0.00000000E+00  0.00000000E+00
0.00000000E+00  0.00000000E+00  0.00000000E+00
0.00000000E+00  0.00000000E+00  0.00000000E+00
0.00000000E+00  0.00000000E+00  0.00000000E+00
0.00000000E+00  0.00000000E+00  0.00000000E+00
0.00000000E+00  0.00000000E+00  0.00000000E+00
