Ti4N3  (n=3)
1.00000000000000
2.9366192995466771  0.0000000000000000  0.0000000000000000
-1.4683096497733386  2.5431869146953043  0.0000000000000000
0.0000000000000000  0.0000000000000000  37.3663659510927531
Ti  N  H
4  5  2
Selective  dynamics
Direct
-0.0000000000000000  -0.0000000000000000  0.0573530668085087  T  T  T
-0.0000000000000000  -0.0000000000000000  0.1294355326960531  T  T  T
-0.0000000000000000  -0.0000000000000000  0.2015135878921858  T  T  T
-0.0000000000000000  0.0000000000000000  0.2735960537797302  T  T  T
0.3333333333333357  0.6666666666666643  0.0939634535063089  T  T  T
0.3333333333333357  0.6666666666666643  0.1654745602941234  T  T  T
0.3333333333333357  0.6666666666666643  0.2369856670819301  T  T  T
0.3333333333333357  0.6666666666666643  0.0274782551185604  T  T  T
0.3333333333333357  0.6666666666666643  0.3034708654696862  T  T  T
0.3333333333333357  0.6666666666666643  0.0000000000000000  T  T  T
0.3333333333333357  0.6666666666666643  0.3309491205882468  T  T  T

0.00000000E+00  0.00000000E+00  0.00000000E+00
0.00000000E+00  0.00000000E+00  0.00000000E+00
0.00000000E+00  0.00000000E+00  0.00000000E+00
0.00000000E+00  0.00000000E+00  0.00000000E+00
0.00000000E+00  0.00000000E+00  0.00000000E+00
0.00000000E+00  0.00000000E+00  0.00000000E+00
0.00000000E+00  0.00000000E+00  0.00000000E+00
0.00000000E+00  0.00000000E+00  0.00000000E+00
0.00000000E+00  0.00000000E+00  0.00000000E+00
0.00000000E+00  0.00000000E+00  0.00000000E+00
0.00000000E+00  0.00000000E+00  0.00000000E+00
