Hf4N3  (n=3)
1.00000000000000
3.1341127060763290  -0.0000000000000001  0.0000000000000000
-1.5670563530381645  2.7142212219637218  0.0000000000000000
0.0000000000000000  0.0000000000000000  38.0665135436296751
Hf  N  H
4  5  2
Selective  dynamics
Direct
0.0000000000000000  -0.0000000000000000  0.0574538852284482  T  T  T
0.0000000000000000  -0.0000000000000000  0.1336650294590232  T  T  T
0.0000000000000000  -0.0000000000000000  0.2095897718679642  T  T  T
0.0000000000000000  -0.0000000000000000  0.2858009160985311  T  T  T
0.3333333333333357  0.6666666666666643  0.0957648845871141  T  T  T
0.3333333333333357  0.6666666666666643  0.1716274006634897  T  T  T
0.3333333333333357  0.6666666666666643  0.2474899167398570  T  T  T
0.3333333333333357  0.6666666666666643  0.0269610319695481  T  T  T
0.3333333333333357  0.6666666666666643  0.3162937693574313  T  T  T
0.3333333333333357  0.6666666666666643  0.0000000000000000  T  T  T
0.3333333333333357  0.6666666666666643  0.3432548013269873  T  T  T

0.00000000E+00  0.00000000E+00  0.00000000E+00
0.00000000E+00  0.00000000E+00  0.00000000E+00
0.00000000E+00  0.00000000E+00  0.00000000E+00
0.00000000E+00  0.00000000E+00  0.00000000E+00
0.00000000E+00  0.00000000E+00  0.00000000E+00
0.00000000E+00  0.00000000E+00  0.00000000E+00
0.00000000E+00  0.00000000E+00  0.00000000E+00
0.00000000E+00  0.00000000E+00  0.00000000E+00
0.00000000E+00  0.00000000E+00  0.00000000E+00
0.00000000E+00  0.00000000E+00  0.00000000E+00
0.00000000E+00  0.00000000E+00  0.00000000E+00
