Ta4C3  (n=3)
1.00000000000000
3.0635576636789810  0.0000000000000000  0.0000000000000000
-1.5317788318394905  2.6531187629244766  0.0000000000000000
0.0000000000000000  0.0000000000000000  38.0627481712765885
Ta  C  N  H
4  3  2  2
Selective  dynamics
Direct
0.0000000000000000  0.0000000000000000  0.0587965560797134  T  T  T
0.0000000000000000  0.0000000000000000  0.1338736498981278  T  T  T
0.0000000000000000  -0.0000000000000000  0.2093161826514350  T  T  T
0.0000000000000000  0.0000000000000000  0.2843932764698494  T  T  T
0.3333333333333357  0.6666666666666643  0.0958545713842366  T  T  T
0.3333333333333357  0.6666666666666643  0.1715949162747813  T  T  T
0.3333333333333357  0.6666666666666643  0.2473352611653183  T  T  T
0.3333333333333357  0.6666666666666643  0.0269431059365539  T  T  T
0.3333333333333357  0.6666666666666643  0.3162467266130010  T  T  T
0.3333333333333357  0.6666666666666643  0.0000000000000000  T  T  T
0.3333333333333357  0.6666666666666643  0.3431898325495628  T  T  T

0.00000000E+00  0.00000000E+00  0.00000000E+00
0.00000000E+00  0.00000000E+00  0.00000000E+00
0.00000000E+00  0.00000000E+00  0.00000000E+00
0.00000000E+00  0.00000000E+00  0.00000000E+00
0.00000000E+00  0.00000000E+00  0.00000000E+00
0.00000000E+00  0.00000000E+00  0.00000000E+00
0.00000000E+00  0.00000000E+00  0.00000000E+00
0.00000000E+00  0.00000000E+00  0.00000000E+00
0.00000000E+00  0.00000000E+00  0.00000000E+00
0.00000000E+00  0.00000000E+00  0.00000000E+00
0.00000000E+00  0.00000000E+00  0.00000000E+00
