Zr4N3  (n=3)
1.00000000000000
3.1851788902977418  0.0000000000000001  0.0000000000000000
-1.5925894451488709  2.7584458348091787  0.0000000000000000
0.0000000000000000  0.0000000000000000  38.1918391885637050
Zr  N  H
4  5  2
Selective  dynamics
Direct
0.0000000000000000  0.0000000000000000  0.0577390876825851  T  T  T
0.0000000000000000  0.0000000000000000  0.1343746158623976  T  T  T
0.0000000000000000  0.0000000000000000  0.2110352797813355  T  T  T
0.0000000000000000  0.0000000000000000  0.2876708079611480  T  T  T
0.3333333333333357  0.6666666666666643  0.0964091792058632  T  T  T
0.3333333333333357  0.6666666666666643  0.1727049478218625  T  T  T
0.3333333333333357  0.6666666666666643  0.2490007164378617  T  T  T
0.3333333333333357  0.6666666666666643  0.0268831151300438  T  T  T
0.3333333333333357  0.6666666666666643  0.3185267805136811  T  T  T
0.3333333333333357  0.6666666666666643  0.0000000000000000  T  T  T
0.3333333333333357  0.6666666666666643  0.3454098956437248  T  T  T

0.00000000E+00  0.00000000E+00  0.00000000E+00
0.00000000E+00  0.00000000E+00  0.00000000E+00
0.00000000E+00  0.00000000E+00  0.00000000E+00
0.00000000E+00  0.00000000E+00  0.00000000E+00
0.00000000E+00  0.00000000E+00  0.00000000E+00
0.00000000E+00  0.00000000E+00  0.00000000E+00
0.00000000E+00  0.00000000E+00  0.00000000E+00
0.00000000E+00  0.00000000E+00  0.00000000E+00
0.00000000E+00  0.00000000E+00  0.00000000E+00
0.00000000E+00  0.00000000E+00  0.00000000E+00
0.00000000E+00  0.00000000E+00  0.00000000E+00
