Hf4C3  (n=3)
1.00000000000000
3.2200967368711693  0.0000000000000000  0.0000000000000000
-1.6100483684355846  2.7886855773759827  0.0000000000000000
0.0000000000000000  0.0000000000000000  38.2495124309583971
Hf  C  N  H
4  3  2  2
Selective  dynamics
Direct
-0.0000000000000000  -0.0000000000000000  0.0564391439842317  T  T  T
-0.0000000000000000  -0.0000000000000000  0.1345136766150061  T  T  T
-0.0000000000000000  -0.0000000000000000  0.2118832207277821  T  T  T
-0.0000000000000000  -0.0000000000000000  0.2899577533585487  T  T  T
0.3333333333333357  0.6666666666666643  0.0961315930968006  T  T  T
0.3333333333333357  0.6666666666666643  0.1731984486713942  T  T  T
0.3333333333333357  0.6666666666666643  0.2502653042459799  T  T  T
0.3333333333333357  0.6666666666666643  0.0269860024830395  T  T  T
0.3333333333333357  0.6666666666666643  0.3194108948597489  T  T  T
0.3333333333333357  0.6666666666666643  0.0000000000000000  T  T  T
0.3333333333333357  0.6666666666666643  0.3463968973427882  T  T  T

0.00000000E+00  0.00000000E+00  0.00000000E+00
0.00000000E+00  0.00000000E+00  0.00000000E+00
0.00000000E+00  0.00000000E+00  0.00000000E+00
0.00000000E+00  0.00000000E+00  0.00000000E+00
0.00000000E+00  0.00000000E+00  0.00000000E+00
0.00000000E+00  0.00000000E+00  0.00000000E+00
0.00000000E+00  0.00000000E+00  0.00000000E+00
0.00000000E+00  0.00000000E+00  0.00000000E+00
0.00000000E+00  0.00000000E+00  0.00000000E+00
0.00000000E+00  0.00000000E+00  0.00000000E+00
0.00000000E+00  0.00000000E+00  0.00000000E+00
