Nb4C3  (n=3)
1.00000000000000
3.0767127441868931  0.0000000000000000  0.0000000000000000
-1.5383563720934466  2.6645113967823475  0.0000000000000000
0.0000000000000000  0.0000000000000000  38.0991660573606765
Nb  C  N  H
4  3  2  2
Selective  dynamics
Direct
0.0000000000000000  0.0000000000000000  0.0587865820512882  T  T  T
0.0000000000000000  0.0000000000000000  0.1340203235172485  T  T  T
0.0000000000000000  0.0000000000000000  0.2097973347915724  T  T  T
0.0000000000000000  0.0000000000000000  0.2850310762575328  T  T  T
0.3333333333333357  0.6666666666666643  0.0962771800827132  T  T  T
0.3333333333333357  0.6666666666666643  0.1719088291544105  T  T  T
0.3333333333333357  0.6666666666666643  0.2475404782260916  T  T  T
0.3333333333333357  0.6666666666666643  0.0269252544115917  T  T  T
0.3333333333333357  0.6666666666666643  0.3168924038972293  T  T  T
0.3333333333333357  0.6666666666666643  0.0000000000000000  T  T  T
0.3333333333333357  0.6666666666666643  0.3438176583088212  T  T  T

0.00000000E+00  0.00000000E+00  0.00000000E+00
0.00000000E+00  0.00000000E+00  0.00000000E+00
0.00000000E+00  0.00000000E+00  0.00000000E+00
0.00000000E+00  0.00000000E+00  0.00000000E+00
0.00000000E+00  0.00000000E+00  0.00000000E+00
0.00000000E+00  0.00000000E+00  0.00000000E+00
0.00000000E+00  0.00000000E+00  0.00000000E+00
0.00000000E+00  0.00000000E+00  0.00000000E+00
0.00000000E+00  0.00000000E+00  0.00000000E+00
0.00000000E+00  0.00000000E+00  0.00000000E+00
0.00000000E+00  0.00000000E+00  0.00000000E+00
