Mo4N3  (n=3)
1.00000000000000
2.8959088109738484  0.0000000000000000  0.0000000000000000
-1.4479544054869242  2.5079305973824395  0.0000000000000000
0.0000000000000000  0.0000000000000000  38.0138119829900205
Mo  N  H
4  5  2
Selective  dynamics
Direct
-0.0000000000000000  0.0000000000000000  0.0593610128920725  T  T  T
-0.0000000000000000  0.0000000000000000  0.1337018937521500  T  T  T
-0.0000000000000000  0.0000000000000000  0.2086424096503340  T  T  T
-0.0000000000000000  0.0000000000000000  0.2829832905104114  T  T  T
0.3333333333333357  0.6666666666666643  0.0966304476479970  T  T  T
0.3333333333333357  0.6666666666666643  0.1711721517012420  T  T  T
0.3333333333333357  0.6666666666666643  0.2457138557544870  T  T  T
0.3333333333333357  0.6666666666666643  0.0269228576877065  T  T  T
0.3333333333333357  0.6666666666666643  0.3154214457147858  T  T  T
0.3333333333333357  0.6666666666666643  0.0000000000000000  T  T  T
0.3333333333333357  0.6666666666666643  0.3423443034024919  T  T  T

0.00000000E+00  0.00000000E+00  0.00000000E+00
0.00000000E+00  0.00000000E+00  0.00000000E+00
0.00000000E+00  0.00000000E+00  0.00000000E+00
0.00000000E+00  0.00000000E+00  0.00000000E+00
0.00000000E+00  0.00000000E+00  0.00000000E+00
0.00000000E+00  0.00000000E+00  0.00000000E+00
0.00000000E+00  0.00000000E+00  0.00000000E+00
0.00000000E+00  0.00000000E+00  0.00000000E+00
0.00000000E+00  0.00000000E+00  0.00000000E+00
0.00000000E+00  0.00000000E+00  0.00000000E+00
0.00000000E+00  0.00000000E+00  0.00000000E+00
