Cr4C3  (n=3)
1.00000000000000
2.6985261273171188  0.0000000000000000  0.0000000000000000
-1.3492630636585594  2.3369921790271624  0.0000000000000000
0.0000000000000000  0.0000000000000000  37.2116478988010329
Cr  C  N  H
4  3  2  2
Selective  dynamics
Direct
0.0000000000000000  -0.0000000000000000  0.0583074541449200  T  T  T
0.0000000000000000  -0.0000000000000000  0.1287256484172491  T  T  T
0.0000000000000000  -0.0000000000000000  0.1994417020857685  T  T  T
0.0000000000000000  -0.0000000000000000  0.2698598963581060  T  T  T
0.3333333333333357  0.6666666666666643  0.0938354426169288  T  T  T
0.3333333333333357  0.6666666666666643  0.1640836752515129  T  T  T
0.3333333333333357  0.6666666666666643  0.2343319078860888  T  T  T
0.3333333333333357  0.6666666666666643  0.0275363975733252  T  T  T
0.3333333333333357  0.6666666666666643  0.3006309529297006  T  T  T
0.3333333333333357  0.6666666666666643  0.0000000000000000  T  T  T
0.3333333333333357  0.6666666666666643  0.3281673505030260  T  T  T

0.00000000E+00  0.00000000E+00  0.00000000E+00
0.00000000E+00  0.00000000E+00  0.00000000E+00
0.00000000E+00  0.00000000E+00  0.00000000E+00
0.00000000E+00  0.00000000E+00  0.00000000E+00
0.00000000E+00  0.00000000E+00  0.00000000E+00
0.00000000E+00  0.00000000E+00  0.00000000E+00
0.00000000E+00  0.00000000E+00  0.00000000E+00
0.00000000E+00  0.00000000E+00  0.00000000E+00
0.00000000E+00  0.00000000E+00  0.00000000E+00
0.00000000E+00  0.00000000E+00  0.00000000E+00
0.00000000E+00  0.00000000E+00  0.00000000E+00
