Nb4N3  (n=3)
1.00000000000000
2.9916631461170065  0.0000000000000000  0.0000000000000000
-1.4958315730585032  2.5908562842037575  0.0000000000000000
0.0000000000000000  0.0000000000000000  38.1943023662492038
Nb  N  H
4  5  2
Selective  dynamics
Direct
-0.0000000000000000  0.0000000000000000  0.0592528017381804  T  T  T
-0.0000000000000000  0.0000000000000000  0.1346699173728985  T  T  T
-0.0000000000000000  0.0000000000000000  0.2107821932515432  T  T  T
-0.0000000000000000  0.0000000000000000  0.2861993088862694  T  T  T
0.3333333333333357  0.6666666666666643  0.0978274102894569  T  T  T
0.3333333333333357  0.6666666666666643  0.1727260553122208  T  T  T
0.3333333333333357  0.6666666666666643  0.2476247003349768  T  T  T
0.3333333333333357  0.6666666666666643  0.0267356163217623  T  T  T
0.3333333333333357  0.6666666666666643  0.3187164943026875  T  T  T
0.3333333333333357  0.6666666666666643  0.0000000000000000  T  T  T
0.3333333333333357  0.6666666666666643  0.3454521106244497  T  T  T

0.00000000E+00  0.00000000E+00  0.00000000E+00
0.00000000E+00  0.00000000E+00  0.00000000E+00
0.00000000E+00  0.00000000E+00  0.00000000E+00
0.00000000E+00  0.00000000E+00  0.00000000E+00
0.00000000E+00  0.00000000E+00  0.00000000E+00
0.00000000E+00  0.00000000E+00  0.00000000E+00
0.00000000E+00  0.00000000E+00  0.00000000E+00
0.00000000E+00  0.00000000E+00  0.00000000E+00
0.00000000E+00  0.00000000E+00  0.00000000E+00
0.00000000E+00  0.00000000E+00  0.00000000E+00
0.00000000E+00  0.00000000E+00  0.00000000E+00
