Zr2N  (n=1)
1.00000000000000
3.4618119521649788  0.0000000000000015  -0.0000000000000005
-1.7309059760824881  2.9980170941791351  0.0000000000000010
-0.0000000000000041  0.0000000000000077  31.1307264344960686
Zr  N  Se
2  1  2
Selective  dynamics
Direct
-0.0000000000000000  -0.0000000000000000  0.0570231533144906  T  T  T
0.6666666666666643  0.3333333333333357  0.1389906066284154  T  T  T
0.3333333333333357  0.6666666666666643  0.1010258463746204  T  T  T
0.3333333333333357  0.6666666666666643  0.0000000000000000  T  T  T
-0.0000000000000000  -0.0000000000000000  0.1969348979824187  T  T  T

0.00000000E+00  0.00000000E+00  0.00000000E+00
0.00000000E+00  0.00000000E+00  0.00000000E+00
0.00000000E+00  0.00000000E+00  0.00000000E+00
0.00000000E+00  0.00000000E+00  0.00000000E+00
0.00000000E+00  0.00000000E+00  0.00000000E+00
