Nb2N  (n=1)
1.00000000000000
3.2809771982128746  -0.0000000000000001  0.0000000000000000
-1.6404885991064375  2.8414096032609200  -0.0000000000000000
-0.0000000000000000  0.0000000000000001  31.0448203529594693
Nb  N  Se
2  1  2
Selective  dynamics
Direct
0.0000000000000000  0.0000000000000000  0.0588263033577328  T  T  T
0.6666666666666643  0.3333333333333357  0.1371684376094237  T  T  T
0.3333333333333357  0.6666666666666643  0.0967586688772508  T  T  T
0.3333333333333357  0.6666666666666643  0.0000000000000000  T  T  T
0.0000000000000000  0.0000000000000000  0.1947126858597918  T  T  T

0.00000000E+00  0.00000000E+00  0.00000000E+00
0.00000000E+00  0.00000000E+00  0.00000000E+00
0.00000000E+00  0.00000000E+00  0.00000000E+00
0.00000000E+00  0.00000000E+00  0.00000000E+00
0.00000000E+00  0.00000000E+00  0.00000000E+00
