Ta2C  (n=1)
1.00000000000000
3.3224113419040533  0.0000000000000000  0.0000000000000009
-1.6612056709520266  2.8772926242863646  -0.0000000000000024
0.0000000000000090  -0.0000000000000207  30.9276962178357451
Ta  C  Se
2  1  2
Selective  dynamics
Direct
-0.0000000000000000  -0.0000000000000000  0.0578850284167958  T  T  T
0.6666666666666643  0.3333333333333357  0.1337389402915176  T  T  T
0.3333333333333357  0.6666666666666643  0.0975964998975175  T  T  T
0.3333333333333357  0.6666666666666643  0.0000000000000000  T  T  T
-0.0000000000000000  -0.0000000000000000  0.1916630380770906  T  T  T

0.00000000E+00  0.00000000E+00  0.00000000E+00
0.00000000E+00  0.00000000E+00  0.00000000E+00
0.00000000E+00  0.00000000E+00  0.00000000E+00
0.00000000E+00  0.00000000E+00  0.00000000E+00
0.00000000E+00  0.00000000E+00  0.00000000E+00
