Ti2C  (n=1)
1.00000000000000
3.2195629847518901  0.0000000000000001  0.0000000000000000
-1.6097814923759450  2.7882233341478484  0.0000000000000000
0.0000000000000001  -0.0000000000000002  30.9346125781025307
Ti  C  Se
2  1  2
Selective  dynamics
Direct
-0.0000000000000000  -0.0000000000000000  0.0574338490469140  T  T  T
0.6666666666666643  0.3333333333333357  0.1332822273457633  T  T  T
0.3333333333333357  0.6666666666666643  0.0975450348458204  T  T  T
0.3333333333333357  0.6666666666666643  0.0000000000000000  T  T  T
-0.0000000000000000  -0.0000000000000000  0.1918437660442344  T  T  T

0.00000000E+00  0.00000000E+00  0.00000000E+00
0.00000000E+00  0.00000000E+00  0.00000000E+00
0.00000000E+00  0.00000000E+00  0.00000000E+00
0.00000000E+00  0.00000000E+00  0.00000000E+00
0.00000000E+00  0.00000000E+00  0.00000000E+00
