Hf2C  (n=1)
1.00000000000000
3.4377403970017322  0.0000000000000019  -0.0000000000000001
-1.7188701985008652  2.9771705158334152  -0.0000000000000005
-0.0000000000000008  -0.0000000000000089  31.1953287600614644
Hf  C  Se
2  1  2
Selective  dynamics
Direct
-0.0000000000000000  -0.0000000000000000  0.0565748830695116  T  T  T
0.6666666666666643  0.3333333333333357  0.1395288026251071  T  T  T
0.3333333333333357  0.6666666666666643  0.1011755372947543  T  T  T
0.3333333333333357  0.6666666666666643  0.0000000000000000  T  T  T
-0.0000000000000000  -0.0000000000000000  0.1985979634230743  T  T  T

0.00000000E+00  0.00000000E+00  0.00000000E+00
0.00000000E+00  0.00000000E+00  0.00000000E+00
0.00000000E+00  0.00000000E+00  0.00000000E+00
0.00000000E+00  0.00000000E+00  0.00000000E+00
0.00000000E+00  0.00000000E+00  0.00000000E+00
