Mo2C  (n=1)
1.00000000000000
3.2064772276684024  0.0000000000000001  -0.0000000000000000
-1.6032386138342012  2.7768907361112789  0.0000000000000000
-0.0000000000000002  -0.0000000000000005  30.9366741627703590
Mo  C  Se
2  1  2
Selective  dynamics
Direct
-0.0000000000000000  -0.0000000000000000  0.0590133035400560  T  T  T
0.6666666666666643  0.3333333333333357  0.1353610724843593  T  T  T
0.3333333333333357  0.6666666666666643  0.0942011474487160  T  T  T
0.3333333333333357  0.6666666666666643  0.0000000000000000  T  T  T
0.0000000000000000  0.0000000000000000  0.1918976206535684  T  T  T

0.00000000E+00  0.00000000E+00  0.00000000E+00
0.00000000E+00  0.00000000E+00  0.00000000E+00
0.00000000E+00  0.00000000E+00  0.00000000E+00
0.00000000E+00  0.00000000E+00  0.00000000E+00
0.00000000E+00  0.00000000E+00  0.00000000E+00
