Cr2C  (n=1)
1.00000000000000
3.0485255130705529  -0.0000000000000000  -0.0000000000000000
-1.5242627565352764  2.6401005384482641  -0.0000000000000001
-0.0000000000000001  -0.0000000000000002  30.5192893225736874
Cr  C  Se
2  1  2
Selective  dynamics
Direct
-0.0000000000000000  -0.0000000000000000  0.0565796078752116  T  T  T
0.6666666666666643  0.3333333333333357  0.1260589808660642  T  T  T
0.3333333333333357  0.6666666666666643  0.0897989513958881  T  T  T
0.3333333333333357  0.6666666666666643  0.0000000000000000  T  T  T
-0.0000000000000000  -0.0000000000000000  0.1808459320345749  T  T  T

0.00000000E+00  0.00000000E+00  0.00000000E+00
0.00000000E+00  0.00000000E+00  0.00000000E+00
0.00000000E+00  0.00000000E+00  0.00000000E+00
0.00000000E+00  0.00000000E+00  0.00000000E+00
0.00000000E+00  0.00000000E+00  0.00000000E+00
