Nb2C  (n=1)
1.00000000000000
3.3323768220744081  0.0000000000000001  -0.0000000000000000
-1.6661884110372041  2.8859229833393654  0.0000000000000000
-0.0000000000000002  -0.0000000000000002  30.9678548799492006
Nb  C  Se
2  1  2
Selective  dynamics
Direct
0.0000000000000000  0.0000000000000000  0.0582672386610941  T  T  T
0.6666666666666643  0.3333333333333357  0.1344834002628833  T  T  T
0.3333333333333357  0.6666666666666643  0.0975549615730418  T  T  T
0.3333333333333357  0.6666666666666643  0.0000000000000000  T  T  T
0.0000000000000000  0.0000000000000000  0.1927112776485276  T  T  T

0.00000000E+00  0.00000000E+00  0.00000000E+00
0.00000000E+00  0.00000000E+00  0.00000000E+00
0.00000000E+00  0.00000000E+00  0.00000000E+00
0.00000000E+00  0.00000000E+00  0.00000000E+00
0.00000000E+00  0.00000000E+00  0.00000000E+00
