Cr2N  (n=1)
1.00000000000000
3.0675327760101068  0.0000000000000000  0.0000000000000000
-1.5337663880050534  2.6565613112030717  0.0000000000000000
-0.0000000000000001  -0.0000000000000001  30.5719138350323725
Cr  N  Se
2  1  2
Selective  dynamics
Direct
-0.0000000000000000  -0.0000000000000000  0.0554765563655641  T  T  T
0.6666666666666643  0.3333333333333357  0.1248435299873000  T  T  T
0.3333333333333357  0.6666666666666643  0.0920613005788770  T  T  T
0.3333333333333357  0.6666666666666643  0.0000000000000000  T  T  T
-0.0000000000000000  -0.0000000000000000  0.1822559707939355  T  T  T

0.00000000E+00  0.00000000E+00  0.00000000E+00
0.00000000E+00  0.00000000E+00  0.00000000E+00
0.00000000E+00  0.00000000E+00  0.00000000E+00
0.00000000E+00  0.00000000E+00  0.00000000E+00
0.00000000E+00  0.00000000E+00  0.00000000E+00
