Zr2C  (n=1)
1.00000000000000
3.4789371462646086  -0.0000000000000025  0.0000000000000008
-1.7394685731323065  3.0128479472575025  -0.0000000000000004
0.0000000000000062  -0.0000000000000025  31.2785470633056626
Zr  C  Se
2  1  2
Selective  dynamics
Direct
0.0000000000000000  -0.0000000000000000  0.0569993146517502  T  T  T
0.6666666666666643  0.3333333333333357  0.1412034619613614  T  T  T
0.3333333333333357  0.6666666666666643  0.1021067308711731  T  T  T
0.3333333333333357  0.6666666666666643  0.0000000000000000  T  T  T
-0.0000000000000000  0.0000000000000000  0.2007301378353127  T  T  T

0.00000000E+00  0.00000000E+00  0.00000000E+00
0.00000000E+00  0.00000000E+00  0.00000000E+00
0.00000000E+00  0.00000000E+00  0.00000000E+00
0.00000000E+00  0.00000000E+00  0.00000000E+00
0.00000000E+00  0.00000000E+00  0.00000000E+00
