Mo2N  (n=1)
1.00000000000000
3.1279796136397162  -0.0000000000000001  0.0000000000000001
-1.5639898068198579  2.7089098079736882  -0.0000000000000002
0.0000000000000000  -0.0000000000000018  31.1782012682728862
Mo  N  Se
2  1  2
Selective  dynamics
Direct
0.0000000000000000  -0.0000000000000000  0.0568824880840181  T  T  T
0.6666666666666643  0.3333333333333357  0.1414779165743095  T  T  T
0.3333333333333357  0.6666666666666643  0.0958888332262328  T  T  T
0.3333333333333357  0.6666666666666643  0.0000000000000000  T  T  T
-0.0000000000000000  -0.0000000000000000  0.1981577197193816  T  T  T

0.00000000E+00  0.00000000E+00  0.00000000E+00
0.00000000E+00  0.00000000E+00  0.00000000E+00
0.00000000E+00  0.00000000E+00  0.00000000E+00
0.00000000E+00  0.00000000E+00  0.00000000E+00
0.00000000E+00  0.00000000E+00  0.00000000E+00
