Sc2N
1.00000000000000
3.3395415124586738  -0.0000000000000003  0.0000000000000005
-1.6697707562293371  2.8921277870548185  0.0000000000000001
0.0000000000000040  0.0000000000000035  31.3201337258486738
Sc  N  Se
2  1  2
Selective  dynamics
Direct
0.0000000000000000  0.0000000000000000  0.0602670635673961  T  T  T
0.6666666666666643  0.3333333333333357  0.1418419894622015  T  T  T
0.3333333333333357  0.6666666666666643  0.1028429058959221  T  T  T
0.3333333333333357  0.6666666666666643  0.0000000000000000  T  T  T
0.0000000000000000  0.0000000000000000  0.2017914029732457  T  T  T

0.00000000E+00  0.00000000E+00  0.00000000E+00
0.00000000E+00  0.00000000E+00  0.00000000E+00
0.00000000E+00  0.00000000E+00  0.00000000E+00
0.00000000E+00  0.00000000E+00  0.00000000E+00
0.00000000E+00  0.00000000E+00  0.00000000E+00
