Hf2N  (n=1)
1.00000000000000
3.4213911866288065  -0.0000000000000022  -0.0000000000000001
-1.7106955933144050  2.9630116843322201  0.0000000000000001
-0.0000000000000005  0.0000000000000006  31.0433455524839950
Hf  N  Se
2  1  2
Selective  dynamics
Direct
0.0000000000000000  0.0000000000000000  0.0563465433447000  T  T  T
0.6666666666666643  0.3333333333333357  0.1374135304840044  T  T  T
0.3333333333333357  0.6666666666666643  0.1002993029310207  T  T  T
0.3333333333333357  0.6666666666666643  0.0000000000000000  T  T  T
0.0000000000000000  -0.0000000000000000  0.1946744284460804  T  T  T

0.00000000E+00  0.00000000E+00  0.00000000E+00
0.00000000E+00  0.00000000E+00  0.00000000E+00
0.00000000E+00  0.00000000E+00  0.00000000E+00
0.00000000E+00  0.00000000E+00  0.00000000E+00
0.00000000E+00  0.00000000E+00  0.00000000E+00
