Ti2N  (n=1)
1.00000000000000
3.1953217181386817  0.0000000000000000  0.0000000000000000
-1.5976608590693411  2.7672297814015359  0.0000000000000000
-0.0000000000000002  0.0000000000000005  30.8272413127097664
Ti  N  Se
2  1  2
Selective  dynamics
Direct
-0.0000000000000000  0.0000000000000000  0.0573239578349602  T  T  T
0.6666666666666643  0.3333333333333357  0.1302994279903461  T  T  T
0.3333333333333357  0.6666666666666643  0.0964638685413232  T  T  T
0.3333333333333357  0.6666666666666643  0.0000000000000000  T  T  T
-0.0000000000000000  0.0000000000000000  0.1890289583034228  T  T  T

0.00000000E+00  0.00000000E+00  0.00000000E+00
0.00000000E+00  0.00000000E+00  0.00000000E+00
0.00000000E+00  0.00000000E+00  0.00000000E+00
0.00000000E+00  0.00000000E+00  0.00000000E+00
0.00000000E+00  0.00000000E+00  0.00000000E+00
