Sc2C  (n=1)
1.00000000000000
3.8402002409984513  0.0000000000000000  0.0000000000000000
-1.9201001204992256  3.3257109647982364  0.0000000000000000
0.0000000000000001  0.0000000000000001  29.9848166436843115
Sc  C  Se
2  1  2
Selective  dynamics
Direct
-0.0000000000000000  0.0000000000000000  0.0469424590354430  T  T  T
0.6666666666666643  0.3333333333333357  0.1216208866163730  T  T  T
0.3333333333333357  0.6666666666666643  0.0716238401513070  T  T  T
0.3333333333333357  0.6666666666666643  0.0000000000000000  T  T  T
-0.0000000000000000  0.0000000000000000  0.1662446932032270  T  T  T

0.00000000E+00  0.00000000E+00  0.00000000E+00
0.00000000E+00  0.00000000E+00  0.00000000E+00
0.00000000E+00  0.00000000E+00  0.00000000E+00
0.00000000E+00  0.00000000E+00  0.00000000E+00
0.00000000E+00  0.00000000E+00  0.00000000E+00
