Ta2N  (n=1)
1.00000000000000
3.2446364698725372  0.0000000000000000  0.0000000000000000
-1.6223182349362686  2.8099376093079131  0.0000000000000000
-0.0000000000000001  -0.0000000000000001  31.0952394328751716
Ta  N  Se
2  1  2
Selective  dynamics
Direct
-0.0000000000000000  -0.0000000000000000  0.0578433491677175  T  T  T
0.6666666666666643  0.3333333333333357  0.1391633321104986  T  T  T
0.3333333333333357  0.6666666666666643  0.0979080911414763  T  T  T
0.3333333333333357  0.6666666666666643  0.0000000000000000  T  T  T
-0.0000000000000000  -0.0000000000000000  0.1960184113080356  T  T  T

0.00000000E+00  0.00000000E+00  0.00000000E+00
0.00000000E+00  0.00000000E+00  0.00000000E+00
0.00000000E+00  0.00000000E+00  0.00000000E+00
0.00000000E+00  0.00000000E+00  0.00000000E+00
0.00000000E+00  0.00000000E+00  0.00000000E+00
