Zr3N2  (n=2)
1.00000000000000
3.3448732921326347  0.0000000000000000  0.0000000000000000
-1.6724366460663174  2.8967452447959046  0.0000000000000000
0.0000000000000001  -0.0000000000000004  34.3349776508906643
Zr  N  Se
3  2  2
Selective  dynamics
Direct
0.0000000000000000  0.0000000000000000  0.0526328203112053  T  T  T
0.0000000000000000  0.0000000000000000  0.1363301249904945  T  T  T
0.0000000000000000  0.0000000000000000  0.2197648790909059  T  T  T
0.3333333333333357  0.6666666666666643  0.0950064772871688  T  T  T
0.3333333333333357  0.6666666666666643  0.1789610615965153  T  T  T
0.3333333333333357  0.6666666666666643  0.0000000000000000  T  T  T
0.6666666666666643  0.3333333333333357  0.2718795318816382  T  T  T

0.00000000E+00  0.00000000E+00  0.00000000E+00
0.00000000E+00  0.00000000E+00  0.00000000E+00
0.00000000E+00  0.00000000E+00  0.00000000E+00
0.00000000E+00  0.00000000E+00  0.00000000E+00
0.00000000E+00  0.00000000E+00  0.00000000E+00
0.00000000E+00  0.00000000E+00  0.00000000E+00
0.00000000E+00  0.00000000E+00  0.00000000E+00
