Mo3N2  (n=2)
1.00000000000000
3.0240970743955184  -0.0000000000000001  0.0000000000000000
-1.5120485371977592  2.6189448903036388  0.0000000000000001
-0.0000000000000002  -0.0000000000000002  34.1845480447133383
Mo  N  Se
3  2  2
Selective  dynamics
Direct
-0.0000000000000000  0.0000000000000000  0.0522583143104311  T  T  T
-0.0000000000000000  0.0000000000000000  0.1341941853392596  T  T  T
-0.0000000000000000  -0.0000000000000000  0.2161019321669871  T  T  T
0.3333333333333357  0.6666666666666643  0.0924149766207336  T  T  T
0.3333333333333357  0.6666666666666643  0.1710892039117923  T  T  T
0.3333333333333357  0.6666666666666643  0.0000000000000000  T  T  T
0.6666666666666643  0.3333333333333357  0.2686754270584465  T  T  T

0.00000000E+00  0.00000000E+00  0.00000000E+00
0.00000000E+00  0.00000000E+00  0.00000000E+00
0.00000000E+00  0.00000000E+00  0.00000000E+00
0.00000000E+00  0.00000000E+00  0.00000000E+00
0.00000000E+00  0.00000000E+00  0.00000000E+00
0.00000000E+00  0.00000000E+00  0.00000000E+00
0.00000000E+00  0.00000000E+00  0.00000000E+00
