Sc3N2  (n=2)
1.00000000000000
3.2192176671395192  -0.0000000000000001  0.0000000000000000
-1.6096088335697596  2.7879242808301474  0.0000000000000000
0.0000000000000000  -0.0000000000000003  34.4602656768351920
Sc  N  Se
3  2  2
Selective  dynamics
Direct
0.0000000000000000  0.0000000000000000  0.0574496919565593  T  T  T
0.0000000000000000  0.0000000000000000  0.1378728414902919  T  T  T
0.0000000000000000  0.0000000000000000  0.2177748016771846  T  T  T
0.3333333333333357  0.6666666666666643  0.0968854459281250  T  T  T
0.3333333333333357  0.6666666666666643  0.1804317562033994  T  T  T
0.3333333333333357  0.6666666666666643  0.0000000000000000  T  T  T
0.6666666666666643  0.3333333333333357  0.2745267771744008  T  T  T

0.00000000E+00  0.00000000E+00  0.00000000E+00
0.00000000E+00  0.00000000E+00  0.00000000E+00
0.00000000E+00  0.00000000E+00  0.00000000E+00
0.00000000E+00  0.00000000E+00  0.00000000E+00
0.00000000E+00  0.00000000E+00  0.00000000E+00
0.00000000E+00  0.00000000E+00  0.00000000E+00
0.00000000E+00  0.00000000E+00  0.00000000E+00
