Ta3C2  (n=2)
1.00000000000000
3.1951920404362020  0.0000000000000001  0.0000000000000000
-1.5975960202181010  2.7671174780267234  0.0000000000000001
-0.0000000000000004  0.0000000000000012  34.2165722127782601
Ta  C  Se
3  2  2
Selective  dynamics
Direct
0.0000000000000000  0.0000000000000000  0.0532595458009787  T  T  T
0.0000000000000000  0.0000000000000000  0.1349941532137639  T  T  T
-0.0000000000000000  -0.0000000000000000  0.2164562173561931  T  T  T
0.3333333333333357  0.6666666666666643  0.0935136123399819  T  T  T
0.3333333333333357  0.6666666666666643  0.1777834875749684  T  T  T
0.3333333333333357  0.6666666666666643  0.0000000000000000  T  T  T
0.6666666666666643  0.3333333333333357  0.2693598924949095  T  T  T

0.00000000E+00  0.00000000E+00  0.00000000E+00
0.00000000E+00  0.00000000E+00  0.00000000E+00
0.00000000E+00  0.00000000E+00  0.00000000E+00
0.00000000E+00  0.00000000E+00  0.00000000E+00
0.00000000E+00  0.00000000E+00  0.00000000E+00
0.00000000E+00  0.00000000E+00  0.00000000E+00
0.00000000E+00  0.00000000E+00  0.00000000E+00
