Hf3N2  (n=2)
1.00000000000000
3.3034928275505759  0.0000000000000004  0.0000000000000000
-1.6517464137752880  2.8609087109104814  0.0000000000000000
0.0000000000000001  -0.0000000000000005  34.2152530869834308
Hf  N  Se
3  2  2
Selective  dynamics
Direct
-0.0000000000000000  0.0000000000000000  0.0521037444017664  T  T  T
-0.0000000000000000  0.0000000000000000  0.1352489790852882  T  T  T
-0.0000000000000000  0.0000000000000000  0.2178732870671683  T  T  T
0.3333333333333357  0.6666666666666643  0.0942852389716620  T  T  T
0.3333333333333357  0.6666666666666643  0.1777048703333518  T  T  T
0.3333333333333357  0.6666666666666643  0.0000000000000000  T  T  T
0.6666666666666643  0.3333333333333357  0.2693317235899449  T  T  T

0.00000000E+00  0.00000000E+00  0.00000000E+00
0.00000000E+00  0.00000000E+00  0.00000000E+00
0.00000000E+00  0.00000000E+00  0.00000000E+00
0.00000000E+00  0.00000000E+00  0.00000000E+00
0.00000000E+00  0.00000000E+00  0.00000000E+00
0.00000000E+00  0.00000000E+00  0.00000000E+00
0.00000000E+00  0.00000000E+00  0.00000000E+00
