Ti3C2  (n=2)
1.00000000000000
3.1220075548585182  -0.0000000000000000  -0.0000000000000000
-1.5610037774292593  2.7037378539303485  0.0000000000000000
-0.0000000000000003  0.0000000000000004  34.0418240496781195
Ti  C  Se
3  2  2
Selective  dynamics
Direct
-0.0000000000000000  0.0000000000000000  0.0563845352329681  T  T  T
-0.0000000000000000  -0.0000000000000000  0.1340602993881277  T  T  T
0.0000000000000000  -0.0000000000000000  0.2113648904698448  T  T  T
0.3333333333333357  0.6666666666666643  0.0930767883161917  T  T  T
0.3333333333333357  0.6666666666666643  0.1756905547692437  T  T  T
0.3333333333333357  0.6666666666666643  0.0000000000000000  T  T  T
0.6666666666666643  0.3333333333333357  0.2656092704222651  T  T  T

0.00000000E+00  0.00000000E+00  0.00000000E+00
0.00000000E+00  0.00000000E+00  0.00000000E+00
0.00000000E+00  0.00000000E+00  0.00000000E+00
0.00000000E+00  0.00000000E+00  0.00000000E+00
0.00000000E+00  0.00000000E+00  0.00000000E+00
0.00000000E+00  0.00000000E+00  0.00000000E+00
0.00000000E+00  0.00000000E+00  0.00000000E+00
