Ti3N2  (n=2)
1.00000000000000
3.1002532155747327  -0.0000000000000004  0.0000000000000000
-1.5501266077873670  2.6848980431728089  0.0000000000000000
0.0000000000000003  -0.0000000000000002  33.7442129917356652
Ti  N  Se
3  2  2
Selective  dynamics
Direct
0.0000000000000000  0.0000000000000000  0.0525748950986080  T  T  T
0.0000000000000000  0.0000000000000000  0.1301875555514877  T  T  T
0.0000000000000000  0.0000000000000000  0.2070825431683516  T  T  T
0.3333333333333357  0.6666666666666643  0.0910034478210430  T  T  T
0.3333333333333357  0.6666666666666643  0.1704594235130323  T  T  T
0.3333333333333357  0.6666666666666643  0.0000000000000000  T  T  T
0.6666666666666643  0.3333333333333357  0.2591322249500149  T  T  T

0.00000000E+00  0.00000000E+00  0.00000000E+00
0.00000000E+00  0.00000000E+00  0.00000000E+00
0.00000000E+00  0.00000000E+00  0.00000000E+00
0.00000000E+00  0.00000000E+00  0.00000000E+00
0.00000000E+00  0.00000000E+00  0.00000000E+00
0.00000000E+00  0.00000000E+00  0.00000000E+00
0.00000000E+00  0.00000000E+00  0.00000000E+00
