Hf3C2  (n=2)
1.00000000000000
3.3114640153517985  -0.0000000000000003  0.0000000000000001
-1.6557320076758992  2.8678119627267908  -0.0000000000000000
0.0000000000000006  -0.0000000000000009  34.5716960757239775
Hf  C  Se
3  2  2
Selective  dynamics
Direct
-0.0000000000000000  -0.0000000000000000  0.0571580501546489  T  T  T
0.0000000000000000  0.0000000000000000  0.1396930607303728  T  T  T
0.0000000000000000  0.0000000000000000  0.2220443924558562  T  T  T
0.3333333333333357  0.6666666666666643  0.0964439223434561  T  T  T
0.3333333333333357  0.6666666666666643  0.1840495298379058  T  T  T
0.3333333333333357  0.6666666666666643  0.0000000000000000  T  T  T
0.6666666666666643  0.3333333333333357  0.2768650995530753  T  T  T

0.00000000E+00  0.00000000E+00  0.00000000E+00
0.00000000E+00  0.00000000E+00  0.00000000E+00
0.00000000E+00  0.00000000E+00  0.00000000E+00
0.00000000E+00  0.00000000E+00  0.00000000E+00
0.00000000E+00  0.00000000E+00  0.00000000E+00
0.00000000E+00  0.00000000E+00  0.00000000E+00
0.00000000E+00  0.00000000E+00  0.00000000E+00
