Zr3C2  (n=2)
1.00000000000000
3.3470777663905764  0.0000000000000000  0.0000000000000000
-1.6735388831952882  2.8986543761976264  0.0000000000000000
0.0000000000000002  0.0000000000000003  34.7212487105509240
Zr  C  Se
3  2  2
Selective  dynamics
Direct
0.0000000000000000  0.0000000000000000  0.0576207283129960  T  T  T
0.0000000000000000  0.0000000000000000  0.1410694145000279  T  T  T
0.0000000000000000  0.0000000000000000  0.2244230946400367  T  T  T
0.3333333333333357  0.6666666666666643  0.0973714507703741  T  T  T
0.3333333333333357  0.6666666666666643  0.1859921564494078  T  T  T
0.3333333333333357  0.6666666666666643  0.0000000000000000  T  T  T
0.6666666666666643  0.3333333333333357  0.2799798126959896  T  T  T

0.00000000E+00  0.00000000E+00  0.00000000E+00
0.00000000E+00  0.00000000E+00  0.00000000E+00
0.00000000E+00  0.00000000E+00  0.00000000E+00
0.00000000E+00  0.00000000E+00  0.00000000E+00
0.00000000E+00  0.00000000E+00  0.00000000E+00
0.00000000E+00  0.00000000E+00  0.00000000E+00
0.00000000E+00  0.00000000E+00  0.00000000E+00
