Mo3C2  (n=2)
1.00000000000000
3.0528467227353668  0.0000000000000000  -0.0000000000000001
-1.5264233613676832  2.6438428160847121  0.0000000000000000
-0.0000000000000006  -0.0000000000000003  34.1640821943386257
Mo  C  Se
3  2  2
Selective  dynamics
Direct
0.0000000000000000  -0.0000000000000000  0.0522497797625633  T  T  T
0.0000000000000000  -0.0000000000000000  0.1336720464895304  T  T  T
0.0000000000000000  -0.0000000000000000  0.2148762067275803  T  T  T
0.3333333333333357  0.6666666666666643  0.0926178674425924  T  T  T
0.3333333333333357  0.6666666666666643  0.1736177833989892  T  T  T
0.3333333333333357  0.6666666666666643  0.0000000000000000  T  T  T
0.6666666666666643  0.3333333333333357  0.2682373301354842  T  T  T

0.00000000E+00  0.00000000E+00  0.00000000E+00
0.00000000E+00  0.00000000E+00  0.00000000E+00
0.00000000E+00  0.00000000E+00  0.00000000E+00
0.00000000E+00  0.00000000E+00  0.00000000E+00
0.00000000E+00  0.00000000E+00  0.00000000E+00
0.00000000E+00  0.00000000E+00  0.00000000E+00
0.00000000E+00  0.00000000E+00  0.00000000E+00
