Nb3C2  (n=2)
1.00000000000000
3.2082463064404396  -0.0000000000000001  0.0000000000000000
-1.6041231532202198  2.7784228043181494  0.0000000000000000
0.0000000000000001  0.0000000000000009  34.2556688054154250
Nb  C  Se
3  2  2
Selective  dynamics
Direct
0.0000000000000000  0.0000000000000000  0.0533509043003047  T  T  T
0.0000000000000000  0.0000000000000000  0.1353284556725108  T  T  T
0.0000000000000000  0.0000000000000000  0.2170067234940874  T  T  T
0.3333333333333357  0.6666666666666643  0.0939688009934752  T  T  T
0.3333333333333357  0.6666666666666643  0.1779028525711756  T  T  T
0.3333333333333357  0.6666666666666643  0.0000000000000000  T  T  T
0.6666666666666643  0.3333333333333357  0.2701937848007280  T  T  T

0.00000000E+00  0.00000000E+00  0.00000000E+00
0.00000000E+00  0.00000000E+00  0.00000000E+00
0.00000000E+00  0.00000000E+00  0.00000000E+00
0.00000000E+00  0.00000000E+00  0.00000000E+00
0.00000000E+00  0.00000000E+00  0.00000000E+00
0.00000000E+00  0.00000000E+00  0.00000000E+00
0.00000000E+00  0.00000000E+00  0.00000000E+00
