Cr3C2  (n=2)
1.00000000000000
2.8929193910219033  0.0000000000000000  0.0000000000000000
-1.4464596955109517  2.5053416835834281  0.0000000000000000
0.0000000000000002  0.0000000000000002  33.4845744978301454
Cr  C  Se
3  2  2
Selective  dynamics
Direct
0.0000000000000000  -0.0000000000000000  0.0508905996580449  T  T  T
0.0000000000000000  -0.0000000000000000  0.1264798592583214  T  T  T
0.0000000000000000  -0.0000000000000000  0.2017137470921977  T  T  T
0.3333333333333357  0.6666666666666643  0.0880475547493333  T  T  T
0.3333333333333357  0.6666666666666643  0.1641279500884827  T  T  T
0.3333333333333357  0.6666666666666643  0.0000000000000000  T  T  T
0.6666666666666643  0.3333333333333357  0.2533875560634632  T  T  T

0.00000000E+00  0.00000000E+00  0.00000000E+00
0.00000000E+00  0.00000000E+00  0.00000000E+00
0.00000000E+00  0.00000000E+00  0.00000000E+00
0.00000000E+00  0.00000000E+00  0.00000000E+00
0.00000000E+00  0.00000000E+00  0.00000000E+00
0.00000000E+00  0.00000000E+00  0.00000000E+00
0.00000000E+00  0.00000000E+00  0.00000000E+00
