Ta3N2  (n=2)
1.00000000000000
3.0970913763897596  -0.0000000000000003  0.0000000000000001
-1.5485456881948796  2.6821598104008921  0.0000000000000000
0.0000000000000006  -0.0000000000000010  34.3958636804350704
Ta  N  Se
3  2  2
Selective  dynamics
Direct
-0.0000000000000000  -0.0000000000000000  0.0527663053389438  T  T  T
-0.0000000000000000  -0.0000000000000000  0.1360345522965048  T  T  T
-0.0000000000000000  -0.0000000000000000  0.2196293275898951  T  T  T
0.3333333333333357  0.6666666666666643  0.0956243320775064  T  T  T
0.3333333333333357  0.6666666666666643  0.1761323469987165  T  T  T
0.3333333333333357  0.6666666666666643  0.0000000000000000  T  T  T
0.6666666666666643  0.3333333333333357  0.2731684183810622  T  T  T

0.00000000E+00  0.00000000E+00  0.00000000E+00
0.00000000E+00  0.00000000E+00  0.00000000E+00
0.00000000E+00  0.00000000E+00  0.00000000E+00
0.00000000E+00  0.00000000E+00  0.00000000E+00
0.00000000E+00  0.00000000E+00  0.00000000E+00
0.00000000E+00  0.00000000E+00  0.00000000E+00
0.00000000E+00  0.00000000E+00  0.00000000E+00
