Sc3C2Se2  (n=2)
1.00000000000000
3.2418938000229316  0.0000000000000000  0.0000000000000000
-1.6209469000114658  2.8075623871983502  0.0000000000000000
0.0000000000000000  0.0000000000000000  35.0225242463437212
Sc  C  Se
3  2  2
Selective  dynamics
Direct
0.0000000000000000  0.0000000000000000  0.0618016974435831  T  T  T
0.0000000000000000  0.0000000000000000  0.1451628384233566  T  T  T
0.0000000000000000  0.0000000000000000  0.2273433678666154  T  T  T
0.3333333333333357  0.6666666666666643  0.1002327462883362  T  T  T
0.3333333333333357  0.6666666666666643  0.1894358730497363  T  T  T
0.3333333333333357  0.6666666666666643  0.0000000000000000  T  T  T
0.6666666666666643  0.3333333333333357  0.2861736685753041  T  T  T

0.00000000E+00  0.00000000E+00  0.00000000E+00
0.00000000E+00  0.00000000E+00  0.00000000E+00
0.00000000E+00  0.00000000E+00  0.00000000E+00
0.00000000E+00  0.00000000E+00  0.00000000E+00
0.00000000E+00  0.00000000E+00  0.00000000E+00
0.00000000E+00  0.00000000E+00  0.00000000E+00
0.00000000E+00  0.00000000E+00  0.00000000E+00
