Nb3N2  (n=2)
1.00000000000000
3.1127823516268456  -0.0000000000000002  0.0000000000000000
-1.5563911758134228  2.6957485936766710  0.0000000000000000
0.0000000000000003  -0.0000000000000019  34.4099261124026370
Nb  N  Se
3  2  2
Selective  dynamics
Direct
-0.0000000000000000  -0.0000000000000000  0.0530325074425491  T  T  T
-0.0000000000000000  -0.0000000000000000  0.1360829373736499  T  T  T
-0.0000000000000000  -0.0000000000000000  0.2194776827122313  T  T  T
0.3333333333333357  0.6666666666666643  0.0955517588784880  T  T  T
0.3333333333333357  0.6666666666666643  0.1760316722457397  T  T  T
0.3333333333333357  0.6666666666666643  0.0000000000000000  T  T  T
0.6666666666666643  0.3333333333333357  0.2734654553358934  T  T  T

0.00000000E+00  0.00000000E+00  0.00000000E+00
0.00000000E+00  0.00000000E+00  0.00000000E+00
0.00000000E+00  0.00000000E+00  0.00000000E+00
0.00000000E+00  0.00000000E+00  0.00000000E+00
0.00000000E+00  0.00000000E+00  0.00000000E+00
0.00000000E+00  0.00000000E+00  0.00000000E+00
0.00000000E+00  0.00000000E+00  0.00000000E+00
