Cr3N2  (n=2)
1.00000000000000
2.8563581694735074  -0.0000000000000001  0.0000000000000000
-1.4281790847367537  2.4736787370192577  0.0000000000000000
0.0000000000000001  -0.0000000000000004  33.5040799079781664
Cr  N  Se
3  2  2
Selective  dynamics
Direct
0.0000000000000000  0.0000000000000000  0.0512262134968417  T  T  T
0.0000000000000000  0.0000000000000000  0.1267104986638269  T  T  T
0.0000000000000000  0.0000000000000000  0.2017361260807843  T  T  T
0.3333333333333357  0.6666666666666643  0.0879627156315153  T  T  T
0.3333333333333357  0.6666666666666643  0.1633372955935309  T  T  T
0.3333333333333357  0.6666666666666643  0.0000000000000000  T  T  T
0.6666666666666643  0.3333333333333357  0.2538222190054271  T  T  T

0.00000000E+00  0.00000000E+00  0.00000000E+00
0.00000000E+00  0.00000000E+00  0.00000000E+00
0.00000000E+00  0.00000000E+00  0.00000000E+00
0.00000000E+00  0.00000000E+00  0.00000000E+00
0.00000000E+00  0.00000000E+00  0.00000000E+00
0.00000000E+00  0.00000000E+00  0.00000000E+00
0.00000000E+00  0.00000000E+00  0.00000000E+00
