Mo4N3  (n=3)
1.00000000000000
2.8472201133832944  0.0000000000000000  0.0000000000000000
-1.4236100566916472  2.4657649483890007  0.0000000000000000
-0.0000000000000001  0.0000000000000000  38.3826219533991022
Mo  N  H
4  5  2
Selective  dynamics
Direct
-0.0000000000000000  -0.0000000000000000  0.0596213534732441  T  T  T
0.6666666666666643  0.3333333333333357  0.1364085199312227  T  T  T
0.3333333333333357  0.6666666666666643  0.2122550489528192  T  T  T
0.0000000000000000  -0.0000000000000000  0.2890422154107978  T  T  T
0.3333333333333357  0.6666666666666643  0.1002538676039852  T  T  T
-0.0000000000000000  -0.0000000000000000  0.1743317844420250  T  T  T
0.6666666666666643  0.3333333333333357  0.2484097012800486  T  T  T
0.6666666666666643  0.3333333333333357  0.0267259998486544  T  T  T
0.3333333333333357  0.6666666666666643  0.3219375690353874  T  T  T
0.6666666666666643  0.3333333333333357  0.0000000000000000  T  T  T
0.3333333333333357  0.6666666666666643  0.3486635688840418  T  T  T

0.00000000E+00  0.00000000E+00  0.00000000E+00
0.00000000E+00  0.00000000E+00  0.00000000E+00
0.00000000E+00  0.00000000E+00  0.00000000E+00
0.00000000E+00  0.00000000E+00  0.00000000E+00
0.00000000E+00  0.00000000E+00  0.00000000E+00
0.00000000E+00  0.00000000E+00  0.00000000E+00
0.00000000E+00  0.00000000E+00  0.00000000E+00
0.00000000E+00  0.00000000E+00  0.00000000E+00
0.00000000E+00  0.00000000E+00  0.00000000E+00
0.00000000E+00  0.00000000E+00  0.00000000E+00
0.00000000E+00  0.00000000E+00  0.00000000E+00
