Zr4N3  (n=3)
1.00000000000000
3.2663843960155665  0.0000000000000000  0.0000000000000000
-1.6331921980077833  2.8287718656852547  0.0000000000000000
-0.0000000000000001  -0.0000000000000004  37.3744807968741739
Zr  N  H
4  5  2
Selective  dynamics
Direct
-0.0000000000000000  -0.0000000000000000  0.0578729935105414  T  T  T
0.6666666666666643  0.3333333333333357  0.1292834545177424  T  T  T
0.3333333333333357  0.6666666666666643  0.2018109321609115  T  T  T
-0.0000000000000000  0.0000000000000000  0.2732213931681126  T  T  T
0.3333333333333357  0.6666666666666643  0.0935819430524737  T  T  T
-0.0000000000000000  -0.0000000000000000  0.1655471933393229  T  T  T
0.6666666666666643  0.3333333333333357  0.2375124436261802  T  T  T
0.6666666666666643  0.3333333333333357  0.0274071880317533  T  T  T
0.3333333333333357  0.6666666666666643  0.3036871986468926  T  T  T
0.6666666666666643  0.3333333333333357  0.0000000000000000  T  T  T
0.3333333333333357  0.6666666666666643  0.3310943866786536  T  T  T

0.00000000E+00  0.00000000E+00  0.00000000E+00
0.00000000E+00  0.00000000E+00  0.00000000E+00
0.00000000E+00  0.00000000E+00  0.00000000E+00
0.00000000E+00  0.00000000E+00  0.00000000E+00
0.00000000E+00  0.00000000E+00  0.00000000E+00
0.00000000E+00  0.00000000E+00  0.00000000E+00
0.00000000E+00  0.00000000E+00  0.00000000E+00
0.00000000E+00  0.00000000E+00  0.00000000E+00
0.00000000E+00  0.00000000E+00  0.00000000E+00
0.00000000E+00  0.00000000E+00  0.00000000E+00
0.00000000E+00  0.00000000E+00  0.00000000E+00
