Sc4N3  (n=3)
1.00000000000000
3.2141148777149922  0.0000000000000000  0.0000000000000000
-1.6070574388574961  2.7835051349599924  -0.0000000000000001
-0.0000000000000001  0.0000000000000001  37.0994828974444459
Sc  N  H
4  5  2
Selective  dynamics
Direct
0.0000000000000000  -0.0000000000000000  0.0550826083114746  T  T  T
0.6666666666666643  0.3333333333333357  0.1274248023177513  T  T  T
0.3333333333333357  0.6666666666666643  0.1987113578786463  T  T  T
-0.0000000000000000  0.0000000000000000  0.2710535518849228  T  T  T
0.3333333333333357  0.6666666666666643  0.0942724119666327  T  T  T
-0.0000000000000000  -0.0000000000000000  0.1630680800981987  T  T  T
0.6666666666666643  0.3333333333333357  0.2318637482297648  T  T  T
0.6666666666666643  0.3333333333333357  0.0276467076729890  T  T  T
0.3333333333333357  0.6666666666666643  0.2984894525234084  T  T  T
0.6666666666666643  0.3333333333333357  0.0000000000000000  T  T  T
0.3333333333333357  0.6666666666666643  0.3261361601963975  T  T  T

0.00000000E+00  0.00000000E+00  0.00000000E+00
0.00000000E+00  0.00000000E+00  0.00000000E+00
0.00000000E+00  0.00000000E+00  0.00000000E+00
0.00000000E+00  0.00000000E+00  0.00000000E+00
0.00000000E+00  0.00000000E+00  0.00000000E+00
0.00000000E+00  0.00000000E+00  0.00000000E+00
0.00000000E+00  0.00000000E+00  0.00000000E+00
0.00000000E+00  0.00000000E+00  0.00000000E+00
0.00000000E+00  0.00000000E+00  0.00000000E+00
0.00000000E+00  0.00000000E+00  0.00000000E+00
0.00000000E+00  0.00000000E+00  0.00000000E+00
