Sc4C3  (n=3)
1.00000000000000
3.3097364181926792  0.0000000000000001  0.0000000000000000
-1.6548682090963396  2.8663158182581188  -0.0000000000000002
0.0000000000000006  -0.0000000000000001  37.3367674887413585
Sc  C  N  H
4  3  2  2
Selective  dynamics
Direct
-0.0000000000000000  0.0000000000000000  0.0524860751248936  T  T  T
0.6666666666666643  0.3333333333333357  0.1290890327897772  T  T  T
0.3333333333333357  0.6666666666666643  0.2013297023741904  T  T  T
0.0000000000000000  0.0000000000000000  0.2779326600390817  T  T  T
0.3333333333333357  0.6666666666666643  0.0949121266661264  T  T  T
0.0000000000000000  0.0000000000000000  0.1652093675819838  T  T  T
0.6666666666666643  0.3333333333333357  0.2355066084978334  T  T  T
0.6666666666666643  0.3333333333333357  0.0275976792625854  T  T  T
0.3333333333333357  0.6666666666666643  0.3028210559013823  T  T  T
0.6666666666666643  0.3333333333333357  0.0000000000000000  T  T  T
0.3333333333333357  0.6666666666666643  0.3304187351639754  T  T  T

0.00000000E+00  0.00000000E+00  0.00000000E+00
0.00000000E+00  0.00000000E+00  0.00000000E+00
0.00000000E+00  0.00000000E+00  0.00000000E+00
0.00000000E+00  0.00000000E+00  0.00000000E+00
0.00000000E+00  0.00000000E+00  0.00000000E+00
0.00000000E+00  0.00000000E+00  0.00000000E+00
0.00000000E+00  0.00000000E+00  0.00000000E+00
0.00000000E+00  0.00000000E+00  0.00000000E+00
0.00000000E+00  0.00000000E+00  0.00000000E+00
0.00000000E+00  0.00000000E+00  0.00000000E+00
0.00000000E+00  0.00000000E+00  0.00000000E+00
