Ta4N3  (n=3)
1.00000000000000
3.0837075189937204  0.0000000000000000  0.0000000000000000
-1.5418537594968602  2.6705690493759762  0.0000000000000000
0.0000000000000001  0.0000000000000002  37.2257116395140955
Ta  N  H
4  5  2
Selective  dynamics
Direct
0.0000000000000000  0.0000000000000000  0.0596337341851360  T  T  T
0.6666666666666643  0.3333333333333357  0.1296163961745796  T  T  T
0.3333333333333357  0.6666666666666643  0.1988047703005067  T  T  T
-0.0000000000000000  -0.0000000000000000  0.2687874322899420  T  T  T
0.3333333333333357  0.6666666666666643  0.0953704436125708  T  T  T
0.0000000000000000  -0.0000000000000000  0.1642105832375391  T  T  T
0.6666666666666643  0.3333333333333357  0.2330507228624993  T  T  T
0.6666666666666643  0.3333333333333357  0.0275716759345724  T  T  T
0.3333333333333357  0.6666666666666643  0.3008494905405058  T  T  T
0.6666666666666643  0.3333333333333357  0.0000000000000000  T  T  T
0.3333333333333357  0.6666666666666643  0.3284211664750777  T  T  T

0.00000000E+00  0.00000000E+00  0.00000000E+00
0.00000000E+00  0.00000000E+00  0.00000000E+00
0.00000000E+00  0.00000000E+00  0.00000000E+00
0.00000000E+00  0.00000000E+00  0.00000000E+00
0.00000000E+00  0.00000000E+00  0.00000000E+00
0.00000000E+00  0.00000000E+00  0.00000000E+00
0.00000000E+00  0.00000000E+00  0.00000000E+00
0.00000000E+00  0.00000000E+00  0.00000000E+00
0.00000000E+00  0.00000000E+00  0.00000000E+00
0.00000000E+00  0.00000000E+00  0.00000000E+00
0.00000000E+00  0.00000000E+00  0.00000000E+00
