Ta4C3  (n=3)
1.00000000000000
3.1507732850428249  0.0000000000000000  0.0000000000000000
-1.5753866425214125  2.7286497065478228  0.0000000000000000
0.0000000000000000  -0.0000000000000005  37.1105188584302326
Ta  C  N  H
4  3  2  2
Selective  dynamics
Direct
0.0000000000000000  0.0000000000000000  0.0595081770524641  T  T  T
0.6666666666666643  0.3333333333333357  0.1267514777212529  T  T  T
0.3333333333333357  0.6666666666666643  0.1995850767373260  T  T  T
-0.0000000000000000  -0.0000000000000000  0.2668283774061147  T  T  T
0.3333333333333357  0.6666666666666643  0.0929634927970277  T  T  T
-0.0000000000000000  -0.0000000000000000  0.1631682772292854  T  T  T
0.6666666666666643  0.3333333333333357  0.2333730616615431  T  T  T
0.6666666666666643  0.3333333333333357  0.0275590184509094  T  T  T
0.3333333333333357  0.6666666666666643  0.2987775360076695  T  T  T
0.6666666666666643  0.3333333333333357  0.0000000000000000  T  T  T
0.3333333333333357  0.6666666666666643  0.3263365544585787  T  T  T

0.00000000E+00  0.00000000E+00  0.00000000E+00
0.00000000E+00  0.00000000E+00  0.00000000E+00
0.00000000E+00  0.00000000E+00  0.00000000E+00
0.00000000E+00  0.00000000E+00  0.00000000E+00
0.00000000E+00  0.00000000E+00  0.00000000E+00
0.00000000E+00  0.00000000E+00  0.00000000E+00
0.00000000E+00  0.00000000E+00  0.00000000E+00
0.00000000E+00  0.00000000E+00  0.00000000E+00
0.00000000E+00  0.00000000E+00  0.00000000E+00
0.00000000E+00  0.00000000E+00  0.00000000E+00
0.00000000E+00  0.00000000E+00  0.00000000E+00
