Cr4N3  (n=3)
1.00000000000000
2.9061164607030636  0.0000000000000000  0.0000000000000000
-1.4530582303515318  2.5167706813437678  0.0000000000000000
0.0000000000000000  0.0000000000000006  36.3928719217991983
Cr  N  H
4  5  2
Selective  dynamics
Direct
-0.0000000000000000  -0.0000000000000000  0.0556217263755654  T  T  T
0.6666666666666643  0.3333333333333357  0.1238244838469849  T  T  T
0.3333333333333357  0.6666666666666643  0.1892278068950238  T  T  T
-0.0000000000000000  0.0000000000000000  0.2574305643664355  T  T  T
0.3333333333333357  0.6666666666666643  0.0922790875002993  T  T  T
-0.0000000000000000  -0.0000000000000000  0.1565261453710045  T  T  T
0.6666666666666643  0.3333333333333357  0.2207732032417016  T  T  T
0.6666666666666643  0.3333333333333357  0.0281707976021663  T  T  T
0.3333333333333357  0.6666666666666643  0.2848814931398347  T  T  T
0.6666666666666643  0.3333333333333357  0.0000000000000000  T  T  T
0.3333333333333357  0.6666666666666643  0.3130522907419930  T  T  T

0.00000000E+00  0.00000000E+00  0.00000000E+00
0.00000000E+00  0.00000000E+00  0.00000000E+00
0.00000000E+00  0.00000000E+00  0.00000000E+00
0.00000000E+00  0.00000000E+00  0.00000000E+00
0.00000000E+00  0.00000000E+00  0.00000000E+00
0.00000000E+00  0.00000000E+00  0.00000000E+00
0.00000000E+00  0.00000000E+00  0.00000000E+00
0.00000000E+00  0.00000000E+00  0.00000000E+00
0.00000000E+00  0.00000000E+00  0.00000000E+00
0.00000000E+00  0.00000000E+00  0.00000000E+00
0.00000000E+00  0.00000000E+00  0.00000000E+00
