Ti4N3  (n=3)
1.00000000000000
3.0008195367373420  0.0000000000000000  0.0000000000000000
-1.5004097683686710  2.5987859510320472  0.0000000000000000
0.0000000000000000  0.0000000000000003  36.6210679935567072
Ti  N  H
4  5  2
Selective  dynamics
Direct
0.0000000000000000  -0.0000000000000000  0.0576186438710503  T  T  T
0.6666666666666643  0.3333333333333357  0.1246705502781779  T  T  T
0.3333333333333357  0.6666666666666643  0.1926623029199149  T  T  T
0.0000000000000000  0.0000000000000000  0.2597142093270423  T  T  T
0.3333333333333357  0.6666666666666643  0.0914155880659282  T  T  T
0.0000000000000000  -0.0000000000000000  0.1586664265990423  T  T  T
0.6666666666666643  0.3333333333333357  0.2259172651321562  T  T  T
0.6666666666666643  0.3333333333333357  0.0279062236829423  T  T  T
0.3333333333333357  0.6666666666666643  0.2894266295151504  T  T  T
0.6666666666666643  0.3333333333333357  0.0000000000000000  T  T  T
0.3333333333333357  0.6666666666666643  0.3173328531980927  T  T  T

0.00000000E+00  0.00000000E+00  0.00000000E+00
0.00000000E+00  0.00000000E+00  0.00000000E+00
0.00000000E+00  0.00000000E+00  0.00000000E+00
0.00000000E+00  0.00000000E+00  0.00000000E+00
0.00000000E+00  0.00000000E+00  0.00000000E+00
0.00000000E+00  0.00000000E+00  0.00000000E+00
0.00000000E+00  0.00000000E+00  0.00000000E+00
0.00000000E+00  0.00000000E+00  0.00000000E+00
0.00000000E+00  0.00000000E+00  0.00000000E+00
0.00000000E+00  0.00000000E+00  0.00000000E+00
0.00000000E+00  0.00000000E+00  0.00000000E+00
