Nb4C3  (n=3)
1.00000000000000
3.1662484253016423  0.0000000000000000  0.0000000000000000
-1.5831242126508211  2.7420515711565363  0.0000000000000000
0.0000000000000000  0.0000000000000002  37.1912735210938621
Nb  C  N  H
4  3  2  2
Selective  dynamics
Direct
-0.0000000000000000  -0.0000000000000000  0.0597453117449175  T  T  T
0.6666666666666643  0.3333333333333357  0.1273180703944096  T  T  T
0.3333333333333357  0.6666666666666643  0.2004812321537890  T  T  T
-0.0000000000000000  -0.0000000000000000  0.2680539908032733  T  T  T
0.3333333333333357  0.6666666666666643  0.0934735827415690  T  T  T
-0.0000000000000000  -0.0000000000000000  0.1638996512741033  T  T  T
0.6666666666666643  0.3333333333333357  0.2343257198066217  T  T  T
0.6666666666666643  0.3333333333333357  0.0275113400856684  T  T  T
0.3333333333333357  0.6666666666666643  0.3002879624625302  T  T  T
0.6666666666666643  0.3333333333333357  0.0000000000000000  T  T  T
0.3333333333333357  0.6666666666666643  0.3277993025481988  T  T  T

0.00000000E+00  0.00000000E+00  0.00000000E+00
0.00000000E+00  0.00000000E+00  0.00000000E+00
0.00000000E+00  0.00000000E+00  0.00000000E+00
0.00000000E+00  0.00000000E+00  0.00000000E+00
0.00000000E+00  0.00000000E+00  0.00000000E+00
0.00000000E+00  0.00000000E+00  0.00000000E+00
0.00000000E+00  0.00000000E+00  0.00000000E+00
0.00000000E+00  0.00000000E+00  0.00000000E+00
0.00000000E+00  0.00000000E+00  0.00000000E+00
0.00000000E+00  0.00000000E+00  0.00000000E+00
0.00000000E+00  0.00000000E+00  0.00000000E+00
