Hf4C3  (n=3)
1.00000000000000
3.2859891626631859  0.0000000000000000  0.0000000000000000
-1.6429945813315929  2.8457500916813223  -0.0000000000000001
-0.0000000000000003  0.0000000000000017  37.3550432368143461
Hf  C  N  H
4  3  2  2
Selective  dynamics
Direct
-0.0000000000000000  -0.0000000000000000  0.0563746319593712  T  T  T
0.6666666666666643  0.3333333333333357  0.1292846992125476  T  T  T
0.3333333333333357  0.6666666666666643  0.2014616248778536  T  T  T
-0.0000000000000000  0.0000000000000000  0.2743716921310379  T  T  T
0.3333333333333357  0.6666666666666643  0.0930684706465858  T  T  T
-0.0000000000000000  0.0000000000000000  0.1653731620452046  T  T  T
0.6666666666666643  0.3333333333333357  0.2376778534438074  T  T  T
0.6666666666666643  0.3333333333333357  0.0274472379913594  T  T  T
0.3333333333333357  0.6666666666666643  0.3032990860990496  T  T  T
0.6666666666666643  0.3333333333333357  0.0000000000000000  T  T  T
0.3333333333333357  0.6666666666666643  0.3307463240904012  T  T  T

0.00000000E+00  0.00000000E+00  0.00000000E+00
0.00000000E+00  0.00000000E+00  0.00000000E+00
0.00000000E+00  0.00000000E+00  0.00000000E+00
0.00000000E+00  0.00000000E+00  0.00000000E+00
0.00000000E+00  0.00000000E+00  0.00000000E+00
0.00000000E+00  0.00000000E+00  0.00000000E+00
0.00000000E+00  0.00000000E+00  0.00000000E+00
0.00000000E+00  0.00000000E+00  0.00000000E+00
0.00000000E+00  0.00000000E+00  0.00000000E+00
0.00000000E+00  0.00000000E+00  0.00000000E+00
0.00000000E+00  0.00000000E+00  0.00000000E+00
