Nb4N3  (n=3)
1.00000000000000
3.1729445276401624  0.0000000000000000  0.0000000000000000
-1.5864722638200812  2.7478505658610248  0.0000000000000000
0.0000000000000000  0.0000000000000001  36.8636252989087012
Nb  N  H
4  5  2
Selective  dynamics
Direct
0.0000000000000000  0.0000000000000000  0.0596000191517217  T  T  T
0.6666666666666643  0.3333333333333357  0.1233534433368068  T  T  T
0.3333333333333357  0.6666666666666643  0.1984712606284843  T  T  T
-0.0000000000000000  -0.0000000000000000  0.2622246848135693  T  T  T
0.3333333333333357  0.6666666666666643  0.0926331391790147  T  T  T
0.0000000000000000  0.0000000000000000  0.1609123519826455  T  T  T
0.6666666666666643  0.3333333333333357  0.2291915647862683  T  T  T
0.6666666666666643  0.3333333333333357  0.0277809774594673  T  T  T
0.3333333333333357  0.6666666666666643  0.2940437265058236  T  T  T
0.6666666666666643  0.3333333333333357  0.0000000000000000  T  T  T
0.3333333333333357  0.6666666666666643  0.3218247039652910  T  T  T

0.00000000E+00  0.00000000E+00  0.00000000E+00
0.00000000E+00  0.00000000E+00  0.00000000E+00
0.00000000E+00  0.00000000E+00  0.00000000E+00
0.00000000E+00  0.00000000E+00  0.00000000E+00
0.00000000E+00  0.00000000E+00  0.00000000E+00
0.00000000E+00  0.00000000E+00  0.00000000E+00
0.00000000E+00  0.00000000E+00  0.00000000E+00
0.00000000E+00  0.00000000E+00  0.00000000E+00
0.00000000E+00  0.00000000E+00  0.00000000E+00
0.00000000E+00  0.00000000E+00  0.00000000E+00
0.00000000E+00  0.00000000E+00  0.00000000E+00
