Zr4C3  (n=3)
1.00000000000000
3.3414654773405355  0.0000000000000000  0.0000000000000000
-1.6707327386702677  2.8937939895047502  0.0000000000000000
0.0000000000000000  0.0000000000000004  37.4961084092726225
Zr  C  N  H
4  3  2  2
Selective  dynamics
Direct
0.0000000000000000  0.0000000000000000  0.0564747052442085  T  T  T
0.6666666666666643  0.3333333333333357  0.1301565719195443  T  T  T
0.3333333333333357  0.6666666666666643  0.2031075703982860  T  T  T
0.0000000000000000  0.0000000000000000  0.2767894370736220  T  T  T
0.3333333333333357  0.6666666666666643  0.0936689376320240  T  T  T
0.0000000000000000  0.0000000000000000  0.1666320711589152  T  T  T
0.6666666666666643  0.3333333333333357  0.2395952046858064  T  T  T
0.6666666666666643  0.3333333333333357  0.0273660978296199  T  T  T
0.3333333333333357  0.6666666666666643  0.3058980444882103  T  T  T
0.6666666666666643  0.3333333333333357  0.0000000000000000  T  T  T
0.3333333333333357  0.6666666666666643  0.3332641423178303  T  T  T

0.00000000E+00  0.00000000E+00  0.00000000E+00
0.00000000E+00  0.00000000E+00  0.00000000E+00
0.00000000E+00  0.00000000E+00  0.00000000E+00
0.00000000E+00  0.00000000E+00  0.00000000E+00
0.00000000E+00  0.00000000E+00  0.00000000E+00
0.00000000E+00  0.00000000E+00  0.00000000E+00
0.00000000E+00  0.00000000E+00  0.00000000E+00
0.00000000E+00  0.00000000E+00  0.00000000E+00
0.00000000E+00  0.00000000E+00  0.00000000E+00
0.00000000E+00  0.00000000E+00  0.00000000E+00
0.00000000E+00  0.00000000E+00  0.00000000E+00
