Hf4N3  (n=3)
1.00000000000000
3.2125410802963095  0.0000000000000000  0.0000000000000000
-1.6062705401481547  2.7821421864369427  0.0000000000000000
0.0000000000000000  -0.0000000000000004  37.1964596085224741
Hf  N  H
4  5  2
Selective  dynamics
Direct
0.0000000000000000  0.0000000000000000  0.0575907698963859  T  T  T
0.6666666666666643  0.3333333333333357  0.1280593996554777  T  T  T
0.3333333333333357  0.6666666666666643  0.1998336239517479  T  T  T
-0.0000000000000000  -0.0000000000000000  0.2703022537108317  T  T  T
0.3333333333333357  0.6666666666666643  0.0928866454056169  T  T  T
0.0000000000000000  0.0000000000000000  0.1639465118036089  T  T  T
0.6666666666666643  0.3333333333333357  0.2350063782015925  T  T  T
0.6666666666666643  0.3333333333333357  0.0275146213989299  T  T  T
0.3333333333333357  0.6666666666666643  0.3003784022082956  T  T  T
0.6666666666666643  0.3333333333333357  0.0000000000000000  T  T  T
0.3333333333333357  0.6666666666666643  0.3278930236072257  T  T  T

0.00000000E+00  0.00000000E+00  0.00000000E+00
0.00000000E+00  0.00000000E+00  0.00000000E+00
0.00000000E+00  0.00000000E+00  0.00000000E+00
0.00000000E+00  0.00000000E+00  0.00000000E+00
0.00000000E+00  0.00000000E+00  0.00000000E+00
0.00000000E+00  0.00000000E+00  0.00000000E+00
0.00000000E+00  0.00000000E+00  0.00000000E+00
0.00000000E+00  0.00000000E+00  0.00000000E+00
0.00000000E+00  0.00000000E+00  0.00000000E+00
0.00000000E+00  0.00000000E+00  0.00000000E+00
0.00000000E+00  0.00000000E+00  0.00000000E+00
