Mo4C3  (n=3)
1.00000000000000
3.0570041160680979  0.0000000000000000  0.0000000000000000
-1.5285020580340489  2.6474432240777253  0.0000000000000000
-0.0000000000000002  -0.0000000000000004  37.0786464122943968
Mo  C  N  H
4  3  2  2
Selective  dynamics
Direct
-0.0000000000000000  -0.0000000000000000  0.0599300303675584  T  T  T
0.6666666666666643  0.3333333333333357  0.1292871608461464  T  T  T
0.3333333333333357  0.6666666666666643  0.1964703190247933  T  T  T
0.0000000000000000  0.0000000000000000  0.2658274495033735  T  T  T
0.3333333333333357  0.6666666666666643  0.0946910122395047  T  T  T
-0.0000000000000000  0.0000000000000000  0.1628787399354660  T  T  T
0.6666666666666643  0.3333333333333357  0.2310664676314271  T  T  T
0.6666666666666643  0.3333333333333357  0.0276520613836668  T  T  T
0.3333333333333357  0.6666666666666643  0.2981054184872730  T  T  T
0.6666666666666643  0.3333333333333357  0.0000000000000000  T  T  T
0.3333333333333357  0.6666666666666643  0.3257574798709320  T  T  T

0.00000000E+00  0.00000000E+00  0.00000000E+00
0.00000000E+00  0.00000000E+00  0.00000000E+00
0.00000000E+00  0.00000000E+00  0.00000000E+00
0.00000000E+00  0.00000000E+00  0.00000000E+00
0.00000000E+00  0.00000000E+00  0.00000000E+00
0.00000000E+00  0.00000000E+00  0.00000000E+00
0.00000000E+00  0.00000000E+00  0.00000000E+00
0.00000000E+00  0.00000000E+00  0.00000000E+00
0.00000000E+00  0.00000000E+00  0.00000000E+00
0.00000000E+00  0.00000000E+00  0.00000000E+00
0.00000000E+00  0.00000000E+00  0.00000000E+00
