Ti4C3  (n=3)
1.00000000000000
3.0587972227192637  0.0000000000000000  0.0000000000000000
-1.5293986113596318  2.6489960999762565  0.0000000000000000
0.0000000000000001  -0.0000000000000008  36.7443789495383513
Ti  C  N  H
4  3  2  2
Selective  dynamics
Direct
0.0000000000000000  -0.0000000000000000  0.0566001811600877  T  T  T
0.6666666666666643  0.3333333333333357  0.1256128843165975  T  T  T
0.3333333333333357  0.6666666666666643  0.1940109407497367  T  T  T
-0.0000000000000000  -0.0000000000000000  0.2630236439062387  T  T  T
0.3333333333333357  0.6666666666666643  0.0915877253341058  T  T  T
-0.0000000000000000  -0.0000000000000000  0.1598119125331631  T  T  T
0.6666666666666643  0.3333333333333357  0.2280360997322207  T  T  T
0.6666666666666643  0.3333333333333357  0.0278662212753302  T  T  T
0.3333333333333357  0.6666666666666643  0.2917576037909962  T  T  T
0.6666666666666643  0.3333333333333357  0.0000000000000000  T  T  T
0.3333333333333357  0.6666666666666643  0.3196238250663345  T  T  T

0.00000000E+00  0.00000000E+00  0.00000000E+00
0.00000000E+00  0.00000000E+00  0.00000000E+00
0.00000000E+00  0.00000000E+00  0.00000000E+00
0.00000000E+00  0.00000000E+00  0.00000000E+00
0.00000000E+00  0.00000000E+00  0.00000000E+00
0.00000000E+00  0.00000000E+00  0.00000000E+00
0.00000000E+00  0.00000000E+00  0.00000000E+00
0.00000000E+00  0.00000000E+00  0.00000000E+00
0.00000000E+00  0.00000000E+00  0.00000000E+00
0.00000000E+00  0.00000000E+00  0.00000000E+00
0.00000000E+00  0.00000000E+00  0.00000000E+00
