Cr4C3  (n=3)
1.00000000000000
2.9005033120913790  0.0000000000000000  0.0000000000000000
-1.4502516560456895  2.5119095520266872  0.0000000000000001
-0.0000000000000001  0.0000000000000006  36.1836741249241811
Cr  C  N  H
4  3  2  2
Selective  dynamics
Direct
0.0000000000000000  -0.0000000000000000  0.0577011809799159  T  T  T
0.6666666666666643  0.3333333333333357  0.1216704988747631  T  T  T
0.3333333333333357  0.6666666666666643  0.1874101679008809  T  T  T
-0.0000000000000000  0.0000000000000000  0.2513794857957284  T  T  T
0.3333333333333357  0.6666666666666643  0.0912399542089545  T  T  T
-0.0000000000000000  0.0000000000000000  0.1545403333878220  T  T  T
0.6666666666666643  0.3333333333333357  0.2178407125666815  T  T  T
0.6666666666666643  0.3333333333333357  0.0283239211799689  T  T  T
0.3333333333333357  0.6666666666666643  0.2807567455956752  T  T  T
0.6666666666666643  0.3333333333333357  0.0000000000000000  T  T  T
0.3333333333333357  0.6666666666666643  0.3090806667756441  T  T  T

0.00000000E+00  0.00000000E+00  0.00000000E+00
0.00000000E+00  0.00000000E+00  0.00000000E+00
0.00000000E+00  0.00000000E+00  0.00000000E+00
0.00000000E+00  0.00000000E+00  0.00000000E+00
0.00000000E+00  0.00000000E+00  0.00000000E+00
0.00000000E+00  0.00000000E+00  0.00000000E+00
0.00000000E+00  0.00000000E+00  0.00000000E+00
0.00000000E+00  0.00000000E+00  0.00000000E+00
0.00000000E+00  0.00000000E+00  0.00000000E+00
0.00000000E+00  0.00000000E+00  0.00000000E+00
0.00000000E+00  0.00000000E+00  0.00000000E+00
