Mo3C2  (n=2)
1.00000000000000
3.0145114452537896  0.0000000000000000  0.0000000000000000
-1.5072557226268948  2.6106434916510333  0.0000000000000000
-0.0000000000000001  0.0000000000000000  32.3056776766244340
Mo  C  H
3  2  2
Selective  dynamics
Direct
-0.0000000000000000  0.0000000000000000  0.0359006528738867  T  T  T
0.6666666666666643  0.3333333333333357  0.1130711101273400  T  T  T
0.3333333333333357  0.6666666666666643  0.1902415673808016  T  T  T
0.3333333333333357  0.6666666666666643  0.0721335419668744  T  T  T
0.0000000000000000  0.0000000000000000  0.1540086782878139  T  T  T
0.3333333333333357  0.6666666666666643  0.0000000000000000  T  T  T
-0.0000000000000000  -0.0000000000000000  0.2261422202546965  T  T  T

0.00000000E+00  0.00000000E+00  0.00000000E+00
0.00000000E+00  0.00000000E+00  0.00000000E+00
0.00000000E+00  0.00000000E+00  0.00000000E+00
0.00000000E+00  0.00000000E+00  0.00000000E+00
0.00000000E+00  0.00000000E+00  0.00000000E+00
0.00000000E+00  0.00000000E+00  0.00000000E+00
0.00000000E+00  0.00000000E+00  0.00000000E+00
