Ti3C2  (n=2)
1.00000000000000
3.0137483691046327  0.0000000000000000  0.0000000000000000
-1.5068741845523164  2.6099826483106541  0.0000000000000000
0.0000000000000002  0.0000000000000002  32.1461052045050479
Ti  C  H
3  2  2
Selective  dynamics
Direct
0.0000000000000000  0.0000000000000000  0.0353738558343767  T  T  T
0.6666666666666643  0.3333333333333357  0.1111504046764517  T  T  T
0.3333333333333357  0.6666666666666643  0.1869269535185352  T  T  T
0.3333333333333357  0.6666666666666643  0.0713426365996772  T  T  T
0.0000000000000000  0.0000000000000000  0.1509581727532176  T  T  T
0.3333333333333357  0.6666666666666643  0.0000000000000000  T  T  T
-0.0000000000000000  -0.0000000000000000  0.2223008093529033  T  T  T

0.00000000E+00  0.00000000E+00  0.00000000E+00
0.00000000E+00  0.00000000E+00  0.00000000E+00
0.00000000E+00  0.00000000E+00  0.00000000E+00
0.00000000E+00  0.00000000E+00  0.00000000E+00
0.00000000E+00  0.00000000E+00  0.00000000E+00
0.00000000E+00  0.00000000E+00  0.00000000E+00
0.00000000E+00  0.00000000E+00  0.00000000E+00
