Mo3N2  (n=2)
1.00000000000000
2.8004370042997389  0.0000000000000001  0.0000000000000000
-1.4002185021498696  2.4252495874828250  0.0000000000000001
0.0000000000000005  0.0000000000000014  33.2454836860099334
Mo  N  H
3  2  2
Selective  dynamics
Direct
0.0000000000000000  -0.0000000000000000  0.0353764181935618  T  T  T
0.6666666666666643  0.3333333333333357  0.1240053896009012  T  T  T
0.3333333333333357  0.6666666666666643  0.2126417416228264  T  T  T
0.3333333333333357  0.6666666666666643  0.0781278275163552  T  T  T
-0.0000000000000000  0.0000000000000000  0.1698856308899966  T  T  T
0.3333333333333357  0.6666666666666643  0.0000000000000000  T  T  T
-0.0000000000000000  -0.0000000000000000  0.2480181598163882  T  T  T

0.00000000E+00  0.00000000E+00  0.00000000E+00
0.00000000E+00  0.00000000E+00  0.00000000E+00
0.00000000E+00  0.00000000E+00  0.00000000E+00
0.00000000E+00  0.00000000E+00  0.00000000E+00
0.00000000E+00  0.00000000E+00  0.00000000E+00
0.00000000E+00  0.00000000E+00  0.00000000E+00
0.00000000E+00  0.00000000E+00  0.00000000E+00
