Zr3C2  (n=2)
1.00000000000000
3.2828723783832898  -0.0000000000000001  0.0000000000000000
-1.6414361891916449  2.8430508772230039  0.0000000000000000
0.0000000000000001  -0.0000000000000014  32.7198867342758462
Zr  C  H
3  2  2
Selective  dynamics
Direct
-0.0000000000000000  0.0000000000000000  0.0367101943279199  T  T  T
0.6666666666666643  0.3333333333333357  0.1179693376839970  T  T  T
0.3333333333333357  0.6666666666666643  0.1992284810400742  T  T  T
0.3333333333333357  0.6666666666666643  0.0751833475266552  T  T  T
0.0000000000000000  -0.0000000000000000  0.1607553278413306  T  T  T
0.3333333333333357  0.6666666666666643  0.0000000000000000  T  T  T
-0.0000000000000000  -0.0000000000000000  0.2359386753679941  T  T  T

0.00000000E+00  0.00000000E+00  0.00000000E+00
0.00000000E+00  0.00000000E+00  0.00000000E+00
0.00000000E+00  0.00000000E+00  0.00000000E+00
0.00000000E+00  0.00000000E+00  0.00000000E+00
0.00000000E+00  0.00000000E+00  0.00000000E+00
0.00000000E+00  0.00000000E+00  0.00000000E+00
0.00000000E+00  0.00000000E+00  0.00000000E+00
