Hf3N2  (n=2)
1.00000000000000
3.1213831509505976  0.0000000000000000  0.0000000000000000
-1.5606915754752988  2.7031971037961133  0.0000000000000000
0.0000000000000000  0.0000000000000000  32.6865311524050242
Hf  N  H
3  2  2
Selective  dynamics
Direct
-0.0000000000000000  0.0000000000000000  0.0351372284731153  T  T  T
0.6666666666666643  0.3333333333333357  0.1175794873516192  T  T  T
0.3333333333333357  0.6666666666666643  0.2000217462301313  T  T  T
0.3333333333333357  0.6666666666666643  0.0777238996244737  T  T  T
-0.0000000000000000  -0.0000000000000000  0.1574350750787567  T  T  T
0.3333333333333357  0.6666666666666643  0.0000000000000000  T  T  T
0.0000000000000000  0.0000000000000000  0.2351589747032383  T  T  T

0.00000000E+00  0.00000000E+00  0.00000000E+00
0.00000000E+00  0.00000000E+00  0.00000000E+00
0.00000000E+00  0.00000000E+00  0.00000000E+00
0.00000000E+00  0.00000000E+00  0.00000000E+00
0.00000000E+00  0.00000000E+00  0.00000000E+00
0.00000000E+00  0.00000000E+00  0.00000000E+00
0.00000000E+00  0.00000000E+00  0.00000000E+00
