Ta3N2  (n=2)
1.00000000000000
2.9562591716449012  0.0000000000000001  0.0000000000000000
-1.4781295858224506  2.5601955428917158  0.0000000000000000
0.0000000000000000  -0.0000000000000001  32.8897059272928800
Ta  N  H
3  2  2
Selective  dynamics
Direct
-0.0000000000000000  0.0000000000000000  0.0349028939956450  T  T  T
0.6666666666666643  0.3333333333333357  0.1199418739823052  T  T  T
0.3333333333333357  0.6666666666666643  0.2049808539689654  T  T  T
0.3333333333333357  0.6666666666666643  0.0761530676854007  T  T  T
-0.0000000000000000  -0.0000000000000000  0.1637306802792015  T  T  T
0.3333333333333357  0.6666666666666643  0.0000000000000000  T  T  T
0.0000000000000000  -0.0000000000000000  0.2398837479646106  T  T  T

0.00000000E+00  0.00000000E+00  0.00000000E+00
0.00000000E+00  0.00000000E+00  0.00000000E+00
0.00000000E+00  0.00000000E+00  0.00000000E+00
0.00000000E+00  0.00000000E+00  0.00000000E+00
0.00000000E+00  0.00000000E+00  0.00000000E+00
0.00000000E+00  0.00000000E+00  0.00000000E+00
0.00000000E+00  0.00000000E+00  0.00000000E+00
