Ti3N2  (n=2)
1.00000000000000
2.9148179964671996  0.0000000000000000  0.0000000000000000
-1.4574089982336000  2.5243064323742472  0.0000000000000000
-0.0000000000000001  -0.0000000000000006  32.2262679716455693
Ti  N  H
3  2  2
Selective  dynamics
Direct
0.0000000000000000  -0.0000000000000000  0.0348103570601450  T  T  T
0.6666666666666643  0.3333333333333357  0.1121176671466173  T  T  T
0.3333333333333357  0.6666666666666643  0.1894249772330979  T  T  T
0.3333333333333357  0.6666666666666643  0.0734319085552688  T  T  T
0.0000000000000000  -0.0000000000000000  0.1508034257379742  T  T  T
0.3333333333333357  0.6666666666666643  0.0000000000000000  T  T  T
0.0000000000000000  0.0000000000000000  0.2242353342932429  T  T  T

0.00000000E+00  0.00000000E+00  0.00000000E+00
0.00000000E+00  0.00000000E+00  0.00000000E+00
0.00000000E+00  0.00000000E+00  0.00000000E+00
0.00000000E+00  0.00000000E+00  0.00000000E+00
0.00000000E+00  0.00000000E+00  0.00000000E+00
0.00000000E+00  0.00000000E+00  0.00000000E+00
0.00000000E+00  0.00000000E+00  0.00000000E+00
