Hf3C2  (n=2)
1.00000000000000
3.2264552981643733  0.0000000000000000  0.0000000000000001
-1.6132276490821866  2.7941922525255993  0.0000000000000000
0.0000000000000013  -0.0000000000000011  32.6386131628461413
Hf  C  H
3  2  2
Selective  dynamics
Direct
-0.0000000000000000  -0.0000000000000000  0.0367886630159772  T  T  T
0.6666666666666643  0.3333333333333357  0.1170180412497043  T  T  T
0.3333333333333357  0.6666666666666643  0.1972474194834314  T  T  T
0.3333333333333357  0.6666666666666643  0.0749271953847763  T  T  T
-0.0000000000000000  0.0000000000000000  0.1591088871146239  T  T  T
0.3333333333333357  0.6666666666666643  0.0000000000000000  T  T  T
0.0000000000000000  -0.0000000000000000  0.2340360824994086  T  T  T

0.00000000E+00  0.00000000E+00  0.00000000E+00
0.00000000E+00  0.00000000E+00  0.00000000E+00
0.00000000E+00  0.00000000E+00  0.00000000E+00
0.00000000E+00  0.00000000E+00  0.00000000E+00
0.00000000E+00  0.00000000E+00  0.00000000E+00
0.00000000E+00  0.00000000E+00  0.00000000E+00
0.00000000E+00  0.00000000E+00  0.00000000E+00
