Sc3C2  (n=2)
1.00000000000000
3.2126044722328495  0.0000000000000000  0.0000000000000000
-1.6063022361164248  2.7821970854122102  0.0000000000000000
-0.0000000000000003  0.0000000000000007  32.8058085404022108
Sc  C  H
3  2  2
Selective  dynamics
Direct
-0.0000000000000000  -0.0000000000000000  0.0357413119902626  T  T  T
0.6666666666666643  0.3333333333333357  0.1189699155073241  T  T  T
0.3333333333333357  0.6666666666666643  0.2021985190243857  T  T  T
0.3333333333333357  0.6666666666666643  0.0761389049842326  T  T  T
0.0000000000000000  0.0000000000000000  0.1618009260304071  T  T  T
0.3333333333333357  0.6666666666666643  0.0000000000000000  T  T  T
-0.0000000000000000  -0.0000000000000000  0.2379398310146483  T  T  T

0.00000000E+00  0.00000000E+00  0.00000000E+00
0.00000000E+00  0.00000000E+00  0.00000000E+00
0.00000000E+00  0.00000000E+00  0.00000000E+00
0.00000000E+00  0.00000000E+00  0.00000000E+00
0.00000000E+00  0.00000000E+00  0.00000000E+00
0.00000000E+00  0.00000000E+00  0.00000000E+00
0.00000000E+00  0.00000000E+00  0.00000000E+00
