Sc3N2  (n=2)
1.00000000000000
3.1345323071029343  0.0000000000000000  0.0000000000000000
-1.5672661535514671  2.7145846070355919  0.0000000000000001
0.0000000000000000  0.0000000000000007  32.5508505741475460
Sc  N  H
3  2  2
Selective  dynamics
Direct
-0.0000000000000000  0.0000000000000000  0.0366890235524654  T  T  T
0.6666666666666643  0.3333333333333357  0.1159854572301718  T  T  T
0.3333333333333357  0.6666666666666643  0.1952818909078866  T  T  T
0.3333333333333357  0.6666666666666643  0.0750290886974681  T  T  T
0.0000000000000000  -0.0000000000000000  0.1569418257628837  T  T  T
0.3333333333333357  0.6666666666666643  0.0000000000000000  T  T  T
-0.0000000000000000  -0.0000000000000000  0.2319709144603601  T  T  T

0.00000000E+00  0.00000000E+00  0.00000000E+00
0.00000000E+00  0.00000000E+00  0.00000000E+00
0.00000000E+00  0.00000000E+00  0.00000000E+00
0.00000000E+00  0.00000000E+00  0.00000000E+00
0.00000000E+00  0.00000000E+00  0.00000000E+00
0.00000000E+00  0.00000000E+00  0.00000000E+00
0.00000000E+00  0.00000000E+00  0.00000000E+00
