Zr3N2  (n=2)
1.00000000000000
3.1860894649701419  0.0000000000000001  0.0000000000000000
-1.5930447324850709  2.7592344155566790  0.0000000000000000
0.0000000000000000  0.0000000000000000  32.7693724182979551
Zr  N  H
3  2  2
Selective  dynamics
Direct
0.0000000000000000  0.0000000000000000  0.0357242854549179  T  T  T
0.6666666666666643  0.3333333333333357  0.1185462498201387  T  T  T
0.3333333333333357  0.6666666666666643  0.2013682141853755  T  T  T
0.3333333333333357  0.6666666666666643  0.0776734630030598  T  T  T
0.0000000000000000  0.0000000000000000  0.1594190366372256  T  T  T
0.3333333333333357  0.6666666666666643  0.0000000000000000  T  T  T
-0.0000000000000000  -0.0000000000000000  0.2370924996402936  T  T  T

0.00000000E+00  0.00000000E+00  0.00000000E+00
0.00000000E+00  0.00000000E+00  0.00000000E+00
0.00000000E+00  0.00000000E+00  0.00000000E+00
0.00000000E+00  0.00000000E+00  0.00000000E+00
0.00000000E+00  0.00000000E+00  0.00000000E+00
0.00000000E+00  0.00000000E+00  0.00000000E+00
0.00000000E+00  0.00000000E+00  0.00000000E+00
