Nb3N2  (n=2)
1.00000000000000
2.9800659147499551  -0.0000000000000001  0.0000000000000000
-1.4900329573749775  2.5808127872061815  0.0000000000000000
0.0000000000000002  0.0000000000000004  32.9207592720065207
Nb  N  H
3  2  2
Selective  dynamics
Direct
0.0000000000000000  0.0000000000000000  0.0354705429254578  T  T  T
0.6666666666666643  0.3333333333333357  0.1203003734901973  T  T  T
0.3333333333333357  0.6666666666666643  0.2051302040549366  T  T  T
0.3333333333333357  0.6666666666666643  0.0764475534886814  T  T  T
-0.0000000000000000  -0.0000000000000000  0.1641531934917048  T  T  T
0.3333333333333357  0.6666666666666643  0.0000000000000000  T  T  T
0.0000000000000000  0.0000000000000000  0.2406007469803945  T  T  T

0.00000000E+00  0.00000000E+00  0.00000000E+00
0.00000000E+00  0.00000000E+00  0.00000000E+00
0.00000000E+00  0.00000000E+00  0.00000000E+00
0.00000000E+00  0.00000000E+00  0.00000000E+00
0.00000000E+00  0.00000000E+00  0.00000000E+00
0.00000000E+00  0.00000000E+00  0.00000000E+00
0.00000000E+00  0.00000000E+00  0.00000000E+00
