Nb3C2  (n=2)
1.00000000000000
3.0827403765358778  0.0000000000000000  0.0000000000000000
-1.5413701882679389  2.6697314794507108  -0.0000000000000001
0.0000000000000001  0.0000000000000011  32.5523226782678989
Nb  C  H
3  2  2
Selective  dynamics
Direct
0.0000000000000000  0.0000000000000000  0.0355492376734428  T  T  T
0.6666666666666643  0.3333333333333357  0.1160028234069741  T  T  T
0.3333333333333357  0.6666666666666643  0.1964564091405053  T  T  T
0.3333333333333357  0.6666666666666643  0.0747240412748362  T  T  T
-0.0000000000000000  -0.0000000000000000  0.1572816055391034  T  T  T
0.3333333333333357  0.6666666666666643  0.0000000000000000  T  T  T
-0.0000000000000000  0.0000000000000000  0.2320056468139483  T  T  T

0.00000000E+00  0.00000000E+00  0.00000000E+00
0.00000000E+00  0.00000000E+00  0.00000000E+00
0.00000000E+00  0.00000000E+00  0.00000000E+00
0.00000000E+00  0.00000000E+00  0.00000000E+00
0.00000000E+00  0.00000000E+00  0.00000000E+00
0.00000000E+00  0.00000000E+00  0.00000000E+00
0.00000000E+00  0.00000000E+00  0.00000000E+00
