Cr3C2  (n=2)
1.00000000000000
2.7823283579279483  0.0000000000000000  0.0000000000000000
-1.3911641789639742  2.4095670396380324  -0.0000000000000001
0.0000000000000000  0.0000000000000002  31.8884244705017430
Cr  C  H
3  2  2
Selective  dynamics
Direct
0.0000000000000000  0.0000000000000000  0.0337622853238934  T  T  T
0.6666666666666643  0.3333333333333357  0.1080082284540786  T  T  T
0.3333333333333357  0.6666666666666643  0.1822541715842728  T  T  T
0.3333333333333357  0.6666666666666643  0.0692459468017122  T  T  T
0.0000000000000000  0.0000000000000000  0.1467705101064540  T  T  T
0.3333333333333357  0.6666666666666643  0.0000000000000000  T  T  T
-0.0000000000000000  -0.0000000000000000  0.2160164569081753  T  T  T

0.00000000E+00  0.00000000E+00  0.00000000E+00
0.00000000E+00  0.00000000E+00  0.00000000E+00
0.00000000E+00  0.00000000E+00  0.00000000E+00
0.00000000E+00  0.00000000E+00  0.00000000E+00
0.00000000E+00  0.00000000E+00  0.00000000E+00
0.00000000E+00  0.00000000E+00  0.00000000E+00
0.00000000E+00  0.00000000E+00  0.00000000E+00
