Cr3N2  (n=2)
1.00000000000000
2.7297447103506043  0.0000000000000000  0.0000000000000000
-1.3648723551753021  2.3640282650122413  0.0000000000000000
0.0000000000000000  -0.0000000000000001  32.1884346464323770
Cr  N  H
3  2  2
Selective  dynamics
Direct
-0.0000000000000000  0.0000000000000000  0.0334503722789295  T  T  T
0.6666666666666643  0.3333333333333357  0.1116617618314164  T  T  T
0.3333333333333357  0.6666666666666643  0.1898731513839124  T  T  T
0.3333333333333357  0.6666666666666643  0.0714327143468082  T  T  T
-0.0000000000000000  -0.0000000000000000  0.1518908093160248  T  T  T
0.3333333333333357  0.6666666666666643  0.0000000000000000  T  T  T
-0.0000000000000000  -0.0000000000000000  0.2233235236628418  T  T  T

0.00000000E+00  0.00000000E+00  0.00000000E+00
0.00000000E+00  0.00000000E+00  0.00000000E+00
0.00000000E+00  0.00000000E+00  0.00000000E+00
0.00000000E+00  0.00000000E+00  0.00000000E+00
0.00000000E+00  0.00000000E+00  0.00000000E+00
0.00000000E+00  0.00000000E+00  0.00000000E+00
0.00000000E+00  0.00000000E+00  0.00000000E+00
