Ta3C2  (n=2)
1.00000000000000
3.0599907489674814  0.0000000000000000  0.0000000000000000
-1.5299953744837407  2.6500297240514432  0.0000000000000000
0.0000000000000000  0.0000000000000001  32.5549737573069180
Ta  C  H
3  2  2
Selective  dynamics
Direct
0.0000000000000000  0.0000000000000000  0.0356585014554933  T  T  T
0.6666666666666643  0.3333333333333357  0.1160340938012729  T  T  T
0.3333333333333357  0.6666666666666643  0.1964096861470608  T  T  T
0.3333333333333357  0.6666666666666643  0.0751634630660984  T  T  T
-0.0000000000000000  -0.0000000000000000  0.1569047245364473  T  T  T
0.3333333333333357  0.6666666666666643  0.0000000000000000  T  T  T
0.0000000000000000  -0.0000000000000000  0.2320681876025539  T  T  T

0.00000000E+00  0.00000000E+00  0.00000000E+00
0.00000000E+00  0.00000000E+00  0.00000000E+00
0.00000000E+00  0.00000000E+00  0.00000000E+00
0.00000000E+00  0.00000000E+00  0.00000000E+00
0.00000000E+00  0.00000000E+00  0.00000000E+00
0.00000000E+00  0.00000000E+00  0.00000000E+00
0.00000000E+00  0.00000000E+00  0.00000000E+00
