Zr3N2  (n=2)
1.00000000000000
3.4540098332149625  0.0000000000000001  0.0000000000000000
-1.7270049166074812  2.9912602608424423  0.0000000000000000
0.0000000000000001  -0.0000000000000006  34.1761685751528148
Zr  N  Te
3  2  2
Selective  dynamics
Direct
-0.0000000000000000  0.0000000000000000  0.0626719034458498  T  T  T
0.6666666666666643  0.3333333333333357  0.1338790977640505  T  T  T
0.3333333333333357  0.6666666666666643  0.2056454736463730  T  T  T
0.3333333333333357  0.6666666666666643  0.0978724948759203  T  T  T
0.0000000000000000  -0.0000000000000000  0.1731519487812727  T  T  T
0.3333333333333357  0.6666666666666643  0.0000000000000000  T  T  T
0.6666666666666643  0.3333333333333357  0.2684961175497065  T  T  T

0.00000000E+00  0.00000000E+00  0.00000000E+00
0.00000000E+00  0.00000000E+00  0.00000000E+00
0.00000000E+00  0.00000000E+00  0.00000000E+00
0.00000000E+00  0.00000000E+00  0.00000000E+00
0.00000000E+00  0.00000000E+00  0.00000000E+00
0.00000000E+00  0.00000000E+00  0.00000000E+00
0.00000000E+00  0.00000000E+00  0.00000000E+00
