Nb3N2  (n=2)
1.00000000000000
3.3014013706300682  0.0000000000000001  0.0000000000000000
-1.6507006853150341  2.8590974551383526  0.0000000000000000
0.0000000000000002  0.0000000000000004  33.9832913255158573
Nb  N  Te
3  2  2
Selective  dynamics
Direct
-0.0000000000000000  0.0000000000000000  0.0601184659728812  T  T  T
0.6666666666666643  0.3333333333333357  0.1340329935408737  T  T  T
0.3333333333333357  0.6666666666666643  0.2027051708792448  T  T  T
0.3333333333333357  0.6666666666666643  0.0965995993842801  T  T  T
-0.0000000000000000  -0.0000000000000000  0.1683242252786499  T  T  T
0.3333333333333357  0.6666666666666643  0.0000000000000000  T  T  T
0.6666666666666643  0.3333333333333357  0.2643443579218852  T  T  T

0.00000000E+00  0.00000000E+00  0.00000000E+00
0.00000000E+00  0.00000000E+00  0.00000000E+00
0.00000000E+00  0.00000000E+00  0.00000000E+00
0.00000000E+00  0.00000000E+00  0.00000000E+00
0.00000000E+00  0.00000000E+00  0.00000000E+00
0.00000000E+00  0.00000000E+00  0.00000000E+00
0.00000000E+00  0.00000000E+00  0.00000000E+00
