Cr3N2  (n=2)
1.00000000000000
3.1293234568154848  0.0000000000000000  0.0000000000000000
-1.5646617284077422  2.7100736102668064  0.0000000000000001
0.0000000000000004  0.0000000000000000  33.1870712989779264
Cr  N  Te
3  2  2
Selective  dynamics
Direct
-0.0000000000000000  0.0000000000000000  0.0621763842255333  T  T  T
0.6666666666666643  0.3333333333333357  0.1230487119304236  T  T  T
0.3333333333333357  0.6666666666666643  0.1834824916685451  T  T  T
0.3333333333333357  0.6666666666666643  0.0891668423427508  T  T  T
0.0000000000000000  -0.0000000000000000  0.1598726130142439  T  T  T
0.3333333333333357  0.6666666666666643  0.0000000000000000  T  T  T
0.6666666666666643  0.3333333333333357  0.2466946005937579  T  T  T

0.00000000E+00  0.00000000E+00  0.00000000E+00
0.00000000E+00  0.00000000E+00  0.00000000E+00
0.00000000E+00  0.00000000E+00  0.00000000E+00
0.00000000E+00  0.00000000E+00  0.00000000E+00
0.00000000E+00  0.00000000E+00  0.00000000E+00
0.00000000E+00  0.00000000E+00  0.00000000E+00
0.00000000E+00  0.00000000E+00  0.00000000E+00
