Mo3N2  (n=2)
1.00000000000000
3.2877904102247628  -0.0000000000000001  -0.0000000000000001
-1.6438952051123814  2.8473100176259925  0.0000000000000001
0.0000000000000005  0.0000000000000018  33.6376806185806316
Mo  N  Te
3  2  2
Selective  dynamics
Direct
0.0000000000000000  0.0000000000000000  0.0577245316980022  T  T  T
0.6666666666666643  0.3333333333333357  0.1383819428626467  T  T  T
0.3333333333333357  0.6666666666666643  0.1986252601761485  T  T  T
0.3333333333333357  0.6666666666666643  0.0917469614348750  T  T  T
0.0000000000000000  0.0000000000000000  0.1564536556595842  T  T  T
0.3333333333333357  0.6666666666666643  0.0000000000000000  T  T  T
0.6666666666666643  0.3333333333333357  0.2567858562105911  T  T  T

0.00000000E+00  0.00000000E+00  0.00000000E+00
0.00000000E+00  0.00000000E+00  0.00000000E+00
0.00000000E+00  0.00000000E+00  0.00000000E+00
0.00000000E+00  0.00000000E+00  0.00000000E+00
0.00000000E+00  0.00000000E+00  0.00000000E+00
0.00000000E+00  0.00000000E+00  0.00000000E+00
0.00000000E+00  0.00000000E+00  0.00000000E+00
