Ti3C2  (n=2)
1.00000000000000
3.2067717087837089  0.0000000000000000  0.0000000000000000
-1.6033858543918544  2.7771457640723911  0.0000000000000000
0.0000000000000006  0.0000000000000005  34.1265503739377962
Ti  C  Te
3  2  2
Selective  dynamics
Direct
-0.0000000000000000  0.0000000000000000  0.0674722746362955  T  T  T
0.6666666666666643  0.3333333333333357  0.1350021061567403  T  T  T
0.3333333333333357  0.6666666666666643  0.2027313227722359  T  T  T
0.3333333333333357  0.6666666666666643  0.0983684364379091  T  T  T
-0.0000000000000000  0.0000000000000000  0.1727064086945612  T  T  T
0.3333333333333357  0.6666666666666643  0.0000000000000000  T  T  T
0.6666666666666643  0.3333333333333357  0.2674325495526110  T  T  T

0.00000000E+00  0.00000000E+00  0.00000000E+00
0.00000000E+00  0.00000000E+00  0.00000000E+00
0.00000000E+00  0.00000000E+00  0.00000000E+00
0.00000000E+00  0.00000000E+00  0.00000000E+00
0.00000000E+00  0.00000000E+00  0.00000000E+00
0.00000000E+00  0.00000000E+00  0.00000000E+00
0.00000000E+00  0.00000000E+00  0.00000000E+00
