Hf3C2  (n=2)
1.00000000000000
3.3864305248648181  0.0000000000000000  0.0000000000000000
-1.6932152624324091  2.9327348628396548  0.0000000000000000
0.0000000000000000  -0.0000000000000009  34.5648183815425227
Hf  C  Te
3  2  2
Selective  dynamics
Direct
0.0000000000000000  0.0000000000000000  0.0663257184206367  T  T  T
0.6666666666666643  0.3333333333333357  0.1392537062070468  T  T  T
0.3333333333333357  0.6666666666666643  0.2124420266324414  T  T  T
0.3333333333333357  0.6666666666666643  0.1006493445758361  T  T  T
-0.0000000000000000  -0.0000000000000000  0.1795351835779235  T  T  T
0.3333333333333357  0.6666666666666643  0.0000000000000000  T  T  T
0.6666666666666643  0.3333333333333357  0.2767212104505111  T  T  T

0.00000000E+00  0.00000000E+00  0.00000000E+00
0.00000000E+00  0.00000000E+00  0.00000000E+00
0.00000000E+00  0.00000000E+00  0.00000000E+00
0.00000000E+00  0.00000000E+00  0.00000000E+00
0.00000000E+00  0.00000000E+00  0.00000000E+00
0.00000000E+00  0.00000000E+00  0.00000000E+00
0.00000000E+00  0.00000000E+00  0.00000000E+00
