Zr3C2  (n=2)
1.00000000000000
3.4204633664321626  -0.0000000000000001  -0.0000000000000001
-1.7102316832160813  2.9622081683355330  -0.0000000000000001
-0.0000000000000001  -0.0000000000000028  34.7565648288296813
Zr  C  Te
3  2  2
Selective  dynamics
Direct
-0.0000000000000000  -0.0000000000000000  0.0668006998639243  T  T  T
0.6666666666666643  0.3333333333333357  0.1408627472414614  T  T  T
0.3333333333333357  0.6666666666666643  0.2152005632102552  T  T  T
0.3333333333333357  0.6666666666666643  0.1014238857186232  T  T  T
-0.0000000000000000  0.0000000000000000  0.1816401054819111  T  T  T
0.3333333333333357  0.6666666666666643  0.0000000000000000  T  T  T
0.6666666666666643  0.3333333333333357  0.2807114246439240  T  T  T

0.00000000E+00  0.00000000E+00  0.00000000E+00
0.00000000E+00  0.00000000E+00  0.00000000E+00
0.00000000E+00  0.00000000E+00  0.00000000E+00
0.00000000E+00  0.00000000E+00  0.00000000E+00
0.00000000E+00  0.00000000E+00  0.00000000E+00
0.00000000E+00  0.00000000E+00  0.00000000E+00
0.00000000E+00  0.00000000E+00  0.00000000E+00
