Mo3C2  (n=2)
1.00000000000000
3.2325066359018417  0.0000000000000000  0.0000000000000000
-1.6162533179509209  2.7994328647082307  0.0000000000000000
0.0000000000000001  0.0000000000000010  33.9071475817514312
Mo  C  Te
3  2  2
Selective  dynamics
Direct
0.0000000000000000  0.0000000000000000  0.0588934330835463  T  T  T
0.6666666666666643  0.3333333333333357  0.1331021095895763  T  T  T
0.3333333333333357  0.6666666666666643  0.1979128119318803  T  T  T
0.3333333333333357  0.6666666666666643  0.0932273513980749  T  T  T
-0.0000000000000000  0.0000000000000000  0.1684433796706575  T  T  T
0.3333333333333357  0.6666666666666643  0.0000000000000000  T  T  T
0.6666666666666643  0.3333333333333357  0.2626923294056498  T  T  T

0.00000000E+00  0.00000000E+00  0.00000000E+00
0.00000000E+00  0.00000000E+00  0.00000000E+00
0.00000000E+00  0.00000000E+00  0.00000000E+00
0.00000000E+00  0.00000000E+00  0.00000000E+00
0.00000000E+00  0.00000000E+00  0.00000000E+00
0.00000000E+00  0.00000000E+00  0.00000000E+00
0.00000000E+00  0.00000000E+00  0.00000000E+00
