Ta3C2  (n=2)
1.00000000000000
3.3602030438869233  0.0000000000000001  0.0000000000000000
-1.6801015219434616  2.9100211981439892  0.0000000000000000
-0.0000000000000004  0.0000000000000006  33.8136513916533090
Ta  C  Te
3  2  2
Selective  dynamics
Direct
0.0000000000000000  -0.0000000000000000  0.0618860624004976  T  T  T
0.6666666666666643  0.3333333333333357  0.1309551365831548  T  T  T
0.3333333333333357  0.6666666666666643  0.1986109980738381  T  T  T
0.3333333333333357  0.6666666666666643  0.0931430945629479  T  T  T
-0.0000000000000000  -0.0000000000000000  0.1689934967751634  T  T  T
0.3333333333333357  0.6666666666666643  0.0000000000000000  T  T  T
0.6666666666666643  0.3333333333333357  0.2606536422099893  T  T  T

0.00000000E+00  0.00000000E+00  0.00000000E+00
0.00000000E+00  0.00000000E+00  0.00000000E+00
0.00000000E+00  0.00000000E+00  0.00000000E+00
0.00000000E+00  0.00000000E+00  0.00000000E+00
0.00000000E+00  0.00000000E+00  0.00000000E+00
0.00000000E+00  0.00000000E+00  0.00000000E+00
0.00000000E+00  0.00000000E+00  0.00000000E+00
