Nb3C2  (n=2)
1.00000000000000
3.3669834515461656  0.0000000000000000  0.0000000000000000
-1.6834917257730828  2.9158932033893845  -0.0000000000000002
-0.0000000000000002  -0.0000000000000020  33.8979746446716774
Nb  C  Te
3  2  2
Selective  dynamics
Direct
-0.0000000000000000  -0.0000000000000000  0.0622120336595002  T  T  T
0.6666666666666643  0.3333333333333357  0.1317958979400014  T  T  T
0.3333333333333357  0.6666666666666643  0.1998056152587767  T  T  T
0.3333333333333357  0.6666666666666643  0.0934139515754542  T  T  T
0.0000000000000000  0.0000000000000000  0.1699639406429883  T  T  T
0.3333333333333357  0.6666666666666643  0.0000000000000000  T  T  T
0.6666666666666643  0.3333333333333357  0.2624928107930580  T  T  T

0.00000000E+00  0.00000000E+00  0.00000000E+00
0.00000000E+00  0.00000000E+00  0.00000000E+00
0.00000000E+00  0.00000000E+00  0.00000000E+00
0.00000000E+00  0.00000000E+00  0.00000000E+00
0.00000000E+00  0.00000000E+00  0.00000000E+00
0.00000000E+00  0.00000000E+00  0.00000000E+00
0.00000000E+00  0.00000000E+00  0.00000000E+00
