Sc3N2  (n=2)
1.00000000000000
3.3046123775221523  -0.0000000000000001  0.0000000000000000
-1.6523061887610762  2.8618782686806403  -0.0000000000000001
0.0000000000000008  -0.0000000000000004  34.5705408739031199
Sc  N  Te
3  2  2
Selective  dynamics
Direct
0.0000000000000000  0.0000000000000000  0.0681480378529513  T  T  T
0.6666666666666643  0.3333333333333357  0.1394440648221962  T  T  T
0.3333333333333357  0.6666666666666643  0.2107198475651111  T  T  T
0.3333333333333357  0.6666666666666643  0.1018144927770980  T  T  T
0.0000000000000000  0.0000000000000000  0.1784061873144289  T  T  T
0.3333333333333357  0.6666666666666643  0.0000000000000000  T  T  T
0.6666666666666643  0.3333333333333357  0.2768409354314674  T  T  T

0.00000000E+00  0.00000000E+00  0.00000000E+00
0.00000000E+00  0.00000000E+00  0.00000000E+00
0.00000000E+00  0.00000000E+00  0.00000000E+00
0.00000000E+00  0.00000000E+00  0.00000000E+00
0.00000000E+00  0.00000000E+00  0.00000000E+00
0.00000000E+00  0.00000000E+00  0.00000000E+00
0.00000000E+00  0.00000000E+00  0.00000000E+00
