Ta3N2  (n=2)
1.00000000000000
3.2949066391364799  -0.0000000000000001  0.0000000000000000
-1.6474533195682399  2.8534728527454458  0.0000000000000000
0.0000000000000000  -0.0000000000000001  33.9117985320616100
Ta  N  Te
3  2  2
Selective  dynamics
Direct
0.0000000000000000  0.0000000000000000  0.0596404541149888  T  T  T
0.6666666666666643  0.3333333333333357  0.1332214125676827  T  T  T
0.3333333333333357  0.6666666666666643  0.2010173825318256  T  T  T
0.3333333333333357  0.6666666666666643  0.0974042348762815  T  T  T
0.0000000000000000  0.0000000000000000  0.1672625021752807  T  T  T
0.3333333333333357  0.6666666666666643  0.0000000000000000  T  T  T
0.6666666666666643  0.3333333333333357  0.2627934500034267  T  T  T

0.00000000E+00  0.00000000E+00  0.00000000E+00
0.00000000E+00  0.00000000E+00  0.00000000E+00
0.00000000E+00  0.00000000E+00  0.00000000E+00
0.00000000E+00  0.00000000E+00  0.00000000E+00
0.00000000E+00  0.00000000E+00  0.00000000E+00
0.00000000E+00  0.00000000E+00  0.00000000E+00
0.00000000E+00  0.00000000E+00  0.00000000E+00
