Ti3N2  (n=2)
1.00000000000000
3.2231531777057070  0.0000000000000000  0.0000000000000000
-1.6115765888528535  2.7913325322273246  0.0000000000000000
-0.0000000000000002  -0.0000000000000008  33.6424363865481695
Ti  N  Te
3  2  2
Selective  dynamics
Direct
-0.0000000000000000  -0.0000000000000000  0.0630318277792121  T  T  T
0.6666666666666643  0.3333333333333357  0.1284787224895833  T  T  T
0.3333333333333357  0.6666666666666643  0.1940220684675680  T  T  T
0.3333333333333357  0.6666666666666643  0.0939061891686700  T  T  T
-0.0000000000000000  -0.0000000000000000  0.1653519377657943  T  T  T
0.3333333333333357  0.6666666666666643  0.0000000000000000  T  T  T
0.6666666666666643  0.3333333333333357  0.2568909185781748  T  T  T

0.00000000E+00  0.00000000E+00  0.00000000E+00
0.00000000E+00  0.00000000E+00  0.00000000E+00
0.00000000E+00  0.00000000E+00  0.00000000E+00
0.00000000E+00  0.00000000E+00  0.00000000E+00
0.00000000E+00  0.00000000E+00  0.00000000E+00
0.00000000E+00  0.00000000E+00  0.00000000E+00
0.00000000E+00  0.00000000E+00  0.00000000E+00
