Sc3C2  (n=2)
1.00000000000000
3.3451342948909444  0.0000000000000000  0.0000000000000000
-1.6725671474454722  2.8969712786273178  0.0000000000000000
-0.0000000000000001  0.0000000000000004  35.1309464194841610
Sc  C  Te
3  2  2
Selective  dynamics
Direct
-0.0000000000000000  -0.0000000000000000  0.0727518819527698  T  T  T
0.6666666666666643  0.3333333333333357  0.1458645070283175  T  T  T
0.3333333333333357  0.6666666666666643  0.2184890078516687  T  T  T
0.3333333333333357  0.6666666666666643  0.1054486506010950  T  T  T
0.0000000000000000  -0.0000000000000000  0.1863971674498651  T  T  T
0.3333333333333357  0.6666666666666643  0.0000000000000000  T  T  T
0.6666666666666643  0.3333333333333357  0.2883767006591484  T  T  T

0.00000000E+00  0.00000000E+00  0.00000000E+00
0.00000000E+00  0.00000000E+00  0.00000000E+00
0.00000000E+00  0.00000000E+00  0.00000000E+00
0.00000000E+00  0.00000000E+00  0.00000000E+00
0.00000000E+00  0.00000000E+00  0.00000000E+00
0.00000000E+00  0.00000000E+00  0.00000000E+00
0.00000000E+00  0.00000000E+00  0.00000000E+00
