Hf3N2  (n=2)
1.00000000000000
3.4030930428695614  0.0000000000000000  0.0000000000000000
-1.7015465214347807  2.9471650267794511  0.0000000000000000
0.0000000000000000  0.0000000000000000  34.0866070530973531
Hf  N  Te
3  2  2
Selective  dynamics
Direct
0.0000000000000000  0.0000000000000000  0.0615126971956044  T  T  T
0.6666666666666643  0.3333333333333357  0.1326171958239978  T  T  T
0.3333333333333357  0.6666666666666643  0.2050835196624652  T  T  T
0.3333333333333357  0.6666666666666643  0.0982672209836011  T  T  T
0.0000000000000000  0.0000000000000000  0.1708428919117063  T  T  T
0.3333333333333357  0.6666666666666643  0.0000000000000000  T  T  T
0.6666666666666643  0.3333333333333357  0.2665741133737063  T  T  T

0.00000000E+00  0.00000000E+00  0.00000000E+00
0.00000000E+00  0.00000000E+00  0.00000000E+00
0.00000000E+00  0.00000000E+00  0.00000000E+00
0.00000000E+00  0.00000000E+00  0.00000000E+00
0.00000000E+00  0.00000000E+00  0.00000000E+00
0.00000000E+00  0.00000000E+00  0.00000000E+00
0.00000000E+00  0.00000000E+00  0.00000000E+00
