Cr3C2  (n=2)
1.00000000000000
3.1432036189430046  0.0000000000000000  0.0000000000000000
-1.5716018094715023  2.7220941832953049  -0.0000000000000000
-0.0000000000000005  -0.0000000000000015  33.0981475682897468
Cr  C  Te
3  2  2
Selective  dynamics
Direct
-0.0000000000000000  -0.0000000000000000  0.0613732735066910  T  T  T
0.6666666666666643  0.3333333333333357  0.1226376525996353  T  T  T
0.3333333333333357  0.6666666666666643  0.1821302867785056  T  T  T
0.3333333333333357  0.6666666666666643  0.0876700057550134  T  T  T
0.0000000000000000  0.0000000000000000  0.1577205978570813  T  T  T
0.3333333333333357  0.6666666666666643  0.0000000000000000  T  T  T
0.6666666666666643  0.3333333333333357  0.2446707191567517  T  T  T

0.00000000E+00  0.00000000E+00  0.00000000E+00
0.00000000E+00  0.00000000E+00  0.00000000E+00
0.00000000E+00  0.00000000E+00  0.00000000E+00
0.00000000E+00  0.00000000E+00  0.00000000E+00
0.00000000E+00  0.00000000E+00  0.00000000E+00
0.00000000E+00  0.00000000E+00  0.00000000E+00
0.00000000E+00  0.00000000E+00  0.00000000E+00
