Ta4N3  (n=3)
1.00000000000000
3.0064003770037608  0.0000000000000000  0.0000000000000000
-1.5032001885018802  2.6036191009885647  0.0000000000000000
0.0000000000000000  0.0000000000000000  37.3182612329092649
Ta  N  Cl
4  3  2
Selective  dynamics
Direct
-0.0000000000000000  -0.0000000000000000  0.0491848806132933  T  T  T
-0.0000000000000000  -0.0000000000000000  0.1264123582839958  T  T  T
-0.0000000000000000  -0.0000000000000000  0.2036743291966652  T  T  T
-0.0000000000000000  -0.0000000000000000  0.2809018068673678  T  T  T
0.3333333333333357  0.6666666666666643  0.0879664331796307  T  T  T
0.3333333333333357  0.6666666666666643  0.1650433437403306  T  T  T
0.3333333333333357  0.6666666666666643  0.2421202543010304  T  T  T
0.3333333333333357  0.6666666666666643  0.0000000000000000  T  T  T
0.3333333333333357  0.6666666666666643  0.3300866874806684  T  T  T

0.00000000E+00  0.00000000E+00  0.00000000E+00
0.00000000E+00  0.00000000E+00  0.00000000E+00
0.00000000E+00  0.00000000E+00  0.00000000E+00
0.00000000E+00  0.00000000E+00  0.00000000E+00
0.00000000E+00  0.00000000E+00  0.00000000E+00
0.00000000E+00  0.00000000E+00  0.00000000E+00
0.00000000E+00  0.00000000E+00  0.00000000E+00
0.00000000E+00  0.00000000E+00  0.00000000E+00
0.00000000E+00  0.00000000E+00  0.00000000E+00
