Hf4N3  (n=3)
1.00000000000000
3.1420973455729251  -0.0000000000000003  0.0000000000000000
-1.5710486727864634  2.7211361234529803  0.0000000000000000
0.0000000000000000  0.0000000000000000  37.3076178709250499
Hf  N  Cl
4  3  2
Selective  dynamics
Direct
0.0000000000000000  0.0000000000000000  0.0484974867927914  T  T  T
0.0000000000000000  0.0000000000000000  0.1259664532958027  T  T  T
0.0000000000000000  0.0000000000000000  0.2039291169200866  T  T  T
0.0000000000000000  0.0000000000000000  0.2813980834230978  T  T  T
0.3333333333333357  0.6666666666666643  0.0871233698553530  T  T  T
0.3333333333333357  0.6666666666666643  0.1649477851079410  T  T  T
0.3333333333333357  0.6666666666666643  0.2427722003605290  T  T  T
0.3333333333333357  0.6666666666666643  0.0000000000000000  T  T  T
0.3333333333333357  0.6666666666666643  0.3298955702158820  T  T  T

0.00000000E+00  0.00000000E+00  0.00000000E+00
0.00000000E+00  0.00000000E+00  0.00000000E+00
0.00000000E+00  0.00000000E+00  0.00000000E+00
0.00000000E+00  0.00000000E+00  0.00000000E+00
0.00000000E+00  0.00000000E+00  0.00000000E+00
0.00000000E+00  0.00000000E+00  0.00000000E+00
0.00000000E+00  0.00000000E+00  0.00000000E+00
0.00000000E+00  0.00000000E+00  0.00000000E+00
0.00000000E+00  0.00000000E+00  0.00000000E+00
