Sc4C3  (n=3)
1.00000000000000
3.3953564148375706  0.0000000000000000  0.0000000000000000
-1.6976782074187857  2.9404649124879918  0.0000000000000000
0.0000000000000000  0.0000000000000000  36.5762872675954895
Sc  C  Cl
4  3  2
Selective  dynamics
Direct
0.0000000000000000  0.0000000000000000  0.0476749250717674  T  T  T
-0.0000000000000000  0.0000000000000000  0.1215798012560145  T  T  T
-0.0000000000000000  0.0000000000000000  0.1949172555092692  T  T  T
-0.0000000000000000  0.0000000000000000  0.2688221316935162  T  T  T
0.3333333333333357  0.6666666666666643  0.0836878515535972  T  T  T
0.3333333333333357  0.6666666666666643  0.1582485283826380  T  T  T
0.3333333333333357  0.6666666666666643  0.2328092052116715  T  T  T
0.3333333333333357  0.6666666666666643  0.0000000000000000  T  T  T
0.3333333333333357  0.6666666666666643  0.3164970567652837  T  T  T

0.00000000E+00  0.00000000E+00  0.00000000E+00
0.00000000E+00  0.00000000E+00  0.00000000E+00
0.00000000E+00  0.00000000E+00  0.00000000E+00
0.00000000E+00  0.00000000E+00  0.00000000E+00
0.00000000E+00  0.00000000E+00  0.00000000E+00
0.00000000E+00  0.00000000E+00  0.00000000E+00
0.00000000E+00  0.00000000E+00  0.00000000E+00
0.00000000E+00  0.00000000E+00  0.00000000E+00
0.00000000E+00  0.00000000E+00  0.00000000E+00
