Sc4N3  (n=3)
1.00000000000000
3.1947424652853940  -0.0000000000000001  0.0000000000000000
-1.5973712326426970  2.7667281345200441  0.0000000000000000
0.0000000000000000  0.0000000000000000  36.8830330477492652
Sc  N  Cl
4  3  2
Selective  dynamics
Direct
-0.0000000000000000  -0.0000000000000000  0.0489897781200300  T  T  T
-0.0000000000000000  -0.0000000000000000  0.1240804859346901  T  T  T
-0.0000000000000000  -0.0000000000000000  0.1981010719747511  T  T  T
-0.0000000000000000  -0.0000000000000000  0.2731917797894113  T  T  T
0.3333333333333357  0.6666666666666643  0.0821003423703698  T  T  T
0.3333333333333357  0.6666666666666643  0.1610907789547169  T  T  T
0.3333333333333357  0.6666666666666643  0.2400812155390641  T  T  T
0.3333333333333357  0.6666666666666643  0.0000000000000000  T  T  T
0.3333333333333357  0.6666666666666643  0.3221815579094413  T  T  T

0.00000000E+00  0.00000000E+00  0.00000000E+00
0.00000000E+00  0.00000000E+00  0.00000000E+00
0.00000000E+00  0.00000000E+00  0.00000000E+00
0.00000000E+00  0.00000000E+00  0.00000000E+00
0.00000000E+00  0.00000000E+00  0.00000000E+00
0.00000000E+00  0.00000000E+00  0.00000000E+00
0.00000000E+00  0.00000000E+00  0.00000000E+00
0.00000000E+00  0.00000000E+00  0.00000000E+00
0.00000000E+00  0.00000000E+00  0.00000000E+00
