Cr4N3  (n=3)
1.00000000000000
2.8026087428969482  0.0000000000000005  0.0000000000000000
-1.4013043714484739  2.4271303682206220  0.0000000000000000
0.0000000000000000  0.0000000000000000  36.1006406178189536
Cr  N  Cl
4  3  2
Selective  dynamics
Direct
-0.0000000000000000  -0.0000000000000000  0.0487517623797871  T  T  T
-0.0000000000000000  -0.0000000000000000  0.1183516105786594  T  T  T
-0.0000000000000000  -0.0000000000000000  0.1891399028084960  T  T  T
-0.0000000000000000  -0.0000000000000000  0.2587397510073683  T  T  T
0.3333333333333357  0.6666666666666643  0.0819235469371459  T  T  T
0.3333333333333357  0.6666666666666643  0.1537457566935777  T  T  T
0.3333333333333357  0.6666666666666643  0.2255679664500026  T  T  T
0.3333333333333357  0.6666666666666643  0.0000000000000000  T  T  T
0.3333333333333357  0.6666666666666643  0.3074915133871552  T  T  T

0.00000000E+00  0.00000000E+00  0.00000000E+00
0.00000000E+00  0.00000000E+00  0.00000000E+00
0.00000000E+00  0.00000000E+00  0.00000000E+00
0.00000000E+00  0.00000000E+00  0.00000000E+00
0.00000000E+00  0.00000000E+00  0.00000000E+00
0.00000000E+00  0.00000000E+00  0.00000000E+00
0.00000000E+00  0.00000000E+00  0.00000000E+00
0.00000000E+00  0.00000000E+00  0.00000000E+00
0.00000000E+00  0.00000000E+00  0.00000000E+00
