Zr4C3  (n=3)
1.00000000000000
3.3290971125996536  0.0000000000000002  0.0000000000000000
-1.6645485562998268  2.8830826754586925  0.0000000000000000
0.0000000000000000  0.0000000000000000  37.3574569634045730
Zr  C  Cl
4  3  2
Selective  dynamics
Direct
-0.0000000000000000  0.0000000000000000  0.0501266727286857  T  T  T
-0.0000000000000000  0.0000000000000000  0.1275879011155244  T  T  T
-0.0000000000000000  0.0000000000000000  0.2032016645529834  T  T  T
-0.0000000000000000  0.0000000000000000  0.2806628929398219  T  T  T
0.3333333333333357  0.6666666666666643  0.0836677209513737  T  T  T
0.3333333333333357  0.6666666666666643  0.1653947828342502  T  T  T
0.3333333333333357  0.6666666666666643  0.2471218447171265  T  T  T
0.3333333333333357  0.6666666666666643  0.0000000000000000  T  T  T
0.3333333333333357  0.6666666666666643  0.3307895656685078  T  T  T

0.00000000E+00  0.00000000E+00  0.00000000E+00
0.00000000E+00  0.00000000E+00  0.00000000E+00
0.00000000E+00  0.00000000E+00  0.00000000E+00
0.00000000E+00  0.00000000E+00  0.00000000E+00
0.00000000E+00  0.00000000E+00  0.00000000E+00
0.00000000E+00  0.00000000E+00  0.00000000E+00
0.00000000E+00  0.00000000E+00  0.00000000E+00
0.00000000E+00  0.00000000E+00  0.00000000E+00
0.00000000E+00  0.00000000E+00  0.00000000E+00
