Hf4C3  (n=3)
1.00000000000000
3.2788978662577297  -0.0000000000000005  0.0000000000000000
-1.6394489331288649  2.8396088511589133  0.0000000000000000
0.0000000000000000  0.0000000000000000  37.2187456532618981
Hf  C  Cl
4  3  2
Selective  dynamics
Direct
0.0000000000000000  -0.0000000000000000  0.0500683377759695  T  T  T
0.0000000000000000  -0.0000000000000000  0.1266996746362186  T  T  T
0.0000000000000000  -0.0000000000000000  0.2015957968741444  T  T  T
0.0000000000000000  -0.0000000000000000  0.2782271337344011  T  T  T
0.3333333333333357  0.6666666666666643  0.0832941930256481  T  T  T
0.3333333333333357  0.6666666666666643  0.1641477357551816  T  T  T
0.3333333333333357  0.6666666666666643  0.2450012784847074  T  T  T
0.3333333333333357  0.6666666666666643  0.0000000000000000  T  T  T
0.3333333333333357  0.6666666666666643  0.3282954715103632  T  T  T

0.00000000E+00  0.00000000E+00  0.00000000E+00
0.00000000E+00  0.00000000E+00  0.00000000E+00
0.00000000E+00  0.00000000E+00  0.00000000E+00
0.00000000E+00  0.00000000E+00  0.00000000E+00
0.00000000E+00  0.00000000E+00  0.00000000E+00
0.00000000E+00  0.00000000E+00  0.00000000E+00
0.00000000E+00  0.00000000E+00  0.00000000E+00
0.00000000E+00  0.00000000E+00  0.00000000E+00
0.00000000E+00  0.00000000E+00  0.00000000E+00
