Mo4N3  (n=3)
1.00000000000000
2.9473852287045483  0.0000000000000001  0.0000000000000000
-1.4736926143522744  2.5525104830510235  0.0000000000000000
0.0000000000000000  0.0000000000000000  37.1731454733177458
Mo  N  Cl
4  3  2
Selective  dynamics
Direct
-0.0000000000000000  0.0000000000000000  0.0518517432312718  T  T  T
-0.0000000000000000  0.0000000000000000  0.1253149563341319  T  T  T
-0.0000000000000000  0.0000000000000000  0.2021565373562713  T  T  T
-0.0000000000000000  -0.0000000000000000  0.2756197504591313  T  T  T
0.3333333333333357  0.6666666666666643  0.0882069665116702  T  T  T
0.3333333333333357  0.6666666666666643  0.1637357468451980  T  T  T
0.3333333333333357  0.6666666666666643  0.2392645271787187  T  T  T
0.3333333333333357  0.6666666666666643  0.0000000000000000  T  T  T
0.3333333333333357  0.6666666666666643  0.3274714936903961  T  T  T

0.00000000E+00  0.00000000E+00  0.00000000E+00
0.00000000E+00  0.00000000E+00  0.00000000E+00
0.00000000E+00  0.00000000E+00  0.00000000E+00
0.00000000E+00  0.00000000E+00  0.00000000E+00
0.00000000E+00  0.00000000E+00  0.00000000E+00
0.00000000E+00  0.00000000E+00  0.00000000E+00
0.00000000E+00  0.00000000E+00  0.00000000E+00
0.00000000E+00  0.00000000E+00  0.00000000E+00
0.00000000E+00  0.00000000E+00  0.00000000E+00
