Nb4C3  (n=3)
1.00000000000000
3.1212227692956929  -0.0000000000000004  0.0000000000000000
-1.5606113846478467  2.7030582101597718  0.0000000000000000
0.0000000000000000  0.0000000000000000  37.1117748438924480
Nb  C  Cl
4  3  2
Selective  dynamics
Direct
-0.0000000000000000  -0.0000000000000000  0.0483886461566679  T  T  T
-0.0000000000000000  -0.0000000000000000  0.1246289799270777  T  T  T
-0.0000000000000000  -0.0000000000000000  0.2017303735352561  T  T  T
-0.0000000000000000  -0.0000000000000000  0.2779707073056658  T  T  T
0.3333333333333357  0.6666666666666643  0.0841218860078881  T  T  T
0.3333333333333357  0.6666666666666643  0.1631796767311633  T  T  T
0.3333333333333357  0.6666666666666643  0.2422374674544383  T  T  T
0.3333333333333357  0.6666666666666643  0.0000000000000000  T  T  T
0.3333333333333357  0.6666666666666643  0.3263593534623339  T  T  T

0.00000000E+00  0.00000000E+00  0.00000000E+00
0.00000000E+00  0.00000000E+00  0.00000000E+00
0.00000000E+00  0.00000000E+00  0.00000000E+00
0.00000000E+00  0.00000000E+00  0.00000000E+00
0.00000000E+00  0.00000000E+00  0.00000000E+00
0.00000000E+00  0.00000000E+00  0.00000000E+00
0.00000000E+00  0.00000000E+00  0.00000000E+00
0.00000000E+00  0.00000000E+00  0.00000000E+00
0.00000000E+00  0.00000000E+00  0.00000000E+00
