Ti4N3  (n=3)
1.00000000000000
2.9921427199150616  0.0000000000000001  0.0000000000000000
-1.4960713599575310  2.5912716073399942  0.0000000000000000
0.0000000000000000  0.0000000000000000  36.4020433228796776
Ti  N  Cl
4  3  2
Selective  dynamics
Direct
-0.0000000000000000  -0.0000000000000000  0.0471169049688156  T  T  T
-0.0000000000000000  -0.0000000000000000  0.1198386222739014  T  T  T
-0.0000000000000000  -0.0000000000000000  0.1933867431745590  T  T  T
-0.0000000000000000  -0.0000000000000000  0.2661084604796448  T  T  T
0.3333333333333357  0.6666666666666643  0.0818343075787856  T  T  T
0.3333333333333357  0.6666666666666643  0.1566126827242302  T  T  T
0.3333333333333357  0.6666666666666643  0.2313910578696602  T  T  T
0.3333333333333357  0.6666666666666643  0.0000000000000000  T  T  T
0.3333333333333357  0.6666666666666643  0.3132253654484604  T  T  T

0.00000000E+00  0.00000000E+00  0.00000000E+00
0.00000000E+00  0.00000000E+00  0.00000000E+00
0.00000000E+00  0.00000000E+00  0.00000000E+00
0.00000000E+00  0.00000000E+00  0.00000000E+00
0.00000000E+00  0.00000000E+00  0.00000000E+00
0.00000000E+00  0.00000000E+00  0.00000000E+00
0.00000000E+00  0.00000000E+00  0.00000000E+00
0.00000000E+00  0.00000000E+00  0.00000000E+00
0.00000000E+00  0.00000000E+00  0.00000000E+00
