Cr4C3  (n=3)
1.00000000000000
2.8189752473678675  -0.0000000000000002  0.0000000000000000
-1.4094876236839335  2.4413041768296306  0.0000000000000000
0.0000000000000000  0.0000000000000000  36.0772362786521157
Cr  C  Cl
4  3  2
Selective  dynamics
Direct
0.0000000000000000  0.0000000000000000  0.0474145866035877  T  T  T
0.0000000000000000  0.0000000000000000  0.1179741113657067  T  T  T
0.0000000000000000  0.0000000000000000  0.1890681518801149  T  T  T
0.0000000000000000  0.0000000000000000  0.2596276766422480  T  T  T
0.3333333333333357  0.6666666666666643  0.0813029521451659  T  T  T
0.3333333333333357  0.6666666666666643  0.1535211316229179  T  T  T
0.3333333333333357  0.6666666666666643  0.2257393111006628  T  T  T
0.3333333333333357  0.6666666666666643  0.0000000000000000  T  T  T
0.3333333333333357  0.6666666666666643  0.3070422632458356  T  T  T

0.00000000E+00  0.00000000E+00  0.00000000E+00
0.00000000E+00  0.00000000E+00  0.00000000E+00
0.00000000E+00  0.00000000E+00  0.00000000E+00
0.00000000E+00  0.00000000E+00  0.00000000E+00
0.00000000E+00  0.00000000E+00  0.00000000E+00
0.00000000E+00  0.00000000E+00  0.00000000E+00
0.00000000E+00  0.00000000E+00  0.00000000E+00
0.00000000E+00  0.00000000E+00  0.00000000E+00
0.00000000E+00  0.00000000E+00  0.00000000E+00
