Nb4N3  (n=3)
1.00000000000000
3.0362698032247648  -0.0000000000000001  0.0000000000000000
-1.5181349016123822  2.6294867830478506  0.0000000000000000
0.0000000000000000  0.0000000000000000  37.2597708654341133
Nb  N  Cl
4  3  2
Selective  dynamics
Direct
0.0000000000000000  0.0000000000000000  0.0487295215009013  T  T  T
0.0000000000000000  0.0000000000000000  0.1259071836979290  T  T  T
0.0000000000000000  0.0000000000000000  0.2031278742392499  T  T  T
0.0000000000000000  0.0000000000000000  0.2803055364362775  T  T  T
0.3333333333333357  0.6666666666666643  0.0871916034251813  T  T  T
0.3333333333333357  0.6666666666666643  0.1645175289685858  T  T  T
0.3333333333333357  0.6666666666666643  0.2418434545119903  T  T  T
0.3333333333333357  0.6666666666666643  0.0000000000000000  T  T  T
0.3333333333333357  0.6666666666666643  0.3290350579371787  T  T  T

0.00000000E+00  0.00000000E+00  0.00000000E+00
0.00000000E+00  0.00000000E+00  0.00000000E+00
0.00000000E+00  0.00000000E+00  0.00000000E+00
0.00000000E+00  0.00000000E+00  0.00000000E+00
0.00000000E+00  0.00000000E+00  0.00000000E+00
0.00000000E+00  0.00000000E+00  0.00000000E+00
0.00000000E+00  0.00000000E+00  0.00000000E+00
0.00000000E+00  0.00000000E+00  0.00000000E+00
0.00000000E+00  0.00000000E+00  0.00000000E+00
