Ta4C3  (n=3)
1.00000000000000
3.0993506980032191  -0.0000000000000005  0.0000000000000000
-1.5496753490016097  2.6841164409256804  0.0000000000000000
0.0000000000000000  0.0000000000000000  37.1012558118678157
Ta  C  Cl
4  3  2
Selective  dynamics
Direct
0.0000000000000000  0.0000000000000000  0.0485587697607571  T  T  T
0.0000000000000000  0.0000000000000000  0.1246271501551321  T  T  T
0.0000000000000000  0.0000000000000000  0.2015412111863434  T  T  T
0.0000000000000000  0.0000000000000000  0.2776095915807185  T  T  T
0.3333333333333357  0.6666666666666643  0.0842195534287674  T  T  T
0.3333333333333357  0.6666666666666643  0.1630841806707378  T  T  T
0.3333333333333357  0.6666666666666643  0.2419488079127007  T  T  T
0.3333333333333357  0.6666666666666643  0.0000000000000000  T  T  T
0.3333333333333357  0.6666666666666643  0.3261683613414753  T  T  T

0.00000000E+00  0.00000000E+00  0.00000000E+00
0.00000000E+00  0.00000000E+00  0.00000000E+00
0.00000000E+00  0.00000000E+00  0.00000000E+00
0.00000000E+00  0.00000000E+00  0.00000000E+00
0.00000000E+00  0.00000000E+00  0.00000000E+00
0.00000000E+00  0.00000000E+00  0.00000000E+00
0.00000000E+00  0.00000000E+00  0.00000000E+00
0.00000000E+00  0.00000000E+00  0.00000000E+00
0.00000000E+00  0.00000000E+00  0.00000000E+00
