Zr4N3  (n=3)
1.00000000000000
3.1992485463594154  0.0000000000000004  0.0000000000000000
-1.5996242731797075  2.7706305154798803  0.0000000000000000
0.0000000000000000  0.0000000000000000  37.4141629178507529
Zr  N  Cl
4  3  2
Selective  dynamics
Direct
0.0000000000000000  0.0000000000000000  0.0487848046248146  T  T  T
0.0000000000000000  0.0000000000000000  0.1266515477235808  T  T  T
0.0000000000000000  0.0000000000000000  0.2051522920444748  T  T  T
0.0000000000000000  0.0000000000000000  0.2830190351432409  T  T  T
0.3333333333333357  0.6666666666666643  0.0871304476344138  T  T  T
0.3333333333333357  0.6666666666666643  0.1659019198840278  T  T  T
0.3333333333333357  0.6666666666666643  0.2446733921336418  T  T  T
0.3333333333333357  0.6666666666666643  0.0000000000000000  T  T  T
0.3333333333333357  0.6666666666666643  0.3318038397680630  T  T  T

0.00000000E+00  0.00000000E+00  0.00000000E+00
0.00000000E+00  0.00000000E+00  0.00000000E+00
0.00000000E+00  0.00000000E+00  0.00000000E+00
0.00000000E+00  0.00000000E+00  0.00000000E+00
0.00000000E+00  0.00000000E+00  0.00000000E+00
0.00000000E+00  0.00000000E+00  0.00000000E+00
0.00000000E+00  0.00000000E+00  0.00000000E+00
0.00000000E+00  0.00000000E+00  0.00000000E+00
0.00000000E+00  0.00000000E+00  0.00000000E+00
