Ti4C3  (n=3)
1.00000000000000
3.1104783506123130  0.0000000000000000  0.0000000000000000
-1.5552391753061565  2.6937532701324649  0.0000000000000000
0.0000000000000000  0.0000000000000000  36.3812745996312756
Ti  C  Cl
4  3  2
Selective  dynamics
Direct
0.0000000000000000  0.0000000000000000  0.0483670719352908  T  T  T
0.0000000000000000  0.0000000000000000  0.1208249723083133  T  T  T
0.0000000000000000  0.0000000000000000  0.1920083389178587  T  T  T
0.0000000000000000  0.0000000000000000  0.2644662392908812  T  T  T
0.3333333333333357  0.6666666666666643  0.0804118139651281  T  T  T
0.3333333333333357  0.6666666666666643  0.1564166556130860  T  T  T
0.3333333333333357  0.6666666666666643  0.2324214972610364  T  T  T
0.3333333333333357  0.6666666666666643  0.0000000000000000  T  T  T
0.3333333333333357  0.6666666666666643  0.3128333112261719  T  T  T

0.00000000E+00  0.00000000E+00  0.00000000E+00
0.00000000E+00  0.00000000E+00  0.00000000E+00
0.00000000E+00  0.00000000E+00  0.00000000E+00
0.00000000E+00  0.00000000E+00  0.00000000E+00
0.00000000E+00  0.00000000E+00  0.00000000E+00
0.00000000E+00  0.00000000E+00  0.00000000E+00
0.00000000E+00  0.00000000E+00  0.00000000E+00
0.00000000E+00  0.00000000E+00  0.00000000E+00
0.00000000E+00  0.00000000E+00  0.00000000E+00
