Mo4C3  (n=3)
1.00000000000000
2.9879622520889315  0.0000000000000002  0.0000000000000000
-1.4939811260444655  2.5876512163723588  0.0000000000000000
0.0000000000000000  0.0000000000000000  37.0386110004216604
Mo  C  Cl
4  3  2
Selective  dynamics
Direct
0.0000000000000000  0.0000000000000000  0.0497604820215966  T  T  T
0.0000000000000000  0.0000000000000000  0.1246091904086047  T  T  T
0.0000000000000000  0.0000000000000000  0.2004194938550845  T  T  T
0.0000000000000000  0.0000000000000000  0.2752682022420926  T  T  T
0.3333333333333357  0.6666666666666643  0.0860496224492305  T  T  T
0.3333333333333357  0.6666666666666643  0.1625143421318410  T  T  T
0.3333333333333357  0.6666666666666643  0.2389790618144516  T  T  T
0.3333333333333357  0.6666666666666643  0.0000000000000000  T  T  T
0.3333333333333357  0.6666666666666643  0.3250286842636893  T  T  T

0.00000000E+00  0.00000000E+00  0.00000000E+00
0.00000000E+00  0.00000000E+00  0.00000000E+00
0.00000000E+00  0.00000000E+00  0.00000000E+00
0.00000000E+00  0.00000000E+00  0.00000000E+00
0.00000000E+00  0.00000000E+00  0.00000000E+00
0.00000000E+00  0.00000000E+00  0.00000000E+00
0.00000000E+00  0.00000000E+00  0.00000000E+00
0.00000000E+00  0.00000000E+00  0.00000000E+00
0.00000000E+00  0.00000000E+00  0.00000000E+00
