Hf4N3  (n=3)
1.00000000000000
3.2987226308105275  0.0000000000000001  0.0000000000000000
-1.6493613154052635  2.8567775992879136  0.0000000000000000
-0.0000000000000002  -0.0000000000000011  36.4787105908142593
Hf  N  Br
4  3  2
Selective  dynamics
Direct
0.0000000000000000  -0.0000000000000000  0.0537989881835694  T  T  T
0.6666666666666643  0.3333333333333357  0.1232708485148348  T  T  T
0.3333333333333357  0.6666666666666643  0.1943258059525685  T  T  T
-0.0000000000000000  -0.0000000000000000  0.2595076654309842  T  T  T
0.3333333333333357  0.6666666666666643  0.0886521699659841  T  T  T
0.0000000000000000  -0.0000000000000000  0.1571547423163401  T  T  T
0.6666666666666643  0.3333333333333357  0.2289359415696810  T  T  T
0.3333333333333357  0.6666666666666643  0.0000000000000000  T  T  T
0.3333333333333357  0.6666666666666643  0.3146687589803332  T  T  T

0.00000000E+00  0.00000000E+00  0.00000000E+00
0.00000000E+00  0.00000000E+00  0.00000000E+00
0.00000000E+00  0.00000000E+00  0.00000000E+00
0.00000000E+00  0.00000000E+00  0.00000000E+00
0.00000000E+00  0.00000000E+00  0.00000000E+00
0.00000000E+00  0.00000000E+00  0.00000000E+00
0.00000000E+00  0.00000000E+00  0.00000000E+00
0.00000000E+00  0.00000000E+00  0.00000000E+00
0.00000000E+00  0.00000000E+00  0.00000000E+00
