Zr4C3  (n=3)
1.00000000000000
3.4228193047163264  0.0000000000000008  -0.0000000000000001
-1.7114096523581623  2.9642484724468452  0.0000000000000002
-0.0000000000000020  0.0000000000000019  36.7925536743131261
Zr  C  Br
4  3  2
Selective  dynamics
Direct
-0.0000000000000000  0.0000000000000000  0.0548971098842616  T  T  T
0.6666666666666643  0.3333333333333357  0.1259139125772254  T  T  T
0.3333333333333357  0.6666666666666643  0.1959527226603544  T  T  T
0.0000000000000000  -0.0000000000000000  0.2660783346921302  T  T  T
0.3333333333333357  0.6666666666666643  0.0867256278956469  T  T  T
-0.0000000000000000  0.0000000000000000  0.1611060530590467  T  T  T
0.6666666666666643  0.3333333333333357  0.2359490134283542  T  T  T
0.3333333333333357  0.6666666666666643  0.0000000000000000  T  T  T
0.3333333333333357  0.6666666666666643  0.3205146829084101  T  T  T

0.00000000E+00  0.00000000E+00  0.00000000E+00
0.00000000E+00  0.00000000E+00  0.00000000E+00
0.00000000E+00  0.00000000E+00  0.00000000E+00
0.00000000E+00  0.00000000E+00  0.00000000E+00
0.00000000E+00  0.00000000E+00  0.00000000E+00
0.00000000E+00  0.00000000E+00  0.00000000E+00
0.00000000E+00  0.00000000E+00  0.00000000E+00
0.00000000E+00  0.00000000E+00  0.00000000E+00
0.00000000E+00  0.00000000E+00  0.00000000E+00
