Mo4C3  (n=3)
1.00000000000000
3.2105465709053633  0.0000000000000001  -0.0000000000000000
-1.6052732854526819  2.7804148912808477  0.0000000000000000
-0.0000000000000006  -0.0000000000000017  36.1218264777585176
Mo  C  Br
4  3  2
Selective  dynamics
Direct
-0.0000000000000000  -0.0000000000000000  0.0573004173254938  T  T  T
0.6666666666666643  0.3333333333333357  0.1195055197928694  T  T  T
0.3333333333333357  0.6666666666666643  0.1909100833474938  T  T  T
0.0000000000000000  0.0000000000000000  0.2505884920930859  T  T  T
0.3333333333333357  0.6666666666666643  0.0841691354947337  T  T  T
0.0000000000000000  -0.0000000000000000  0.1549182415628229  T  T  T
0.6666666666666643  0.3333333333333357  0.2253168942172318  T  T  T
0.3333333333333357  0.6666666666666643  0.0000000000000000  T  T  T
0.3333333333333357  0.6666666666666643  0.3078976774501317  T  T  T

0.00000000E+00  0.00000000E+00  0.00000000E+00
0.00000000E+00  0.00000000E+00  0.00000000E+00
0.00000000E+00  0.00000000E+00  0.00000000E+00
0.00000000E+00  0.00000000E+00  0.00000000E+00
0.00000000E+00  0.00000000E+00  0.00000000E+00
0.00000000E+00  0.00000000E+00  0.00000000E+00
0.00000000E+00  0.00000000E+00  0.00000000E+00
0.00000000E+00  0.00000000E+00  0.00000000E+00
0.00000000E+00  0.00000000E+00  0.00000000E+00
