Ti4N3  (n=3)
1.00000000000000
3.1392904151386842  0.0000000000000004  -0.0000000000000001
-1.5696452075693426  2.7187052495833868  0.0000000000000001
-0.0000000000000010  0.0000000000000010  35.7215636046218208
Ti  N  Br
4  3  2
Selective  dynamics
Direct
0.0000000000000000  -0.0000000000000000  0.0527617069639024  T  T  T
0.6666666666666643  0.3333333333333357  0.1179147933316481  T  T  T
0.3333333333333357  0.6666666666666643  0.1855326740033915  T  T  T
0.0000000000000000  -0.0000000000000000  0.2468322758579552  T  T  T
0.3333333333333357  0.6666666666666643  0.0842348744202836  T  T  T
-0.0000000000000000  -0.0000000000000000  0.1506279947180761  T  T  T
0.6666666666666643  0.3333333333333357  0.2183335264109111  T  T  T
0.3333333333333357  0.6666666666666643  0.0000000000000000  T  T  T
0.3333333333333357  0.6666666666666643  0.3001426175878430  T  T  T

0.00000000E+00  0.00000000E+00  0.00000000E+00
0.00000000E+00  0.00000000E+00  0.00000000E+00
0.00000000E+00  0.00000000E+00  0.00000000E+00
0.00000000E+00  0.00000000E+00  0.00000000E+00
0.00000000E+00  0.00000000E+00  0.00000000E+00
0.00000000E+00  0.00000000E+00  0.00000000E+00
0.00000000E+00  0.00000000E+00  0.00000000E+00
0.00000000E+00  0.00000000E+00  0.00000000E+00
0.00000000E+00  0.00000000E+00  0.00000000E+00
