Cr4C3  (n=3)
1.00000000000000
3.1120927262663032  0.0000000000000000  0.0000000000000000
-1.5560463631331516  2.6951513598342736  0.0000000000000006
0.0000000000000001  0.0000000000000080  35.1690076383649028
Cr  C  Br
4  3  2
Selective  dynamics
Direct
0.0000000000000000  -0.0000000000000000  0.0552227125698385  T  T  T
0.6666666666666643  0.3333333333333357  0.1155456449659590  T  T  T
0.3333333333333357  0.6666666666666643  0.1745589593771022  T  T  T
-0.0000000000000000  -0.0000000000000000  0.2355415587744216  T  T  T
0.3333333333333357  0.6666666666666643  0.0812610249682841  T  T  T
0.0000000000000000  0.0000000000000000  0.1456165623874736  T  T  T
0.6666666666666643  0.3333333333333357  0.2109601809069715  T  T  T
0.3333333333333357  0.6666666666666643  0.0000000000000000  T  T  T
0.3333333333333357  0.6666666666666643  0.2891468460790977  T  T  T

0.00000000E+00  0.00000000E+00  0.00000000E+00
0.00000000E+00  0.00000000E+00  0.00000000E+00
0.00000000E+00  0.00000000E+00  0.00000000E+00
0.00000000E+00  0.00000000E+00  0.00000000E+00
0.00000000E+00  0.00000000E+00  0.00000000E+00
0.00000000E+00  0.00000000E+00  0.00000000E+00
0.00000000E+00  0.00000000E+00  0.00000000E+00
0.00000000E+00  0.00000000E+00  0.00000000E+00
0.00000000E+00  0.00000000E+00  0.00000000E+00
