Ta4N3  (n=3)
1.00000000000000
3.2040667782885364  -0.0000000000000001  0.0000000000000000
-1.6020333891442688  2.7748032261284146  0.0000000000000000
0.0000000000000002  0.0000000000000009  36.3356388932561458
Ta  N  Br
4  3  2
Selective  dynamics
Direct
-0.0000000000000000  -0.0000000000000000  0.0551523013167872  T  T  T
0.6666666666666643  0.3333333333333357  0.1226070327562400  T  T  T
0.3333333333333357  0.6666666666666643  0.1917974418458697  T  T  T
-0.0000000000000000  -0.0000000000000000  0.2565037114230518  T  T  T
0.3333333333333357  0.6666666666666643  0.0867909568796983  T  T  T
-0.0000000000000000  -0.0000000000000000  0.1573049271151654  T  T  T
0.6666666666666643  0.3333333333333357  0.2241657122105136  T  T  T
0.3333333333333357  0.6666666666666643  0.0000000000000000  T  T  T
0.3333333333333357  0.6666666666666643  0.3119702649664989  T  T  T

0.00000000E+00  0.00000000E+00  0.00000000E+00
0.00000000E+00  0.00000000E+00  0.00000000E+00
0.00000000E+00  0.00000000E+00  0.00000000E+00
0.00000000E+00  0.00000000E+00  0.00000000E+00
0.00000000E+00  0.00000000E+00  0.00000000E+00
0.00000000E+00  0.00000000E+00  0.00000000E+00
0.00000000E+00  0.00000000E+00  0.00000000E+00
0.00000000E+00  0.00000000E+00  0.00000000E+00
0.00000000E+00  0.00000000E+00  0.00000000E+00
