Ta4C3  (n=3)
1.00000000000000
3.2249444920983525  0.0000000000000004  -0.0000000000000000
-1.6124722460491754  2.7928838569838459  -0.0000000000000001
0.0000000000000004  -0.0000000000000021  36.5122201377287823
Ta  C  Br
4  3  2
Selective  dynamics
Direct
-0.0000000000000000  -0.0000000000000000  0.0550053282005407  T  T  T
0.6666666666666643  0.3333333333333357  0.1231985460695619  T  T  T
0.3333333333333357  0.6666666666666643  0.1941604414896609  T  T  T
0.0000000000000000  0.0000000000000000  0.2591501527148629  T  T  T
0.3333333333333357  0.6666666666666643  0.0871119307156589  T  T  T
0.0000000000000000  0.0000000000000000  0.1578327099530730  T  T  T
0.6666666666666643  0.3333333333333357  0.2290470209182034  T  T  T
0.3333333333333357  0.6666666666666643  0.0000000000000000  T  T  T
0.3333333333333357  0.6666666666666643  0.3152977303024361  T  T  T

0.00000000E+00  0.00000000E+00  0.00000000E+00
0.00000000E+00  0.00000000E+00  0.00000000E+00
0.00000000E+00  0.00000000E+00  0.00000000E+00
0.00000000E+00  0.00000000E+00  0.00000000E+00
0.00000000E+00  0.00000000E+00  0.00000000E+00
0.00000000E+00  0.00000000E+00  0.00000000E+00
0.00000000E+00  0.00000000E+00  0.00000000E+00
0.00000000E+00  0.00000000E+00  0.00000000E+00
0.00000000E+00  0.00000000E+00  0.00000000E+00
