Ti4C3  (n=3)
1.00000000000000
3.1968977361561617  -0.0000000000000002  -0.0000000000000001
-1.5984488680780808  2.7685946531273697  0.0000000000000001
-0.0000000000000006  -0.0000000000000027  35.8337233969007940
Ti  C  Br
4  3  2
Selective  dynamics
Direct
-0.0000000000000000  -0.0000000000000000  0.0533031978103019  T  T  T
0.6666666666666643  0.3333333333333357  0.1194621807751379  T  T  T
0.3333333333333357  0.6666666666666643  0.1846507347716382  T  T  T
0.0000000000000000  0.0000000000000000  0.2498273596966157  T  T  T
0.3333333333333357  0.6666666666666643  0.0830320262369529  T  T  T
-0.0000000000000000  0.0000000000000000  0.1522135826277385  T  T  T
0.6666666666666643  0.3333333333333357  0.2217365437263002  T  T  T
0.3333333333333357  0.6666666666666643  0.0000000000000000  T  T  T
0.3333333333333357  0.6666666666666643  0.3023331758440093  T  T  T

0.00000000E+00  0.00000000E+00  0.00000000E+00
0.00000000E+00  0.00000000E+00  0.00000000E+00
0.00000000E+00  0.00000000E+00  0.00000000E+00
0.00000000E+00  0.00000000E+00  0.00000000E+00
0.00000000E+00  0.00000000E+00  0.00000000E+00
0.00000000E+00  0.00000000E+00  0.00000000E+00
0.00000000E+00  0.00000000E+00  0.00000000E+00
0.00000000E+00  0.00000000E+00  0.00000000E+00
0.00000000E+00  0.00000000E+00  0.00000000E+00
