Cr4N3  (n=3)
1.00000000000000
3.0668154836543566  0.0000000000000001  0.0000000000000000
-1.5334077418271783  2.6559401176796120  0.0000000000000000
-0.0000000000000006  0.0000000000000016  35.2936475616406469
Cr  N  Br
4  3  2
Selective  dynamics
Direct
-0.0000000000000000  0.0000000000000000  0.0548286590458472  T  T  T
0.6666666666666643  0.3333333333333357  0.1169840366643995  T  T  T
0.3333333333333357  0.6666666666666643  0.1790248417051980  T  T  T
-0.0000000000000000  -0.0000000000000000  0.2382589958353119  T  T  T
0.3333333333333357  0.6666666666666643  0.0827598344637709  T  T  T
-0.0000000000000000  -0.0000000000000000  0.1483498469967096  T  T  T
0.6666666666666643  0.3333333333333357  0.2137983754104886  T  T  T
0.3333333333333357  0.6666666666666643  0.0000000000000000  T  T  T
0.3333333333333357  0.6666666666666643  0.2916572321878237  T  T  T

0.00000000E+00  0.00000000E+00  0.00000000E+00
0.00000000E+00  0.00000000E+00  0.00000000E+00
0.00000000E+00  0.00000000E+00  0.00000000E+00
0.00000000E+00  0.00000000E+00  0.00000000E+00
0.00000000E+00  0.00000000E+00  0.00000000E+00
0.00000000E+00  0.00000000E+00  0.00000000E+00
0.00000000E+00  0.00000000E+00  0.00000000E+00
0.00000000E+00  0.00000000E+00  0.00000000E+00
0.00000000E+00  0.00000000E+00  0.00000000E+00
