Sc4N3  (n=3)
1.00000000000000
3.3046457357838768  0.0000000000000000  0.0000000000000000
-1.6523228678919382  2.8619071586056317  -0.0000000000000005
0.0000000000000000  -0.0000000000000018  36.3676849807340759
Sc  N  Br
4  3  2
Selective  dynamics
Direct
-0.0000000000000000  -0.0000000000000000  0.0537605839099715  T  T  T
0.6666666666666643  0.3333333333333357  0.1227308527539096  T  T  T
0.3333333333333357  0.6666666666666643  0.1910381251623502  T  T  T
-0.0000000000000000  0.0000000000000000  0.2598619339075252  T  T  T
0.3333333333333357  0.6666666666666643  0.0854990137019452  T  T  T
-0.0000000000000000  0.0000000000000000  0.1576780938703089  T  T  T
0.6666666666666643  0.3333333333333357  0.2301909849205398  T  T  T
0.3333333333333357  0.6666666666666643  0.0000000000000000  T  T  T
0.3333333333333357  0.6666666666666643  0.3125765356457567  T  T  T

0.00000000E+00  0.00000000E+00  0.00000000E+00
0.00000000E+00  0.00000000E+00  0.00000000E+00
0.00000000E+00  0.00000000E+00  0.00000000E+00
0.00000000E+00  0.00000000E+00  0.00000000E+00
0.00000000E+00  0.00000000E+00  0.00000000E+00
0.00000000E+00  0.00000000E+00  0.00000000E+00
0.00000000E+00  0.00000000E+00  0.00000000E+00
0.00000000E+00  0.00000000E+00  0.00000000E+00
0.00000000E+00  0.00000000E+00  0.00000000E+00
