Zr4N3  (n=3)
1.00000000000000
3.3623952582448071  0.0000000000000000  0.0000000000000000
-1.6811976291224036  2.9119197124390497  -0.0000000000000001
-0.0000000000000001  -0.0000000000000005  36.5738854191268885
Zr  N  Br
4  3  2
Selective  dynamics
Direct
0.0000000000000000  0.0000000000000000  0.0540748602267183  T  T  T
0.6666666666666643  0.3333333333333357  0.1239366674148624  T  T  T
0.3333333333333357  0.6666666666666643  0.1957122837690463  T  T  T
0.0000000000000000  0.0000000000000000  0.2614294748382227  T  T  T
0.3333333333333357  0.6666666666666643  0.0887653390438740  T  T  T
0.0000000000000000  0.0000000000000000  0.1583814915192880  T  T  T
0.6666666666666643  0.3333333333333357  0.2303745799192619  T  T  T
0.3333333333333357  0.6666666666666643  0.0000000000000000  T  T  T
0.3333333333333357  0.6666666666666643  0.3164521703530613  T  T  T

0.00000000E+00  0.00000000E+00  0.00000000E+00
0.00000000E+00  0.00000000E+00  0.00000000E+00
0.00000000E+00  0.00000000E+00  0.00000000E+00
0.00000000E+00  0.00000000E+00  0.00000000E+00
0.00000000E+00  0.00000000E+00  0.00000000E+00
0.00000000E+00  0.00000000E+00  0.00000000E+00
0.00000000E+00  0.00000000E+00  0.00000000E+00
0.00000000E+00  0.00000000E+00  0.00000000E+00
0.00000000E+00  0.00000000E+00  0.00000000E+00
