Sc4C3  (n=3)
1.00000000000000
3.4164304820301679  0.0000000000000001  0.0000000000000000
-1.7082152410150844  2.9587155895005539  -0.0000000000000006
0.0000000000000011  -0.0000000000000038  36.5972371954587530
Sc  C  Br
4  3  2
Selective  dynamics
Direct
-0.0000000000000000  -0.0000000000000000  0.0526978893757732  T  T  T
0.6666666666666643  0.3333333333333357  0.1220790464110846  T  T  T
0.3333333333333357  0.6666666666666643  0.1963166834595005  T  T  T
0.0000000000000000  0.0000000000000000  0.2656440380774787  T  T  T
0.3333333333333357  0.6666666666666643  0.0864373277249890  T  T  T
0.0000000000000000  0.0000000000000000  0.1590986580551193  T  T  T
0.6666666666666643  0.3333333333333357  0.2327846543961503  T  T  T
0.3333333333333357  0.6666666666666643  0.0000000000000000  T  T  T
0.3333333333333357  0.6666666666666643  0.3168883250262897  T  T  T

0.00000000E+00  0.00000000E+00  0.00000000E+00
0.00000000E+00  0.00000000E+00  0.00000000E+00
0.00000000E+00  0.00000000E+00  0.00000000E+00
0.00000000E+00  0.00000000E+00  0.00000000E+00
0.00000000E+00  0.00000000E+00  0.00000000E+00
0.00000000E+00  0.00000000E+00  0.00000000E+00
0.00000000E+00  0.00000000E+00  0.00000000E+00
0.00000000E+00  0.00000000E+00  0.00000000E+00
0.00000000E+00  0.00000000E+00  0.00000000E+00
