Mo4N3  (n=3)
1.00000000000000
3.2819720774738781  -0.0000000000000003  0.0000000000000000
-1.6409860387369393  2.8422711939226004  0.0000000000000001
-0.0000000000000004  0.0000000000000006  35.6593322748998816
Mo  N  Br
4  3  2
Selective  dynamics
Direct
-0.0000000000000000  -0.0000000000000000  0.0587026371577085  T  T  T
0.6666666666666643  0.3333333333333357  0.1143292821949085  T  T  T
0.3333333333333357  0.6666666666666643  0.1855296870417927  T  T  T
0.0000000000000000  -0.0000000000000000  0.2418625534951182  T  T  T
0.3333333333333357  0.6666666666666643  0.0827171574546670  T  T  T
0.0000000000000000  -0.0000000000000000  0.1527682283004009  T  T  T
0.6666666666666643  0.3333333333333357  0.2244794956670490  T  T  T
0.3333333333333357  0.6666666666666643  0.0000000000000000  T  T  T
0.3333333333333357  0.6666666666666643  0.2989212527235918  T  T  T

0.00000000E+00  0.00000000E+00  0.00000000E+00
0.00000000E+00  0.00000000E+00  0.00000000E+00
0.00000000E+00  0.00000000E+00  0.00000000E+00
0.00000000E+00  0.00000000E+00  0.00000000E+00
0.00000000E+00  0.00000000E+00  0.00000000E+00
0.00000000E+00  0.00000000E+00  0.00000000E+00
0.00000000E+00  0.00000000E+00  0.00000000E+00
0.00000000E+00  0.00000000E+00  0.00000000E+00
0.00000000E+00  0.00000000E+00  0.00000000E+00
