Nb4N3  (n=3)
1.00000000000000
3.2487348460724168  0.0000000000000004  0.0000000000000000
-1.6243674230362075  2.8134869077669555  0.0000000000000000
-0.0000000000000002  0.0000000000000005  36.2943827222519673
Nb  N  Br
4  3  2
Selective  dynamics
Direct
0.0000000000000000  -0.0000000000000000  0.0557285531250683  T  T  T
0.6666666666666643  0.3333333333333357  0.1216053006081156  T  T  T
0.3333333333333357  0.6666666666666643  0.1929352858400111  T  T  T
0.0000000000000000  -0.0000000000000000  0.2551946912911093  T  T  T
0.3333333333333357  0.6666666666666643  0.0854697446784114  T  T  T
0.0000000000000000  -0.0000000000000000  0.1569856942407384  T  T  T
0.6666666666666643  0.3333333333333357  0.2259765172654500  T  T  T
0.3333333333333357  0.6666666666666643  0.0000000000000000  T  T  T
0.3333333333333357  0.6666666666666643  0.3111881750044869  T  T  T

0.00000000E+00  0.00000000E+00  0.00000000E+00
0.00000000E+00  0.00000000E+00  0.00000000E+00
0.00000000E+00  0.00000000E+00  0.00000000E+00
0.00000000E+00  0.00000000E+00  0.00000000E+00
0.00000000E+00  0.00000000E+00  0.00000000E+00
0.00000000E+00  0.00000000E+00  0.00000000E+00
0.00000000E+00  0.00000000E+00  0.00000000E+00
0.00000000E+00  0.00000000E+00  0.00000000E+00
0.00000000E+00  0.00000000E+00  0.00000000E+00
