Hf4C3  (n=3)
1.00000000000000
3.3734145788461789  0.0000000000000005  0.0000000000000000
-1.6867072894230890  2.9214627244712679  0.0000000000000002
-0.0000000000000011  0.0000000000000043  36.6277916844220215
Hf  C  Br
4  3  2
Selective  dynamics
Direct
0.0000000000000000  0.0000000000000000  0.0549802180888059  T  T  T
0.6666666666666643  0.3333333333333357  0.1249815359526102  T  T  T
0.3333333333333357  0.6666666666666643  0.1940719442159501  T  T  T
-0.0000000000000000  -0.0000000000000000  0.2631360180586055  T  T  T
0.3333333333333357  0.6666666666666643  0.0863807870732365  T  T  T
0.0000000000000000  0.0000000000000000  0.1598397659225859  T  T  T
0.6666666666666643  0.3333333333333357  0.2337448641303000  T  T  T
0.3333333333333357  0.6666666666666643  0.0000000000000000  T  T  T
0.3333333333333357  0.6666666666666643  0.3174581690483781  T  T  T

0.00000000E+00  0.00000000E+00  0.00000000E+00
0.00000000E+00  0.00000000E+00  0.00000000E+00
0.00000000E+00  0.00000000E+00  0.00000000E+00
0.00000000E+00  0.00000000E+00  0.00000000E+00
0.00000000E+00  0.00000000E+00  0.00000000E+00
0.00000000E+00  0.00000000E+00  0.00000000E+00
0.00000000E+00  0.00000000E+00  0.00000000E+00
0.00000000E+00  0.00000000E+00  0.00000000E+00
0.00000000E+00  0.00000000E+00  0.00000000E+00
