Nb4C3  (n=3)
1.00000000000000
3.2481021320020358  -0.0000000000000000  -0.0000000000000001
-1.6240510660010179  2.8129389616534248  0.0000000000000000
-0.0000000000000005  -0.0000000000000001  36.5289132567855219
Nb  C  Br
4  3  2
Selective  dynamics
Direct
0.0000000000000000  0.0000000000000000  0.0548532832399020  T  T  T
0.6666666666666643  0.3333333333333357  0.1229719469878855  T  T  T
0.3333333333333357  0.6666666666666643  0.1945369531947858  T  T  T
0.0000000000000000  -0.0000000000000000  0.2597680327891055  T  T  T
0.3333333333333357  0.6666666666666643  0.0868185736580255  T  T  T
-0.0000000000000000  0.0000000000000000  0.1579509173252110  T  T  T
0.6666666666666643  0.3333333333333357  0.2294970196502619  T  T  T
0.3333333333333357  0.6666666666666643  0.0000000000000000  T  T  T
0.3333333333333357  0.6666666666666643  0.3156106281000282  T  T  T

0.00000000E+00  0.00000000E+00  0.00000000E+00
0.00000000E+00  0.00000000E+00  0.00000000E+00
0.00000000E+00  0.00000000E+00  0.00000000E+00
0.00000000E+00  0.00000000E+00  0.00000000E+00
0.00000000E+00  0.00000000E+00  0.00000000E+00
0.00000000E+00  0.00000000E+00  0.00000000E+00
0.00000000E+00  0.00000000E+00  0.00000000E+00
0.00000000E+00  0.00000000E+00  0.00000000E+00
0.00000000E+00  0.00000000E+00  0.00000000E+00
