Cr3N2Br2  (n=2)
1.00000000000000
3.1363449625175979  -0.0000000000000001  0.0000000000000000
-1.5681724812587987  2.7161544127069419  0.0000000000000000
0.0000000000000000  0.0000000000000000  32.9178415234716155
Cr  N  Br
3  2  2
Selective  dynamics
Direct
0.0000000000000000  0.0000000000000000  0.0592229221250838  T  T  T
0.6666666666666643  0.3333333333333357  0.1169329072839498  T  T  T
0.3333333333333357  0.6666666666666643  0.1845120909007800  T  T  T
0.3333333333333357  0.6666666666666643  0.0873056608993027  T  T  T
-0.0000000000000000  0.0000000000000000  0.1570175613717728  T  T  T
0.3333333333333357  0.6666666666666643  0.0000000000000000  T  T  T
0.6666666666666643  0.3333333333333357  0.2405334358823591  T  T  T

0.00000000E+00  0.00000000E+00  0.00000000E+00
0.00000000E+00  0.00000000E+00  0.00000000E+00
0.00000000E+00  0.00000000E+00  0.00000000E+00
0.00000000E+00  0.00000000E+00  0.00000000E+00
0.00000000E+00  0.00000000E+00  0.00000000E+00
0.00000000E+00  0.00000000E+00  0.00000000E+00
0.00000000E+00  0.00000000E+00  0.00000000E+00
