Ti3C2Br2  (n=2)
1.00000000000000
3.2288893662990161  0.0000000000000004  0.0000000000000002
-1.6144446831495078  2.7963002176032936  -0.0000000000000002
0.0000000000000017  -0.0000000000000000  33.3493555922867841
Ti  C  Br
3  2  2
Selective  dynamics
Direct
0.0000000000000000  0.0000000000000000  0.0569646395777910  T  T  T
0.6666666666666643  0.3333333333333357  0.1258856624823169  T  T  T
0.3333333333333357  0.6666666666666643  0.1944358114082103  T  T  T
0.3333333333333357  0.6666666666666643  0.0891477066312511  T  T  T
-0.0000000000000000  0.0000000000000000  0.1641585364685366  T  T  T
0.3333333333333357  0.6666666666666643  0.0000000000000000  T  T  T
0.6666666666666643  0.3333333333333357  0.2503603276285755  T  T  T

0.00000000E+00  0.00000000E+00  0.00000000E+00
0.00000000E+00  0.00000000E+00  0.00000000E+00
0.00000000E+00  0.00000000E+00  0.00000000E+00
0.00000000E+00  0.00000000E+00  0.00000000E+00
0.00000000E+00  0.00000000E+00  0.00000000E+00
0.00000000E+00  0.00000000E+00  0.00000000E+00
0.00000000E+00  0.00000000E+00  0.00000000E+00
