Mo3N2Br2  (n=2)
1.00000000000000
3.2650261453798053  0.0000000000000000  -0.0000000000000002
-1.6325130726899026  2.8275955861965536  0.0000000000000001
-0.0000000000000013  0.0000000000000004  33.4145532578514164
Mo  N  Br
3  2  2
Selective  dynamics
Direct
-0.0000000000000000  -0.0000000000000000  0.0593384676957634  T  T  T
0.6666666666666643  0.3333333333333357  0.1288522669510923  T  T  T
0.3333333333333357  0.6666666666666643  0.1909295106215120  T  T  T
0.3333333333333357  0.6666666666666643  0.0932839702159133  T  T  T
0.0000000000000000  -0.0000000000000000  0.1713001814227812  T  T  T
0.3333333333333357  0.6666666666666643  0.0000000000000000  T  T  T
0.6666666666666643  0.3333333333333357  0.2518230063684676  T  T  T

0.00000000E+00  0.00000000E+00  0.00000000E+00
0.00000000E+00  0.00000000E+00  0.00000000E+00
0.00000000E+00  0.00000000E+00  0.00000000E+00
0.00000000E+00  0.00000000E+00  0.00000000E+00
0.00000000E+00  0.00000000E+00  0.00000000E+00
0.00000000E+00  0.00000000E+00  0.00000000E+00
0.00000000E+00  0.00000000E+00  0.00000000E+00
