Nb3C2Br2  (n=2)
1.00000000000000
3.2614214873005385  -0.0000000000000002  0.0000000000000000
-1.6307107436502695  2.8244738612386726  0.0000000000000000
-0.0000000000000001  0.0000000000000001  33.9379392416452674
Nb  C  Br
3  2  2
Selective  dynamics
Direct
-0.0000000000000000  0.0000000000000000  0.0577027118236647  T  T  T
0.6666666666666643  0.3333333333333357  0.1332651531531655  T  T  T
0.3333333333333357  0.6666666666666643  0.2035097438408750  T  T  T
0.3333333333333357  0.6666666666666643  0.0925908122088941  T  T  T
0.0000000000000000  0.0000000000000000  0.1703648292586376  T  T  T
0.3333333333333357  0.6666666666666643  0.0000000000000000  T  T  T
0.6666666666666643  0.3333333333333357  0.2633612836066817  T  T  T

0.00000000E+00  0.00000000E+00  0.00000000E+00
0.00000000E+00  0.00000000E+00  0.00000000E+00
0.00000000E+00  0.00000000E+00  0.00000000E+00
0.00000000E+00  0.00000000E+00  0.00000000E+00
0.00000000E+00  0.00000000E+00  0.00000000E+00
0.00000000E+00  0.00000000E+00  0.00000000E+00
0.00000000E+00  0.00000000E+00  0.00000000E+00
