Hf3C2Br2  (n=2)
1.00000000000000
3.3885827181902219  0.0000000000000001  0.0000000000000001
-1.6942913590951107  2.9345987177425359  0.0000000000000000
0.0000000000000009  0.0000000000000007  33.9545900285368560
Hf  C  Br
3  2  2
Selective  dynamics
Direct
0.0000000000000000  0.0000000000000000  0.0590212958010668  T  T  T
0.6666666666666643  0.3333333333333357  0.1322626294035970  T  T  T
0.3333333333333357  0.6666666666666643  0.2054497333477740  T  T  T
0.3333333333333357  0.6666666666666643  0.0932767429206378  T  T  T
-0.0000000000000000  -0.0000000000000000  0.1734751993889748  T  T  T
0.3333333333333357  0.6666666666666643  0.0000000000000000  T  T  T
0.6666666666666643  0.3333333333333357  0.2637225194299516  T  T  T

0.00000000E+00  0.00000000E+00  0.00000000E+00
0.00000000E+00  0.00000000E+00  0.00000000E+00
0.00000000E+00  0.00000000E+00  0.00000000E+00
0.00000000E+00  0.00000000E+00  0.00000000E+00
0.00000000E+00  0.00000000E+00  0.00000000E+00
0.00000000E+00  0.00000000E+00  0.00000000E+00
0.00000000E+00  0.00000000E+00  0.00000000E+00
