Zr3N2Br2  (n=2)
1.00000000000000
3.3561377417476872  0.0000000000000000  0.0000000000000000
-1.6780688708738432  2.9065005438642291  0.0000000000000000
0.0000000000000001  0.0000000000000002  34.0849889000015409
Zr  N  Br
3  2  2
Selective  dynamics
Direct
0.0000000000000000  -0.0000000000000000  0.0578423822333112  T  T  T
0.6666666666666643  0.3333333333333357  0.1343094294984560  T  T  T
0.3333333333333357  0.6666666666666643  0.2077887799947178  T  T  T
0.3333333333333357  0.6666666666666643  0.0948745789948852  T  T  T
0.0000000000000000  -0.0000000000000000  0.1720827881826350  T  T  T
0.3333333333333357  0.6666666666666643  0.0000000000000000  T  T  T
0.6666666666666643  0.3333333333333357  0.2665392946629691  T  T  T

0.00000000E+00  0.00000000E+00  0.00000000E+00
0.00000000E+00  0.00000000E+00  0.00000000E+00
0.00000000E+00  0.00000000E+00  0.00000000E+00
0.00000000E+00  0.00000000E+00  0.00000000E+00
0.00000000E+00  0.00000000E+00  0.00000000E+00
0.00000000E+00  0.00000000E+00  0.00000000E+00
0.00000000E+00  0.00000000E+00  0.00000000E+00
