Mo3C2Br2  (n=2)
1.00000000000000
3.1761881088668620  0.0000000000000000  0.0000000000000000
-1.5880940544334312  2.7506595899509736  -0.0000000000000000
-0.0000000000000002  -0.0000000000000005  33.8267142957859335
Mo  C  Br
3  2  2
Selective  dynamics
Direct
-0.0000000000000000  -0.0000000000000000  0.0597983550216801  T  T  T
0.6666666666666643  0.3333333333333357  0.1307109938938937  T  T  T
0.3333333333333357  0.6666666666666643  0.2001696913354821  T  T  T
0.3333333333333357  0.6666666666666643  0.0923638112464540  T  T  T
0.0000000000000000  0.0000000000000000  0.1688129154492792  T  T  T
0.3333333333333357  0.6666666666666643  0.0000000000000000  T  T  T
0.6666666666666643  0.3333333333333357  0.2609391565081906  T  T  T

0.00000000E+00  0.00000000E+00  0.00000000E+00
0.00000000E+00  0.00000000E+00  0.00000000E+00
0.00000000E+00  0.00000000E+00  0.00000000E+00
0.00000000E+00  0.00000000E+00  0.00000000E+00
0.00000000E+00  0.00000000E+00  0.00000000E+00
0.00000000E+00  0.00000000E+00  0.00000000E+00
0.00000000E+00  0.00000000E+00  0.00000000E+00
