Sc3C2Br2  (n=2)
1.00000000000000
3.4126208284186985  -0.0000000000000001  0.0000000000000001
-1.7063104142093495  2.9554163315289794  -0.0000000000000003
-0.0000000000000004  -0.0000000000000009  34.0425922071150211
Sc  C  Br
3  2  2
Selective  dynamics
Direct
0.0000000000000000  0.0000000000000000  0.0569107521846454  T  T  T
0.6666666666666643  0.3333333333333357  0.1336812921979275  T  T  T
0.3333333333333357  0.6666666666666643  0.2102964853639972  T  T  T
0.3333333333333357  0.6666666666666643  0.0937731967463657  T  T  T
0.0000000000000000  0.0000000000000000  0.1751276991689498  T  T  T
0.3333333333333357  0.6666666666666643  0.0000000000000000  T  T  T
0.6666666666666643  0.3333333333333357  0.2656258416544757  T  T  T

0.00000000E+00  0.00000000E+00  0.00000000E+00
0.00000000E+00  0.00000000E+00  0.00000000E+00
0.00000000E+00  0.00000000E+00  0.00000000E+00
0.00000000E+00  0.00000000E+00  0.00000000E+00
0.00000000E+00  0.00000000E+00  0.00000000E+00
0.00000000E+00  0.00000000E+00  0.00000000E+00
0.00000000E+00  0.00000000E+00  0.00000000E+00
