Cr3C2Br2  (n=2)
1.00000000000000
3.1586949106683440  0.0000000000000000  0.0000000000000000
-1.5793474553341720  2.7355100355978799  0.0000000000000000
0.0000000000000000  0.0000000000000002  32.8276469186217881
Cr  C  Br
3  2  2
Selective  dynamics
Direct
0.0000000000000000  0.0000000000000000  0.0581492446398713  T  T  T
0.6666666666666643  0.3333333333333357  0.1196138360949875  T  T  T
0.3333333333333357  0.6666666666666643  0.1817232468978288  T  T  T
0.3333333333333357  0.6666666666666643  0.0864050372520544  T  T  T
-0.0000000000000000  -0.0000000000000000  0.1556718527781285  T  T  T
0.3333333333333357  0.6666666666666643  0.0000000000000000  T  T  T
0.6666666666666643  0.3333333333333357  0.2384467865767584  T  T  T

0.00000000E+00  0.00000000E+00  0.00000000E+00
0.00000000E+00  0.00000000E+00  0.00000000E+00
0.00000000E+00  0.00000000E+00  0.00000000E+00
0.00000000E+00  0.00000000E+00  0.00000000E+00
0.00000000E+00  0.00000000E+00  0.00000000E+00
0.00000000E+00  0.00000000E+00  0.00000000E+00
0.00000000E+00  0.00000000E+00  0.00000000E+00
