Nb3N2Br2  (n=2)
1.00000000000000
3.2312172475746572  0.0000000000000001  0.0000000000000000
-1.6156086237873286  2.7983162221312377  0.0000000000000000
0.0000000000000001  -0.0000000000000001  33.8972153989938221
Nb  N  Br
3  2  2
Selective  dynamics
Direct
0.0000000000000000  0.0000000000000000  0.0590094244680176  T  T  T
0.6666666666666643  0.3333333333333357  0.1331284158487862  T  T  T
0.3333333333333357  0.6666666666666643  0.2033442486425825  T  T  T
0.3333333333333357  0.6666666666666643  0.0948336783331552  T  T  T
0.0000000000000000  0.0000000000000000  0.1682406555480830  T  T  T
0.3333333333333357  0.6666666666666643  0.0000000000000000  T  T  T
0.6666666666666643  0.3333333333333357  0.2624762917622406  T  T  T

0.00000000E+00  0.00000000E+00  0.00000000E+00
0.00000000E+00  0.00000000E+00  0.00000000E+00
0.00000000E+00  0.00000000E+00  0.00000000E+00
0.00000000E+00  0.00000000E+00  0.00000000E+00
0.00000000E+00  0.00000000E+00  0.00000000E+00
0.00000000E+00  0.00000000E+00  0.00000000E+00
0.00000000E+00  0.00000000E+00  0.00000000E+00
