Ti3N2Br2  (n=2)
1.00000000000000
3.1887445135669328  -0.0000000000000001  0.0000000000000000
-1.5943722567834664  2.7615337551511407  0.0000000000000000
-0.0000000000000001  0.0000000000000001  33.2642024540094070
Ti  N  Br
3  2  2
Selective  dynamics
Direct
0.0000000000000000  0.0000000000000000  0.0567545271116985  T  T  T
0.6666666666666643  0.3333333333333357  0.1267419975950106  T  T  T
0.3333333333333357  0.6666666666666643  0.1916775809214250  T  T  T
0.3333333333333357  0.6666666666666643  0.0888138715082119  T  T  T
0.0000000000000000  0.0000000000000000  0.1620180675134928  T  T  T
0.3333333333333357  0.6666666666666643  0.0000000000000000  T  T  T
0.6666666666666643  0.3333333333333357  0.2484413226331029  T  T  T

0.00000000E+00  0.00000000E+00  0.00000000E+00
0.00000000E+00  0.00000000E+00  0.00000000E+00
0.00000000E+00  0.00000000E+00  0.00000000E+00
0.00000000E+00  0.00000000E+00  0.00000000E+00
0.00000000E+00  0.00000000E+00  0.00000000E+00
0.00000000E+00  0.00000000E+00  0.00000000E+00
0.00000000E+00  0.00000000E+00  0.00000000E+00
