Sc3N2Br2  (n=2)
1.00000000000000
3.3390576989792407  0.0000000000000000  -0.0000000000000001
-1.6695288494896201  2.8917087926414107  0.0000000000000000
-0.0000000000000004  0.0000000000000001  33.7678053299047747
Sc  N  Br
3  2  2
Selective  dynamics
Direct
0.0000000000000000  0.0000000000000000  0.0573380320092767  T  T  T
0.6666666666666643  0.3333333333333357  0.1301921229624355  T  T  T
0.3333333333333357  0.6666666666666643  0.2033096908796624  T  T  T
0.3333333333333357  0.6666666666666643  0.0924787833755154  T  T  T
0.0000000000000000  0.0000000000000000  0.1710481384054062  T  T  T
0.3333333333333357  0.6666666666666643  0.0000000000000000  T  T  T
0.6666666666666643  0.3333333333333357  0.2596498423348824  T  T  T

0.00000000E+00  0.00000000E+00  0.00000000E+00
0.00000000E+00  0.00000000E+00  0.00000000E+00
0.00000000E+00  0.00000000E+00  0.00000000E+00
0.00000000E+00  0.00000000E+00  0.00000000E+00
0.00000000E+00  0.00000000E+00  0.00000000E+00
0.00000000E+00  0.00000000E+00  0.00000000E+00
0.00000000E+00  0.00000000E+00  0.00000000E+00
