Zr3C2Br2  (n=2)
1.00000000000000
3.4344635744111942  0.0000000000000002  -0.0000000000000000
-1.7172317872055964  2.9743327050536719  0.0000000000000000
0.0000000000000000  0.0000000000000003  34.0853343077662885
Zr  C  Br
3  2  2
Selective  dynamics
Direct
0.0000000000000000  0.0000000000000000  0.0590773627883232  T  T  T
0.6666666666666643  0.3333333333333357  0.1336527588897828  T  T  T
0.3333333333333357  0.6666666666666643  0.2081056019268124  T  T  T
0.3333333333333357  0.6666666666666643  0.0937976401718869  T  T  T
-0.0000000000000000  -0.0000000000000000  0.1751767616699904  T  T  T
0.3333333333333357  0.6666666666666643  0.0000000000000000  T  T  T
0.6666666666666643  0.3333333333333357  0.2665467272737358  T  T  T

0.00000000E+00  0.00000000E+00  0.00000000E+00
0.00000000E+00  0.00000000E+00  0.00000000E+00
0.00000000E+00  0.00000000E+00  0.00000000E+00
0.00000000E+00  0.00000000E+00  0.00000000E+00
0.00000000E+00  0.00000000E+00  0.00000000E+00
0.00000000E+00  0.00000000E+00  0.00000000E+00
0.00000000E+00  0.00000000E+00  0.00000000E+00
