Ta3N2Br2  (n=2)
1.00000000000000
3.1858416265513911  -0.0000000000000003  0.0000000000000000
-1.5929208132756962  2.7590197815440884  0.0000000000000000
0.0000000000000003  -0.0000000000000001  33.9921574933982029
Ta  N  Br
3  2  2
Selective  dynamics
Direct
0.0000000000000000  -0.0000000000000000  0.0594962573955320  T  T  T
0.6666666666666643  0.3333333333333357  0.1330875302689270  T  T  T
0.3333333333333357  0.6666666666666643  0.2054864852843571  T  T  T
0.3333333333333357  0.6666666666666643  0.0956931383301484  T  T  T
0.0000000000000000  -0.0000000000000000  0.1684465923257451  T  T  T
0.3333333333333357  0.6666666666666643  0.0000000000000000  T  T  T
0.6666666666666643  0.3333333333333357  0.2645362388411097  T  T  T

0.00000000E+00  0.00000000E+00  0.00000000E+00
0.00000000E+00  0.00000000E+00  0.00000000E+00
0.00000000E+00  0.00000000E+00  0.00000000E+00
0.00000000E+00  0.00000000E+00  0.00000000E+00
0.00000000E+00  0.00000000E+00  0.00000000E+00
0.00000000E+00  0.00000000E+00  0.00000000E+00
0.00000000E+00  0.00000000E+00  0.00000000E+00
