Hf3N2Br2  (n=2)
1.00000000000000
3.2895175903766565  0.0000000000000003  0.0000000000000000
-1.6447587951883280  2.8488058001838215  0.0000000000000000
0.0000000000000000  0.0000000000000000  34.0200773114035684
Hf  N  Br
3  2  2
Selective  dynamics
Direct
-0.0000000000000000  -0.0000000000000000  0.0573629428811985  T  T  T
0.6666666666666643  0.3333333333333357  0.1334530795191068  T  T  T
0.3333333333333357  0.6666666666666643  0.2068335365726456  T  T  T
0.3333333333333357  0.6666666666666643  0.0954380408165964  T  T  T
-0.0000000000000000  0.0000000000000000  0.1701552079065672  T  T  T
0.3333333333333357  0.6666666666666643  0.0000000000000000  T  T  T
0.6666666666666643  0.3333333333333357  0.2651398240173908  T  T  T

0.00000000E+00  0.00000000E+00  0.00000000E+00
0.00000000E+00  0.00000000E+00  0.00000000E+00
0.00000000E+00  0.00000000E+00  0.00000000E+00
0.00000000E+00  0.00000000E+00  0.00000000E+00
0.00000000E+00  0.00000000E+00  0.00000000E+00
0.00000000E+00  0.00000000E+00  0.00000000E+00
0.00000000E+00  0.00000000E+00  0.00000000E+00
