Ta3C2Br2  (n=2)
1.00000000000000
3.2393840244890098  -0.0000000000000003  -0.0000000000000000
-1.6196920122445051  2.8053888584625932  0.0000000000000000
0.0000000000000001  -0.0000000000000002  33.9213681560209324
Ta  C  Br
3  2  2
Selective  dynamics
Direct
-0.0000000000000000  0.0000000000000000  0.0579051260114816  T  T  T
0.6666666666666643  0.3333333333333357  0.1332694721696230  T  T  T
0.3333333333333357  0.6666666666666643  0.2031516270025363  T  T  T
0.3333333333333357  0.6666666666666643  0.0929618616414714  T  T  T
0.0000000000000000  -0.0000000000000000  0.1700476338038069  T  T  T
0.3333333333333357  0.6666666666666643  0.0000000000000000  T  T  T
0.6666666666666643  0.3333333333333357  0.2630014247947549  T  T  T

0.00000000E+00  0.00000000E+00  0.00000000E+00
0.00000000E+00  0.00000000E+00  0.00000000E+00
0.00000000E+00  0.00000000E+00  0.00000000E+00
0.00000000E+00  0.00000000E+00  0.00000000E+00
0.00000000E+00  0.00000000E+00  0.00000000E+00
0.00000000E+00  0.00000000E+00  0.00000000E+00
0.00000000E+00  0.00000000E+00  0.00000000E+00
