Nb3C2  (n=2)
1.00000000000000
3.1583004705671458  0.0000000000000000  0.0000000000000000
-1.5791502352835729  2.7351684404103351  -0.0000000000000001
0.0000000000000001  0.0000000000000002  34.6163403176261113
Nb  C  N  H
3  2  2  2
Selective  dynamics
Direct
0.0000000000000000  -0.0000000000000000  0.0643235994061800  T  T  T
0.6666666666666643  0.3333333333333357  0.1388988585938071  T  T  T
0.3333333333333357  0.6666666666666643  0.2134741177814341  T  T  T
0.3333333333333357  0.6666666666666643  0.1007629228150474  T  T  T
0.0000000000000000  -0.0000000000000000  0.1770347943725589  T  T  T
0.6666666666666643  0.3333333333333357  0.0295766945892861  T  T  T
0.6666666666666643  0.3333333333333357  0.2482210225983360  T  T  T
0.6666666666666643  0.3333333333333357  0.0000000000000000  T  T  T
0.6666666666666643  0.3333333333333357  0.2777977171876144  T  T  T

0.00000000E+00  0.00000000E+00  0.00000000E+00
0.00000000E+00  0.00000000E+00  0.00000000E+00
0.00000000E+00  0.00000000E+00  0.00000000E+00
0.00000000E+00  0.00000000E+00  0.00000000E+00
0.00000000E+00  0.00000000E+00  0.00000000E+00
0.00000000E+00  0.00000000E+00  0.00000000E+00
0.00000000E+00  0.00000000E+00  0.00000000E+00
0.00000000E+00  0.00000000E+00  0.00000000E+00
0.00000000E+00  0.00000000E+00  0.00000000E+00
