Cr3N2  (n=2)
1.00000000000000
2.9179980174377556  0.0000000000000000  0.0000000000000000
-1.4589990087188778  2.5270604113021196  0.0000000000000000
0.0000000000000000  0.0000000000000000  34.0116042047096698
Cr  N  H
3  4  2
Selective  dynamics
Direct
-0.0000000000000000  0.0000000000000000  0.0594028135982266  T  T  T
0.6666666666666643  0.3333333333333357  0.1324783763575287  T  T  T
0.3333333333333357  0.6666666666666643  0.2055539391168464  T  T  T
0.3333333333333357  0.6666666666666643  0.0980622089277860  T  T  T
-0.0000000000000000  0.0000000000000000  0.1668945437872791  T  T  T
0.6666666666666643  0.3333333333333357  0.0301390712261976  T  T  T
0.6666666666666643  0.3333333333333357  0.2348176814888753  T  T  T
0.6666666666666643  0.3333333333333357  0.0000000000000000  T  T  T
0.6666666666666643  0.3333333333333357  0.2649567527150575  T  T  T

0.00000000E+00  0.00000000E+00  0.00000000E+00
0.00000000E+00  0.00000000E+00  0.00000000E+00
0.00000000E+00  0.00000000E+00  0.00000000E+00
0.00000000E+00  0.00000000E+00  0.00000000E+00
0.00000000E+00  0.00000000E+00  0.00000000E+00
0.00000000E+00  0.00000000E+00  0.00000000E+00
0.00000000E+00  0.00000000E+00  0.00000000E+00
0.00000000E+00  0.00000000E+00  0.00000000E+00
0.00000000E+00  0.00000000E+00  0.00000000E+00
