Sc3C2  (n=2)
1.00000000000000
3.3359706159295959  0.0000000000000000  0.0000000000000000
-1.6679853079647979  2.8890352998541680  0.0000000000000000
-0.0000000000000001  0.0000000000000004  34.4893452253829196
Sc  C  N  H
3  2  2  2
Selective  dynamics
Direct
-0.0000000000000000  -0.0000000000000000  0.0559900468276551  T  T  T
0.6666666666666643  0.3333333333333357  0.1375692284583957  T  T  T
0.3333333333333357  0.6666666666666643  0.2191484100891522  T  T  T
0.3333333333333357  0.6666666666666643  0.1022337251328910  T  T  T
-0.0000000000000000  -0.0000000000000000  0.1729047317839085  T  T  T
0.6666666666666643  0.3333333333333357  0.0299027305956415  T  T  T
0.6666666666666643  0.3333333333333357  0.2452357263211658  T  T  T
0.6666666666666643  0.3333333333333357  0.0000000000000000  T  T  T
0.6666666666666643  0.3333333333333357  0.2751384569168074  T  T  T

0.00000000E+00  0.00000000E+00  0.00000000E+00
0.00000000E+00  0.00000000E+00  0.00000000E+00
0.00000000E+00  0.00000000E+00  0.00000000E+00
0.00000000E+00  0.00000000E+00  0.00000000E+00
0.00000000E+00  0.00000000E+00  0.00000000E+00
0.00000000E+00  0.00000000E+00  0.00000000E+00
0.00000000E+00  0.00000000E+00  0.00000000E+00
0.00000000E+00  0.00000000E+00  0.00000000E+00
0.00000000E+00  0.00000000E+00  0.00000000E+00
