Sc3N2  (n=2)
1.00000000000000
3.2213446669659302  0.0000000000000000  0.0000000000000000
-1.6106723334829651  2.7897663160493487  0.0000000000000000
0.0000000000000000  0.0000000000000000  34.4932211525341827
Sc  N  H
3  4  2
Selective  dynamics
Direct
0.0000000000000000  0.0000000000000000  0.0592999465833904  T  T  T
0.6666666666666643  0.3333333333333357  0.1376099540044946  T  T  T
0.3333333333333357  0.6666666666666643  0.2159199614255908  T  T  T
0.3333333333333357  0.6666666666666643  0.1010219797071805  T  T  T
-0.0000000000000000  0.0000000000000000  0.1741979283018007  T  T  T
0.6666666666666643  0.3333333333333357  0.0297560580609382  T  T  T
0.6666666666666643  0.3333333333333357  0.2454638499480510  T  T  T
0.6666666666666643  0.3333333333333357  0.0000000000000000  T  T  T
0.6666666666666643  0.3333333333333357  0.2752199080089893  T  T  T

0.00000000E+00  0.00000000E+00  0.00000000E+00
0.00000000E+00  0.00000000E+00  0.00000000E+00
0.00000000E+00  0.00000000E+00  0.00000000E+00
0.00000000E+00  0.00000000E+00  0.00000000E+00
0.00000000E+00  0.00000000E+00  0.00000000E+00
0.00000000E+00  0.00000000E+00  0.00000000E+00
0.00000000E+00  0.00000000E+00  0.00000000E+00
0.00000000E+00  0.00000000E+00  0.00000000E+00
0.00000000E+00  0.00000000E+00  0.00000000E+00
