Hf3C2  (n=2)
1.00000000000000
3.2805937096068898  0.0000000000000000  0.0000000000000000
-1.6402968548034449  2.8410774921529081  0.0000000000000000
0.0000000000000000  -0.0000000000000010  34.6690097402532658
Hf  C  N  H
3  2  2  2
Selective  dynamics
Direct
-0.0000000000000000  -0.0000000000000000  0.0608166469026405  T  T  T
0.6666666666666643  0.3333333333333357  0.1394474461874601  T  T  T
0.3333333333333357  0.6666666666666643  0.2180782454722877  T  T  T
0.3333333333333357  0.6666666666666643  0.1004011807886469  T  T  T
-0.0000000000000000  -0.0000000000000000  0.1784937115862732  T  T  T
0.6666666666666643  0.3333333333333357  0.0295655299992757  T  T  T
0.6666666666666643  0.3333333333333357  0.2493293623756525  T  T  T
0.6666666666666643  0.3333333333333357  0.0000000000000000  T  T  T
0.6666666666666643  0.3333333333333357  0.2788948923749281  T  T  T

0.00000000E+00  0.00000000E+00  0.00000000E+00
0.00000000E+00  0.00000000E+00  0.00000000E+00
0.00000000E+00  0.00000000E+00  0.00000000E+00
0.00000000E+00  0.00000000E+00  0.00000000E+00
0.00000000E+00  0.00000000E+00  0.00000000E+00
0.00000000E+00  0.00000000E+00  0.00000000E+00
0.00000000E+00  0.00000000E+00  0.00000000E+00
0.00000000E+00  0.00000000E+00  0.00000000E+00
0.00000000E+00  0.00000000E+00  0.00000000E+00
