Cr3C2  (n=2)
1.00000000000000
2.8880558812130914  0.0000000000000000  0.0000000000000000
-1.4440279406065457  2.5011297606916703  -0.0000000000000001
-0.0000000000000001  -0.0000000000000008  33.9373298029166079
Cr  C  N  H
3  2  2  2
Selective  dynamics
Direct
0.0000000000000000  0.0000000000000000  0.0616327842075174  T  T  T
0.6666666666666643  0.3333333333333357  0.1316740276093888  T  T  T
0.3333333333333357  0.6666666666666643  0.2017152710112678  T  T  T
0.3333333333333357  0.6666666666666643  0.0973472490475887  T  T  T
0.0000000000000000  0.0000000000000000  0.1660008061711889  T  T  T
0.6666666666666643  0.3333333333333357  0.0301917659308460  T  T  T
0.6666666666666643  0.3333333333333357  0.2331562892879393  T  T  T
0.6666666666666643  0.3333333333333357  0.0000000000000000  T  T  T
0.6666666666666643  0.3333333333333357  0.2633480552187853  T  T  T

0.00000000E+00  0.00000000E+00  0.00000000E+00
0.00000000E+00  0.00000000E+00  0.00000000E+00
0.00000000E+00  0.00000000E+00  0.00000000E+00
0.00000000E+00  0.00000000E+00  0.00000000E+00
0.00000000E+00  0.00000000E+00  0.00000000E+00
0.00000000E+00  0.00000000E+00  0.00000000E+00
0.00000000E+00  0.00000000E+00  0.00000000E+00
0.00000000E+00  0.00000000E+00  0.00000000E+00
0.00000000E+00  0.00000000E+00  0.00000000E+00
