Mo3C2  (n=2)
1.00000000000000
3.0452577418670010  0.0000000000000000  0.0000000000000000
-1.5226288709335005  2.6372705655801143  0.0000000000000000
0.0000000000000000  0.0000000000000003  34.5439532109660377
Mo  C  N  H
3  2  2  2
Selective  dynamics
Direct
0.0000000000000000  0.0000000000000000  0.0648464736143417  T  T  T
0.6666666666666643  0.3333333333333357  0.1381421685103449  T  T  T
0.3333333333333357  0.6666666666666643  0.2114378634063642  T  T  T
0.3333333333333357  0.6666666666666643  0.1015077760156303  T  T  T
0.0000000000000000  0.0000000000000000  0.1747765610050596  T  T  T
0.6666666666666643  0.3333333333333357  0.0296847558825544  T  T  T
0.6666666666666643  0.3333333333333357  0.2465995811381515  T  T  T
0.6666666666666643  0.3333333333333357  0.0000000000000000  T  T  T
0.6666666666666643  0.3333333333333357  0.2762843370207058  T  T  T

0.00000000E+00  0.00000000E+00  0.00000000E+00
0.00000000E+00  0.00000000E+00  0.00000000E+00
0.00000000E+00  0.00000000E+00  0.00000000E+00
0.00000000E+00  0.00000000E+00  0.00000000E+00
0.00000000E+00  0.00000000E+00  0.00000000E+00
0.00000000E+00  0.00000000E+00  0.00000000E+00
0.00000000E+00  0.00000000E+00  0.00000000E+00
0.00000000E+00  0.00000000E+00  0.00000000E+00
0.00000000E+00  0.00000000E+00  0.00000000E+00
