Ti3C2  (n=2)
1.00000000000000
3.0549253371525396  0.0000000000000000  0.0000000000000000
-1.5274626685762698  2.6456429486991242  0.0000000000000000
0.0000000000000001  0.0000000000000002  34.2564836128121399
Ti  C  N  H
3  2  2  2
Selective  dynamics
Direct
0.0000000000000000  0.0000000000000000  0.0608685392296756  T  T  T
0.6666666666666643  0.3333333333333357  0.1351055718011605  T  T  T
0.3333333333333357  0.6666666666666643  0.2093426043726532  T  T  T
0.3333333333333357  0.6666666666666643  0.0983923785736256  T  T  T
0.0000000000000000  0.0000000000000000  0.1718187650286873  T  T  T
0.6666666666666643  0.3333333333333357  0.0298917594107887  T  T  T
0.6666666666666643  0.3333333333333357  0.2403193841915402  T  T  T
0.6666666666666643  0.3333333333333357  0.0000000000000000  T  T  T
0.6666666666666643  0.3333333333333357  0.2702111436023211  T  T  T

0.00000000E+00  0.00000000E+00  0.00000000E+00
0.00000000E+00  0.00000000E+00  0.00000000E+00
0.00000000E+00  0.00000000E+00  0.00000000E+00
0.00000000E+00  0.00000000E+00  0.00000000E+00
0.00000000E+00  0.00000000E+00  0.00000000E+00
0.00000000E+00  0.00000000E+00  0.00000000E+00
0.00000000E+00  0.00000000E+00  0.00000000E+00
0.00000000E+00  0.00000000E+00  0.00000000E+00
0.00000000E+00  0.00000000E+00  0.00000000E+00
