Ti3N2  (n=2)
1.00000000000000
3.0072469641794530  0.0000000000000000  0.0000000000000000
-1.5036234820897265  2.6043522664621683  0.0000000000000000
-0.0000000000000001  -0.0000000000000006  34.1402448164483303
Ti  N  H
3  4  2
Selective  dynamics
Direct
0.0000000000000000  0.0000000000000000  0.0618813904723734  T  T  T
0.6666666666666643  0.3333333333333357  0.1338631996576134  T  T  T
0.3333333333333357  0.6666666666666643  0.2058450088428534  T  T  T
0.3333333333333357  0.6666666666666643  0.0974931779861716  T  T  T
-0.0000000000000000  -0.0000000000000000  0.1702332213290553  T  T  T
0.6666666666666643  0.3333333333333357  0.0299522569271651  T  T  T
0.6666666666666643  0.3333333333333357  0.2377741423880700  T  T  T
0.6666666666666643  0.3333333333333357  0.0000000000000000  T  T  T
0.6666666666666643  0.3333333333333357  0.2677263993152350  T  T  T

0.00000000E+00  0.00000000E+00  0.00000000E+00
0.00000000E+00  0.00000000E+00  0.00000000E+00
0.00000000E+00  0.00000000E+00  0.00000000E+00
0.00000000E+00  0.00000000E+00  0.00000000E+00
0.00000000E+00  0.00000000E+00  0.00000000E+00
0.00000000E+00  0.00000000E+00  0.00000000E+00
0.00000000E+00  0.00000000E+00  0.00000000E+00
0.00000000E+00  0.00000000E+00  0.00000000E+00
0.00000000E+00  0.00000000E+00  0.00000000E+00
