Zr3C2  (n=2)
1.00000000000000
3.3391055068334419  0.0000000000000000  0.0000000000000000
-1.6695527534167209  2.8917501949959008  0.0000000000000000
-0.0000000000000001  -0.0000000000000012  34.7816694014435797
Zr  C  N  H
3  2  2  2
Selective  dynamics
Direct
0.0000000000000000  0.0000000000000000  0.0610271565092573  T  T  T
0.6666666666666643  0.3333333333333357  0.1406152949207971  T  T  T
0.3333333333333357  0.6666666666666643  0.2202034333323449  T  T  T
0.3333333333333357  0.6666666666666643  0.1011578621711496  T  T  T
0.0000000000000000  0.0000000000000000  0.1800727276704526  T  T  T
0.6666666666666643  0.3333333333333357  0.0295096930543455  T  T  T
0.6666666666666643  0.3333333333333357  0.2517208967872567  T  T  T
0.6666666666666643  0.3333333333333357  0.0000000000000000  T  T  T
0.6666666666666643  0.3333333333333357  0.2812305898416020  T  T  T

0.00000000E+00  0.00000000E+00  0.00000000E+00
0.00000000E+00  0.00000000E+00  0.00000000E+00
0.00000000E+00  0.00000000E+00  0.00000000E+00
0.00000000E+00  0.00000000E+00  0.00000000E+00
0.00000000E+00  0.00000000E+00  0.00000000E+00
0.00000000E+00  0.00000000E+00  0.00000000E+00
0.00000000E+00  0.00000000E+00  0.00000000E+00
0.00000000E+00  0.00000000E+00  0.00000000E+00
0.00000000E+00  0.00000000E+00  0.00000000E+00
