Ta3C2  (n=2)
1.00000000000000
3.1387573695913988  0.0000000000000000  0.0000000000000000
-1.5693786847956994  2.7182436184699830  0.0000000000000000
0.0000000000000000  0.0000000000000001  34.5592927078656089
Ta  C  N  H
3  2  2  2
Selective  dynamics
Direct
-0.0000000000000000  0.0000000000000000  0.0640914877699123  T  T  T
0.6666666666666643  0.3333333333333357  0.1383027828241684  T  T  T
0.3333333333333357  0.6666666666666643  0.2125140778784244  T  T  T
0.3333333333333357  0.6666666666666643  0.1002516032881841  T  T  T
0.0000000000000000  0.0000000000000000  0.1763539623601445  T  T  T
0.6666666666666643  0.3333333333333357  0.0296284457756721  T  T  T
0.6666666666666643  0.3333333333333357  0.2469771198726647  T  T  T
0.6666666666666643  0.3333333333333357  0.0000000000000000  T  T  T
0.6666666666666643  0.3333333333333357  0.2766055656483367  T  T  T

0.00000000E+00  0.00000000E+00  0.00000000E+00
0.00000000E+00  0.00000000E+00  0.00000000E+00
0.00000000E+00  0.00000000E+00  0.00000000E+00
0.00000000E+00  0.00000000E+00  0.00000000E+00
0.00000000E+00  0.00000000E+00  0.00000000E+00
0.00000000E+00  0.00000000E+00  0.00000000E+00
0.00000000E+00  0.00000000E+00  0.00000000E+00
0.00000000E+00  0.00000000E+00  0.00000000E+00
0.00000000E+00  0.00000000E+00  0.00000000E+00
