Ta3N2  (n=2)
1.00000000000000
3.1220313097556907  0.0000000000000000  0.0000000000000000
-1.5610156548778453  2.7037584257275578  0.0000000000000000
0.0000000000000000  0.0000000000000000  34.4044091149952820
Ta  N  H
3  4  2
Selective  dynamics
Direct
0.0000000000000000  0.0000000000000000  0.0638790290471720  T  T  T
0.6666666666666643  0.3333333333333357  0.1366744751168545  T  T  T
0.3333333333333357  0.6666666666666643  0.2094699211865452  T  T  T
0.3333333333333357  0.6666666666666643  0.1002027524602451  T  T  T
0.0000000000000000  0.0000000000000000  0.1731461977734638  T  T  T
0.6666666666666643  0.3333333333333357  0.0297691986099318  T  T  T
0.6666666666666643  0.3333333333333357  0.2435797516237855  T  T  T
0.6666666666666643  0.3333333333333357  0.0000000000000000  T  T  T
0.6666666666666643  0.3333333333333357  0.2733489502337170  T  T  T

0.00000000E+00  0.00000000E+00  0.00000000E+00
0.00000000E+00  0.00000000E+00  0.00000000E+00
0.00000000E+00  0.00000000E+00  0.00000000E+00
0.00000000E+00  0.00000000E+00  0.00000000E+00
0.00000000E+00  0.00000000E+00  0.00000000E+00
0.00000000E+00  0.00000000E+00  0.00000000E+00
0.00000000E+00  0.00000000E+00  0.00000000E+00
0.00000000E+00  0.00000000E+00  0.00000000E+00
0.00000000E+00  0.00000000E+00  0.00000000E+00
