Mo3N2  (n=2)
1.00000000000000
2.8578541184252702  0.0000000000000000  0.0000000000000000
-1.4289270592126351  2.4749742669081241  0.0000000000000000
0.0000000000000000  0.0000000000000007  35.4192044568620901
Mo  N  H
3  4  2
Selective  dynamics
Direct
-0.0000000000000000  -0.0000000000000000  0.0645043131373137  T  T  T
0.6666666666666643  0.3333333333333357  0.1470867930836332  T  T  T
0.3333333333333357  0.6666666666666643  0.2296766519104516  T  T  T
0.3333333333333357  0.6666666666666643  0.1075358471836523  T  T  T
-0.0000000000000000  -0.0000000000000000  0.1866284774560668  T  T  T
0.6666666666666643  0.3333333333333357  0.0289649598302710  T  T  T
0.6666666666666643  0.3333333333333357  0.2652078119607640  T  T  T
0.6666666666666643  0.3333333333333357  0.0000000000000000  T  T  T
0.6666666666666643  0.3333333333333357  0.2941682236130372  T  T  T

0.00000000E+00  0.00000000E+00  0.00000000E+00
0.00000000E+00  0.00000000E+00  0.00000000E+00
0.00000000E+00  0.00000000E+00  0.00000000E+00
0.00000000E+00  0.00000000E+00  0.00000000E+00
0.00000000E+00  0.00000000E+00  0.00000000E+00
0.00000000E+00  0.00000000E+00  0.00000000E+00
0.00000000E+00  0.00000000E+00  0.00000000E+00
0.00000000E+00  0.00000000E+00  0.00000000E+00
0.00000000E+00  0.00000000E+00  0.00000000E+00
