Zr3N2  (n=2)
1.00000000000000
3.2850738683409402  0.0000000000000000  0.0000000000000000
-1.6425369341704701  2.8449574234338386  0.0000000000000000
0.0000000000000000  0.0000000000000000  34.6292124824424832
Zr  N  H
3  4  2
Selective  dynamics
Direct
-0.0000000000000000  0.0000000000000000  0.0622269408300447  T  T  T
0.6666666666666643  0.3333333333333357  0.1390330849614952  T  T  T
0.3333333333333357  0.6666666666666643  0.2158392290929540  T  T  T
0.3333333333333357  0.6666666666666643  0.0996960948054718  T  T  T
0.0000000000000000  -0.0000000000000000  0.1783700751175270  T  T  T
0.6666666666666643  0.3333333333333357  0.0295785694732887  T  T  T
0.6666666666666643  0.3333333333333357  0.2484876004497101  T  T  T
0.6666666666666643  0.3333333333333357  0.0000000000000000  T  T  T
0.6666666666666643  0.3333333333333357  0.2780661699229988  T  T  T

0.00000000E+00  0.00000000E+00  0.00000000E+00
0.00000000E+00  0.00000000E+00  0.00000000E+00
0.00000000E+00  0.00000000E+00  0.00000000E+00
0.00000000E+00  0.00000000E+00  0.00000000E+00
0.00000000E+00  0.00000000E+00  0.00000000E+00
0.00000000E+00  0.00000000E+00  0.00000000E+00
0.00000000E+00  0.00000000E+00  0.00000000E+00
0.00000000E+00  0.00000000E+00  0.00000000E+00
0.00000000E+00  0.00000000E+00  0.00000000E+00
