Nb3N2  (n=2)
1.00000000000000
3.1340848576545195  0.0000000000000000  0.0000000000000000
-1.5670424288272597  2.7141971044238540  0.0000000000000000
0.0000000000000000  0.0000000000000001  34.4967847327426327
Nb  N  H
3  4  2
Selective  dynamics
Direct
-0.0000000000000000  -0.0000000000000000  0.0642335511204587  T  T  T
0.6666666666666643  0.3333333333333357  0.1376473895511844  T  T  T
0.3333333333333357  0.6666666666666643  0.2110612279819183  T  T  T
0.3333333333333357  0.6666666666666643  0.1007725234357745  T  T  T
-0.0000000000000000  0.0000000000000000  0.1745222556665943  T  T  T
0.6666666666666643  0.3333333333333357  0.0296728444020960  T  T  T
0.6666666666666643  0.3333333333333357  0.2456219347002729  T  T  T
0.6666666666666643  0.3333333333333357  0.0000000000000000  T  T  T
0.6666666666666643  0.3333333333333357  0.2752947791023769  T  T  T

0.00000000E+00  0.00000000E+00  0.00000000E+00
0.00000000E+00  0.00000000E+00  0.00000000E+00
0.00000000E+00  0.00000000E+00  0.00000000E+00
0.00000000E+00  0.00000000E+00  0.00000000E+00
0.00000000E+00  0.00000000E+00  0.00000000E+00
0.00000000E+00  0.00000000E+00  0.00000000E+00
0.00000000E+00  0.00000000E+00  0.00000000E+00
0.00000000E+00  0.00000000E+00  0.00000000E+00
0.00000000E+00  0.00000000E+00  0.00000000E+00
