Hf3N2  (n=2)
1.00000000000000
3.2296616922833556  0.0000000000000000  0.0000000000000000
-1.6148308461416778  2.7969690712670143  0.0000000000000000
0.0000000000000000  0.0000000000000000  34.5049764100498422
Hf  N  H
3  4  2
Selective  dynamics
Direct
-0.0000000000000000  0.0000000000000000  0.0618774306441791  T  T  T
0.6666666666666643  0.3333333333333357  0.1377334141182150  T  T  T
0.3333333333333357  0.6666666666666643  0.2135893975922593  T  T  T
0.3333333333333357  0.6666666666666643  0.0991893539185163  T  T  T
-0.0000000000000000  0.0000000000000000  0.1762774743179222  T  T  T
0.6666666666666643  0.3333333333333357  0.0296715002569944  T  T  T
0.6666666666666643  0.3333333333333357  0.2457953279794524  T  T  T
0.6666666666666643  0.3333333333333357  0.0000000000000000  T  T  T
0.6666666666666643  0.3333333333333357  0.2754668282364467  T  T  T

0.00000000E+00  0.00000000E+00  0.00000000E+00
0.00000000E+00  0.00000000E+00  0.00000000E+00
0.00000000E+00  0.00000000E+00  0.00000000E+00
0.00000000E+00  0.00000000E+00  0.00000000E+00
0.00000000E+00  0.00000000E+00  0.00000000E+00
0.00000000E+00  0.00000000E+00  0.00000000E+00
0.00000000E+00  0.00000000E+00  0.00000000E+00
0.00000000E+00  0.00000000E+00  0.00000000E+00
0.00000000E+00  0.00000000E+00  0.00000000E+00
