Ta2N  (n=1)
1.00000000000000
2.9223812321236711  -0.0000000000000001  0.0000000000000000
-1.4611906160618353  2.5308563866447145  0.0000000000000000
-0.0000000000000003  0.0000000000000000  32.7008112359658227
Ta  N  O  H
2  1  2  2
Selective  dynamics
Direct
-0.0000000000000000  0.0000000000000000  0.0728586262783918  T  T  T
0.6666666666666643  0.3333333333333357  0.1609228986957879  T  T  T
0.3333333333333357  0.6666666666666643  0.1142669720065411  T  T  T
0.3333333333333357  0.6666666666666643  0.0303136588124378  T  T  T
0.0000000000000000  0.0000000000000000  0.2053037056987136  T  T  T
0.3333333333333357  0.6666666666666643  0.0000000000000000  T  T  T
0.0000000000000000  0.0000000000000000  0.2354929723424147  T  T  T

0.00000000E+00  0.00000000E+00  0.00000000E+00
0.00000000E+00  0.00000000E+00  0.00000000E+00
0.00000000E+00  0.00000000E+00  0.00000000E+00
0.00000000E+00  0.00000000E+00  0.00000000E+00
0.00000000E+00  0.00000000E+00  0.00000000E+00
0.00000000E+00  0.00000000E+00  0.00000000E+00
0.00000000E+00  0.00000000E+00  0.00000000E+00
