Zr2C  (n=1)
1.00000000000000
3.2801012818038662  -0.0000000000000007  0.0000000000000003
-1.6400506409019333  2.8406510371600850  -0.0000000000000001
0.0000000000000015  -0.0000000000000013  32.2772948109439568
Zr  C  O  H
2  1  2  2
Selective  dynamics
Direct
0.0000000000000000  0.0000000000000000  0.0735338410848170  T  T  T
0.6666666666666643  0.3333333333333357  0.1523477547376591  T  T  T
0.3333333333333357  0.6666666666666643  0.1147559348771623  T  T  T
0.3333333333333357  0.6666666666666643  0.0301919233296838  T  T  T
0.0000000000000000  0.0000000000000000  0.1952874976621087  T  T  T
0.3333333333333357  0.6666666666666643  0.0000000000000000  T  T  T
-0.0000000000000000  -0.0000000000000000  0.2254617325760682  T  T  T

0.00000000E+00  0.00000000E+00  0.00000000E+00
0.00000000E+00  0.00000000E+00  0.00000000E+00
0.00000000E+00  0.00000000E+00  0.00000000E+00
0.00000000E+00  0.00000000E+00  0.00000000E+00
0.00000000E+00  0.00000000E+00  0.00000000E+00
0.00000000E+00  0.00000000E+00  0.00000000E+00
0.00000000E+00  0.00000000E+00  0.00000000E+00
