Sc2N
1.00000000000000
3.1663015370434531  0.0000000000000000  0.0000000000000003
-1.5831507685217272  2.7420975671639618  0.0000000000000000
0.0000000000000010  -0.0000000000000001  32.0233537994172082
Sc  N  O  H
2  1  2  2
Selective  dynamics
Direct
-0.0000000000000000  -0.0000000000000000  0.0710279572109301  T  T  T
0.6666666666666643  0.3333333333333357  0.1493746904915902  T  T  T
0.3333333333333357  0.6666666666666643  0.1120244216326483  T  T  T
0.3333333333333357  0.6666666666666643  0.0303692799462179  T  T  T
-0.0000000000000000  -0.0000000000000000  0.1889961021735022  T  T  T
0.3333333333333357  0.6666666666666643  0.0000000000000000  T  T  T
-0.0000000000000000  0.0000000000000000  0.2193197453149029  T  T  T

0.00000000E+00  0.00000000E+00  0.00000000E+00
0.00000000E+00  0.00000000E+00  0.00000000E+00
0.00000000E+00  0.00000000E+00  0.00000000E+00
0.00000000E+00  0.00000000E+00  0.00000000E+00
0.00000000E+00  0.00000000E+00  0.00000000E+00
0.00000000E+00  0.00000000E+00  0.00000000E+00
0.00000000E+00  0.00000000E+00  0.00000000E+00
