Ti2C  (n=1)
1.00000000000000
3.0165844261980532  0.0000000000000000  0.0000000000000000
-1.5082922130990266  2.6124387458195728  0.0000000000000000
0.0000000000000000  -0.0000000000000004  31.8992790091230631
Ti  C  O  H
2  1  2  2
Selective  dynamics
Direct
0.0000000000000000  0.0000000000000000  0.0715595748011000  T  T  T
0.6666666666666643  0.3333333333333357  0.1455366558290348  T  T  T
0.3333333333333357  0.6666666666666643  0.1099896470753857  T  T  T
0.3333333333333357  0.6666666666666643  0.0306012305126820  T  T  T
-0.0000000000000000  0.0000000000000000  0.1857184942311992  T  T  T
0.3333333333333357  0.6666666666666643  0.0000000000000000  T  T  T
0.0000000000000000  0.0000000000000000  0.2162832271898652  T  T  T

0.00000000E+00  0.00000000E+00  0.00000000E+00
0.00000000E+00  0.00000000E+00  0.00000000E+00
0.00000000E+00  0.00000000E+00  0.00000000E+00
0.00000000E+00  0.00000000E+00  0.00000000E+00
0.00000000E+00  0.00000000E+00  0.00000000E+00
0.00000000E+00  0.00000000E+00  0.00000000E+00
0.00000000E+00  0.00000000E+00  0.00000000E+00
