Hf2N  (n=1)
1.00000000000000
3.1195827530167390  -0.0000000000000004  0.0000000000000000
-1.5597913765083691  2.7016379133890696  0.0000000000000000
0.0000000000000000  -0.0000000000000001  32.3383363405578805
Hf  N  O  H
2  1  2  2
Selective  dynamics
Direct
0.0000000000000000  -0.0000000000000000  0.0733373300396210  T  T  T
0.6666666666666643  0.3333333333333357  0.1539654898684948  T  T  T
0.3333333333333357  0.6666666666666643  0.1132090356998739  T  T  T
0.3333333333333357  0.6666666666666643  0.0304580430989686  T  T  T
-0.0000000000000000  -0.0000000000000000  0.1962390190985305  T  T  T
0.3333333333333357  0.6666666666666643  0.0000000000000000  T  T  T
-0.0000000000000000  -0.0000000000000000  0.2269237434875194  T  T  T

0.00000000E+00  0.00000000E+00  0.00000000E+00
0.00000000E+00  0.00000000E+00  0.00000000E+00
0.00000000E+00  0.00000000E+00  0.00000000E+00
0.00000000E+00  0.00000000E+00  0.00000000E+00
0.00000000E+00  0.00000000E+00  0.00000000E+00
0.00000000E+00  0.00000000E+00  0.00000000E+00
0.00000000E+00  0.00000000E+00  0.00000000E+00
