Mo2C  (n=1)
1.00000000000000
2.9546681977930165  -0.0000000000000001  0.0000000000000000
-1.4773340988965082  2.5588177191560435  0.0000000000000000
-0.0000000000000001  0.0000000000000001  32.4356655610671822
Mo  C  O  H
2  1  2  2
Selective  dynamics
Direct
0.0000000000000000  0.0000000000000000  0.0745647280014256  T  T  T
0.6666666666666643  0.3333333333333357  0.1527728280747683  T  T  T
0.3333333333333357  0.6666666666666643  0.1128546106727286  T  T  T
0.3333333333333357  0.6666666666666643  0.0303323817562836  T  T  T
-0.0000000000000000  -0.0000000000000000  0.1989831939414529  T  T  T
0.3333333333333357  0.6666666666666643  0.0000000000000000  T  T  T
-0.0000000000000000  -0.0000000000000000  0.2292435019428821  T  T  T

0.00000000E+00  0.00000000E+00  0.00000000E+00
0.00000000E+00  0.00000000E+00  0.00000000E+00
0.00000000E+00  0.00000000E+00  0.00000000E+00
0.00000000E+00  0.00000000E+00  0.00000000E+00
0.00000000E+00  0.00000000E+00  0.00000000E+00
0.00000000E+00  0.00000000E+00  0.00000000E+00
0.00000000E+00  0.00000000E+00  0.00000000E+00
