Nb2N  (n=1)
1.00000000000000
2.9587021208114517  0.0000000000000000  0.0000000000000000
-1.4793510604057258  2.5623111989088687  0.0000000000000000
0.0000000000000000  0.0000000000000003  32.6304820729643552
Nb  N  O  H
2  1  2  2
Selective  dynamics
Direct
0.0000000000000000  0.0000000000000000  0.0728226792634026  T  T  T
0.6666666666666643  0.3333333333333357  0.1596777708754530  T  T  T
0.3333333333333357  0.6666666666666643  0.1140516978079355  T  T  T
0.3333333333333357  0.6666666666666643  0.0301243467188917  T  T  T
0.0000000000000000  0.0000000000000000  0.2038107070102571  T  T  T
0.3333333333333357  0.6666666666666643  0.0000000000000000  T  T  T
0.0000000000000000  0.0000000000000000  0.2338452142969262  T  T  T

0.00000000E+00  0.00000000E+00  0.00000000E+00
0.00000000E+00  0.00000000E+00  0.00000000E+00
0.00000000E+00  0.00000000E+00  0.00000000E+00
0.00000000E+00  0.00000000E+00  0.00000000E+00
0.00000000E+00  0.00000000E+00  0.00000000E+00
0.00000000E+00  0.00000000E+00  0.00000000E+00
0.00000000E+00  0.00000000E+00  0.00000000E+00
