Zr2N  (n=1)
1.00000000000000
3.1879033849189704  0.0000000000000006  -0.0000000000000001
-1.5939516924594852  2.7608053162191988  0.0000000000000002
-0.0000000000000004  0.0000000000000009  32.3804995834341298
Zr  N  O  H
2  1  2  2
Selective  dynamics
Direct
-0.0000000000000000  -0.0000000000000000  0.0738929354278337  T  T  T
0.6666666666666643  0.3333333333333357  0.1545387512103446  T  T  T
0.3333333333333357  0.6666666666666643  0.1132855067913187  T  T  T
0.3333333333333357  0.6666666666666643  0.0302621610651004  T  T  T
-0.0000000000000000  -0.0000000000000000  0.1975941083104412  T  T  T
0.3333333333333357  0.6666666666666643  0.0000000000000000  T  T  T
-0.0000000000000000  -0.0000000000000000  0.2279303802715261  T  T  T

0.00000000E+00  0.00000000E+00  0.00000000E+00
0.00000000E+00  0.00000000E+00  0.00000000E+00
0.00000000E+00  0.00000000E+00  0.00000000E+00
0.00000000E+00  0.00000000E+00  0.00000000E+00
0.00000000E+00  0.00000000E+00  0.00000000E+00
0.00000000E+00  0.00000000E+00  0.00000000E+00
0.00000000E+00  0.00000000E+00  0.00000000E+00
