Ti2N  (n=1)
1.00000000000000
2.9574118629786601  0.0000000000000001  0.0000000000000000
-1.4787059314893303  2.5611938028468746  0.0000000000000000
-0.0000000000000001  -0.0000000000000001  31.9254673023693201
Ti  N  O  H
2  1  2  2
Selective  dynamics
Direct
0.0000000000000000  -0.0000000000000000  0.0717276243880389  T  T  T
0.6666666666666643  0.3333333333333357  0.1464075776497178  T  T  T
0.3333333333333357  0.6666666666666643  0.1091693554225675  T  T  T
0.3333333333333357  0.6666666666666643  0.0306510345987728  T  T  T
0.0000000000000000  0.0000000000000000  0.1861576164393619  T  T  T
0.3333333333333357  0.6666666666666643  0.0000000000000000  T  T  T
0.0000000000000000  0.0000000000000000  0.2169261059447469  T  T  T

0.00000000E+00  0.00000000E+00  0.00000000E+00
0.00000000E+00  0.00000000E+00  0.00000000E+00
0.00000000E+00  0.00000000E+00  0.00000000E+00
0.00000000E+00  0.00000000E+00  0.00000000E+00
0.00000000E+00  0.00000000E+00  0.00000000E+00
0.00000000E+00  0.00000000E+00  0.00000000E+00
0.00000000E+00  0.00000000E+00  0.00000000E+00
