Mo2N  (n=1)
1.00000000000000
2.8195091916166706  -0.0000000000000001  0.0000000000000002
-1.4097545958083353  2.4417665862746052  -0.0000000000000004
0.0000000000000018  -0.0000000000000055  32.8482008384205457
Mo  N  O  H
2  1  2  2
Selective  dynamics
Direct
-0.0000000000000000  -0.0000000000000000  0.0760973170621449  T  T  T
0.6666666666666643  0.3333333333333357  0.1653564946706176  T  T  T
0.3333333333333357  0.6666666666666643  0.1186520544526199  T  T  T
0.3333333333333357  0.6666666666666643  0.0303165216428424  T  T  T
-0.0000000000000000  -0.0000000000000000  0.2089955918768323  T  T  T
0.3333333333333357  0.6666666666666643  0.0000000000000000  T  T  T
0.0000000000000000  0.0000000000000000  0.2389233089819940  T  T  T

0.00000000E+00  0.00000000E+00  0.00000000E+00
0.00000000E+00  0.00000000E+00  0.00000000E+00
0.00000000E+00  0.00000000E+00  0.00000000E+00
0.00000000E+00  0.00000000E+00  0.00000000E+00
0.00000000E+00  0.00000000E+00  0.00000000E+00
0.00000000E+00  0.00000000E+00  0.00000000E+00
0.00000000E+00  0.00000000E+00  0.00000000E+00
