Ta2C  (n=1)
1.00000000000000
3.0884966056012759  0.0000000000000000  0.0000000000000004
-1.5442483028006380  2.6747165200842500  -0.0000000000000011
0.0000000000000036  -0.0000000000000076  32.2675548797624216
Ta  C  O  H
2  1  2  2
Selective  dynamics
Direct
-0.0000000000000000  -0.0000000000000000  0.0763370704593065  T  T  T
0.6666666666666643  0.3333333333333357  0.1521696383440435  T  T  T
0.3333333333333357  0.6666666666666643  0.1123092768665966  T  T  T
0.3333333333333357  0.6666666666666643  0.0304772352893133  T  T  T
-0.0000000000000000  -0.0000000000000000  0.1947370149371692  T  T  T
0.3333333333333357  0.6666666666666643  0.0000000000000000  T  T  T
0.0000000000000000  0.0000000000000000  0.2252279389263699  T  T  T

0.00000000E+00  0.00000000E+00  0.00000000E+00
0.00000000E+00  0.00000000E+00  0.00000000E+00
0.00000000E+00  0.00000000E+00  0.00000000E+00
0.00000000E+00  0.00000000E+00  0.00000000E+00
0.00000000E+00  0.00000000E+00  0.00000000E+00
0.00000000E+00  0.00000000E+00  0.00000000E+00
0.00000000E+00  0.00000000E+00  0.00000000E+00
