Sc2C  (n=1)
1.00000000000000
3.2483598092455073  0.0000000000000000  0.0000000000000000
-1.6241799046227536  2.8131621155282769  0.0000000000000001
-0.0000000000000001  -0.0000000000000002  32.0942479056035168
Sc  C  O  H
2  1  2  2
Selective  dynamics
Direct
-0.0000000000000000  -0.0000000000000000  0.0714885838165294  T  T  T
0.6666666666666643  0.3333333333333357  0.1516438853500854  T  T  T
0.3333333333333357  0.6666666666666643  0.1124102345039322  T  T  T
0.3333333333333357  0.6666666666666643  0.0303562083346929  T  T  T
0.0000000000000000  0.0000000000000000  0.1908303997649998  T  T  T
0.3333333333333357  0.6666666666666643  0.0000000000000000  T  T  T
-0.0000000000000000  -0.0000000000000000  0.2210442172213947  T  T  T

0.00000000E+00  0.00000000E+00  0.00000000E+00
0.00000000E+00  0.00000000E+00  0.00000000E+00
0.00000000E+00  0.00000000E+00  0.00000000E+00
0.00000000E+00  0.00000000E+00  0.00000000E+00
0.00000000E+00  0.00000000E+00  0.00000000E+00
0.00000000E+00  0.00000000E+00  0.00000000E+00
0.00000000E+00  0.00000000E+00  0.00000000E+00
