Nb2C  (n=1)
1.00000000000000
3.1124896490108602  -0.0000000000000001  0.0000000000000000
-1.5562448245054301  2.6954951051780305  0.0000000000000000
-0.0000000000000001  -0.0000000000000003  32.2709296213766734
Nb  C  O  H
2  1  2  2
Selective  dynamics
Direct
0.0000000000000000  0.0000000000000000  0.0760080727860632  T  T  T
0.6666666666666643  0.3333333333333357  0.1522178256000691  T  T  T
0.3333333333333357  0.6666666666666643  0.1120626897556666  T  T  T
0.3333333333333357  0.6666666666666643  0.0303355025413710  T  T  T
-0.0000000000000000  -0.0000000000000000  0.1949403618028074  T  T  T
0.3333333333333357  0.6666666666666643  0.0000000000000000  T  T  T
-0.0000000000000000  0.0000000000000000  0.2253089609343115  T  T  T

0.00000000E+00  0.00000000E+00  0.00000000E+00
0.00000000E+00  0.00000000E+00  0.00000000E+00
0.00000000E+00  0.00000000E+00  0.00000000E+00
0.00000000E+00  0.00000000E+00  0.00000000E+00
0.00000000E+00  0.00000000E+00  0.00000000E+00
0.00000000E+00  0.00000000E+00  0.00000000E+00
0.00000000E+00  0.00000000E+00  0.00000000E+00
