Cr2N  (n=1)
1.00000000000000
2.9329857111212858  0.0000000000000000  0.0000000000000000
-1.4664928555606429  2.5400401349044111  0.0000000000000000
0.0000000000000000  -0.0000000000000001  31.7038455247107329
Cr  N  O  H
2  1  2  2
Selective  dynamics
Direct
0.0000000000000000  0.0000000000000000  0.0711493057277730  T  T  T
0.6666666666666643  0.3333333333333357  0.1419622609004079  T  T  T
0.3333333333333357  0.6666666666666643  0.1086164398925007  T  T  T
0.3333333333333357  0.6666666666666643  0.0308869127587022  T  T  T
-0.0000000000000000  -0.0000000000000000  0.1807418297656075  T  T  T
0.3333333333333357  0.6666666666666643  0.0000000000000000  T  T  T
0.0000000000000000  0.0000000000000000  0.2114521255626733  T  T  T

0.00000000E+00  0.00000000E+00  0.00000000E+00
0.00000000E+00  0.00000000E+00  0.00000000E+00
0.00000000E+00  0.00000000E+00  0.00000000E+00
0.00000000E+00  0.00000000E+00  0.00000000E+00
0.00000000E+00  0.00000000E+00  0.00000000E+00
0.00000000E+00  0.00000000E+00  0.00000000E+00
0.00000000E+00  0.00000000E+00  0.00000000E+00
