Cr2C  (n=1)
1.00000000000000
2.9367880186794006  0.0000000000000001  0.0000000000000000
-1.4683940093397003  2.5433330297299088  0.0000000000000000
0.0000000000000002  -0.0000000000000004  31.6596450478650908
Cr  C  O  H
2  1  2  2
Selective  dynamics
Direct
0.0000000000000000  -0.0000000000000000  0.0704248329558342  T  T  T
0.6666666666666643  0.3333333333333357  0.1392678435655232  T  T  T
0.3333333333333357  0.6666666666666643  0.1066439444809799  T  T  T
0.3333333333333357  0.6666666666666643  0.0309525275676840  T  T  T
0.0000000000000000  -0.0000000000000000  0.1796361885437121  T  T  T
0.3333333333333357  0.6666666666666643  0.0000000000000000  T  T  T
-0.0000000000000000  -0.0000000000000000  0.2103512227568126  T  T  T

0.00000000E+00  0.00000000E+00  0.00000000E+00
0.00000000E+00  0.00000000E+00  0.00000000E+00
0.00000000E+00  0.00000000E+00  0.00000000E+00
0.00000000E+00  0.00000000E+00  0.00000000E+00
0.00000000E+00  0.00000000E+00  0.00000000E+00
0.00000000E+00  0.00000000E+00  0.00000000E+00
0.00000000E+00  0.00000000E+00  0.00000000E+00
