Hf2C  (n=1)
1.00000000000000
3.2238215907495782  0.0000000000000004  0.0000000000000001
-1.6119107953747884  2.7919113949642513  -0.0000000000000001
0.0000000000000008  -0.0000000000000044  32.1937291077900340
Hf  C  O  H
2  1  2  2
Selective  dynamics
Direct
0.0000000000000000  0.0000000000000000  0.0731790822836416  T  T  T
0.6666666666666643  0.3333333333333357  0.1509212698661717  T  T  T
0.3333333333333357  0.6666666666666643  0.1141029128080854  T  T  T
0.3333333333333357  0.6666666666666643  0.0303805642021495  T  T  T
0.0000000000000000  0.0000000000000000  0.1930578771805139  T  T  T
0.3333333333333357  0.6666666666666643  0.0000000000000000  T  T  T
0.0000000000000000  0.0000000000000000  0.2234512529972597  T  T  T

0.00000000E+00  0.00000000E+00  0.00000000E+00
0.00000000E+00  0.00000000E+00  0.00000000E+00
0.00000000E+00  0.00000000E+00  0.00000000E+00
0.00000000E+00  0.00000000E+00  0.00000000E+00
0.00000000E+00  0.00000000E+00  0.00000000E+00
0.00000000E+00  0.00000000E+00  0.00000000E+00
0.00000000E+00  0.00000000E+00  0.00000000E+00
