Zr4C3  (n=3)
1.00000000000000
3.3478045594212027  -0.0000000000000001  0.0000000000000000
-1.6739022797106013  2.8992838007198429  -0.0000000000000001
0.0000000000000007  0.0000000000000001  37.2766746414735337
Zr  C  Cl
4  3  2
Selective  dynamics
Direct
0.0000000000000000  0.0000000000000000  0.0500219630176241  T  T  T
0.0000000000000000  0.0000000000000000  0.1273944871879296  T  T  T
0.0000000000000000  0.0000000000000000  0.2030257661876788  T  T  T
0.0000000000000000  0.0000000000000000  0.2797219094248994  T  T  T
0.3333333333333357  0.6666666666666643  0.0839732243287913  T  T  T
0.3333333333333357  0.6666666666666643  0.1658297189558668  T  T  T
0.3333333333333357  0.6666666666666643  0.2478533509781835  T  T  T
0.3333333333333357  0.6666666666666643  0.0000000000000000  T  T  T
0.6666666666666643  0.3333333333333357  0.3293393190125030  T  T  T

0.00000000E+00  0.00000000E+00  0.00000000E+00
0.00000000E+00  0.00000000E+00  0.00000000E+00
0.00000000E+00  0.00000000E+00  0.00000000E+00
0.00000000E+00  0.00000000E+00  0.00000000E+00
0.00000000E+00  0.00000000E+00  0.00000000E+00
0.00000000E+00  0.00000000E+00  0.00000000E+00
0.00000000E+00  0.00000000E+00  0.00000000E+00
0.00000000E+00  0.00000000E+00  0.00000000E+00
0.00000000E+00  0.00000000E+00  0.00000000E+00
