Ta4C3  (n=3)
1.00000000000000
3.0962232145296364  0.0000000000000002  0.0000000000000001
-1.5481116072648182  2.6814079609045067  -0.0000000000000002
0.0000000000000010  -0.0000000000000005  37.1580120710161452
Ta  C  Cl
4  3  2
Selective  dynamics
Direct
-0.0000000000000000  0.0000000000000000  0.0484260449316496  T  T  T
-0.0000000000000000  0.0000000000000000  0.1245207910964093  T  T  T
-0.0000000000000000  0.0000000000000000  0.2013067200783663  T  T  T
-0.0000000000000000  0.0000000000000000  0.2776327924894330  T  T  T
0.3333333333333357  0.6666666666666643  0.0842051786929058  T  T  T
0.3333333333333357  0.6666666666666643  0.1629763908189817  T  T  T
0.3333333333333357  0.6666666666666643  0.2415710599765500  T  T  T
0.3333333333333357  0.6666666666666643  0.0000000000000000  T  T  T
0.6666666666666643  0.3333333333333357  0.3271975919427507  T  T  T

0.00000000E+00  0.00000000E+00  0.00000000E+00
0.00000000E+00  0.00000000E+00  0.00000000E+00
0.00000000E+00  0.00000000E+00  0.00000000E+00
0.00000000E+00  0.00000000E+00  0.00000000E+00
0.00000000E+00  0.00000000E+00  0.00000000E+00
0.00000000E+00  0.00000000E+00  0.00000000E+00
0.00000000E+00  0.00000000E+00  0.00000000E+00
0.00000000E+00  0.00000000E+00  0.00000000E+00
0.00000000E+00  0.00000000E+00  0.00000000E+00
