Hf4C3  (n=3)
1.00000000000000
3.2980939375121019  -0.0000000000000001  0.0000000000000000
-1.6490469687560507  2.8562331374043501  0.0000000000000000
0.0000000000000003  -0.0000000000000003  37.1367943756550858
Hf  C  Cl
4  3  2
Selective  dynamics
Direct
-0.0000000000000000  -0.0000000000000000  0.0500484603739600  T  T  T
-0.0000000000000000  0.0000000000000000  0.1265880402035011  T  T  T
-0.0000000000000000  -0.0000000000000000  0.2014156766401093  T  T  T
-0.0000000000000000  -0.0000000000000000  0.2773235742287848  T  T  T
0.3333333333333357  0.6666666666666643  0.0836418582909154  T  T  T
0.3333333333333357  0.6666666666666643  0.1649214907487045  T  T  T
0.3333333333333357  0.6666666666666643  0.2462210087069615  T  T  T
0.3333333333333357  0.6666666666666643  0.0000000000000000  T  T  T
0.6666666666666643  0.3333333333333357  0.3268131937529677  T  T  T

0.00000000E+00  0.00000000E+00  0.00000000E+00
0.00000000E+00  0.00000000E+00  0.00000000E+00
0.00000000E+00  0.00000000E+00  0.00000000E+00
0.00000000E+00  0.00000000E+00  0.00000000E+00
0.00000000E+00  0.00000000E+00  0.00000000E+00
0.00000000E+00  0.00000000E+00  0.00000000E+00
0.00000000E+00  0.00000000E+00  0.00000000E+00
0.00000000E+00  0.00000000E+00  0.00000000E+00
0.00000000E+00  0.00000000E+00  0.00000000E+00
