Nb4N3  (n=3)
1.00000000000000
3.0231643770975380  0.0000000000000002  -0.0000000000000001
-1.5115821885487690  2.6181371510347029  0.0000000000000000
-0.0000000000000003  0.0000000000000002  37.3466316240040399
Nb  N  Cl
4  3  2
Selective  dynamics
Direct
-0.0000000000000000  0.0000000000000000  0.0488657057992841  T  T  T
-0.0000000000000000  0.0000000000000000  0.1261385783223409  T  T  T
-0.0000000000000000  0.0000000000000000  0.2034779144273728  T  T  T
-0.0000000000000000  0.0000000000000000  0.2810035906881866  T  T  T
0.3333333333333357  0.6666666666666643  0.0872129944233749  T  T  T
0.3333333333333357  0.6666666666666643  0.1643921979149386  T  T  T
0.3333333333333357  0.6666666666666643  0.2408225923329139  T  T  T
0.3333333333333357  0.6666666666666643  0.0000000000000000  T  T  T
0.6666666666666643  0.3333333333333357  0.3305955875299986  T  T  T

0.00000000E+00  0.00000000E+00  0.00000000E+00
0.00000000E+00  0.00000000E+00  0.00000000E+00
0.00000000E+00  0.00000000E+00  0.00000000E+00
0.00000000E+00  0.00000000E+00  0.00000000E+00
0.00000000E+00  0.00000000E+00  0.00000000E+00
0.00000000E+00  0.00000000E+00  0.00000000E+00
0.00000000E+00  0.00000000E+00  0.00000000E+00
0.00000000E+00  0.00000000E+00  0.00000000E+00
0.00000000E+00  0.00000000E+00  0.00000000E+00
