Ta4N3  (n=3)
1.00000000000000
2.9937986886445458  -0.0000000000000002  0.0000000000000001
-1.4968993443222731  2.5927057186578986  -0.0000000000000001
0.0000000000000011  -0.0000000000000003  37.4008700065331681
Ta  N  Cl
4  3  2
Selective  dynamics
Direct
0.0000000000000000  -0.0000000000000000  0.0492598043186901  T  T  T
0.0000000000000000  0.0000000000000000  0.1266311081815504  T  T  T
0.0000000000000000  0.0000000000000000  0.2039309156752441  T  T  T
0.0000000000000000  0.0000000000000000  0.2817107778349607  T  T  T
0.3333333333333357  0.6666666666666643  0.0878132662498913  T  T  T
0.3333333333333357  0.6666666666666643  0.1647922243462919  T  T  T
0.3333333333333357  0.6666666666666643  0.2412823604144253  T  T  T
0.3333333333333357  0.6666666666666643  0.0000000000000000  T  T  T
0.6666666666666643  0.3333333333333357  0.3315663513807830  T  T  T

0.00000000E+00  0.00000000E+00  0.00000000E+00
0.00000000E+00  0.00000000E+00  0.00000000E+00
0.00000000E+00  0.00000000E+00  0.00000000E+00
0.00000000E+00  0.00000000E+00  0.00000000E+00
0.00000000E+00  0.00000000E+00  0.00000000E+00
0.00000000E+00  0.00000000E+00  0.00000000E+00
0.00000000E+00  0.00000000E+00  0.00000000E+00
0.00000000E+00  0.00000000E+00  0.00000000E+00
0.00000000E+00  0.00000000E+00  0.00000000E+00
