Mo4C3  (n=3)
1.00000000000000
2.9827467241333072  0.0000000000000001  0.0000000000000000
-1.4913733620666536  2.5831344365866258  0.0000000000000000
0.0000000000000004  0.0000000000000000  37.0503084137775005
Mo  C  Cl
4  3  2
Selective  dynamics
Direct
0.0000000000000000  -0.0000000000000000  0.0495615781082200  T  T  T
0.0000000000000000  -0.0000000000000000  0.1247229239342410  T  T  T
0.0000000000000000  -0.0000000000000000  0.2007423913039625  T  T  T
0.0000000000000000  -0.0000000000000000  0.2754837034607067  T  T  T
0.3333333333333357  0.6666666666666643  0.0857574394307499  T  T  T
0.3333333333333357  0.6666666666666643  0.1620630720357891  T  T  T
0.3333333333333357  0.6666666666666643  0.2380474744936936  T  T  T
0.3333333333333357  0.6666666666666643  0.0000000000000000  T  T  T
0.6666666666666643  0.3333333333333357  0.3252417842032452  T  T  T

0.00000000E+00  0.00000000E+00  0.00000000E+00
0.00000000E+00  0.00000000E+00  0.00000000E+00
0.00000000E+00  0.00000000E+00  0.00000000E+00
0.00000000E+00  0.00000000E+00  0.00000000E+00
0.00000000E+00  0.00000000E+00  0.00000000E+00
0.00000000E+00  0.00000000E+00  0.00000000E+00
0.00000000E+00  0.00000000E+00  0.00000000E+00
0.00000000E+00  0.00000000E+00  0.00000000E+00
0.00000000E+00  0.00000000E+00  0.00000000E+00
