Sc4N3  (n=3)
1.00000000000000
3.2106390921693655  0.0000000000000003  0.0000000000000000
-1.6053195460846832  2.7804950169430565  0.0000000000000000
0.0000000000000002  0.0000000000000000  36.7940387051973161
Sc  N  Cl
4  3  2
Selective  dynamics
Direct
0.0000000000000000  0.0000000000000000  0.0490035275670376  T  T  T
0.0000000000000000  0.0000000000000000  0.1240031788282037  T  T  T
0.0000000000000000  0.0000000000000000  0.1979940243415717  T  T  T
0.0000000000000000  0.0000000000000000  0.2727090241362674  T  T  T
0.3333333333333357  0.6666666666666643  0.0824016296523340  T  T  T
0.3333333333333357  0.6666666666666643  0.1617861597094311  T  T  T
0.3333333333333357  0.6666666666666643  0.2413693964406071  T  T  T
0.3333333333333357  0.6666666666666643  0.0000000000000000  T  T  T
0.6666666666666643  0.3333333333333357  0.3205421073694570  T  T  T

0.00000000E+00  0.00000000E+00  0.00000000E+00
0.00000000E+00  0.00000000E+00  0.00000000E+00
0.00000000E+00  0.00000000E+00  0.00000000E+00
0.00000000E+00  0.00000000E+00  0.00000000E+00
0.00000000E+00  0.00000000E+00  0.00000000E+00
0.00000000E+00  0.00000000E+00  0.00000000E+00
0.00000000E+00  0.00000000E+00  0.00000000E+00
0.00000000E+00  0.00000000E+00  0.00000000E+00
0.00000000E+00  0.00000000E+00  0.00000000E+00
