Mo4N3  (n=3)
1.00000000000000
2.9437870969814903  0.0000000000000002  0.0000000000000000
-1.4718935484907445  2.5493944095857919  0.0000000000000000
0.0000000000000000  0.0000000000000002  37.1264869286381582
Mo  N  Cl
4  3  2
Selective  dynamics
Direct
0.0000000000000000  0.0000000000000000  0.0518668983873014  T  T  T
0.0000000000000000  0.0000000000000000  0.1254797539985815  T  T  T
0.0000000000000000  0.0000000000000000  0.2021883419410511  T  T  T
0.0000000000000000  0.0000000000000000  0.2764470062705405  T  T  T
0.3333333333333357  0.6666666666666643  0.0883492204649958  T  T  T
0.3333333333333357  0.6666666666666643  0.1640389939884386  T  T  T
0.3333333333333357  0.6666666666666643  0.2389206423182390  T  T  T
0.3333333333333357  0.6666666666666643  0.0000000000000000  T  T  T
0.6666666666666643  0.3333333333333357  0.3266262965291278  T  T  T

0.00000000E+00  0.00000000E+00  0.00000000E+00
0.00000000E+00  0.00000000E+00  0.00000000E+00
0.00000000E+00  0.00000000E+00  0.00000000E+00
0.00000000E+00  0.00000000E+00  0.00000000E+00
0.00000000E+00  0.00000000E+00  0.00000000E+00
0.00000000E+00  0.00000000E+00  0.00000000E+00
0.00000000E+00  0.00000000E+00  0.00000000E+00
0.00000000E+00  0.00000000E+00  0.00000000E+00
0.00000000E+00  0.00000000E+00  0.00000000E+00
