Ti4C3  (n=3)
1.00000000000000
3.1295388159245139  -0.0000000000000001  0.0000000000000001
-1.5647694079622569  2.7102601173575329  -0.0000000000000001
0.0000000000000011  -0.0000000000000005  36.2818761570751178
Ti  C  Cl
4  3  2
Selective  dynamics
Direct
-0.0000000000000000  -0.0000000000000000  0.0483807608762779  T  T  T
-0.0000000000000000  -0.0000000000000000  0.1209243145964486  T  T  T
-0.0000000000000000  -0.0000000000000000  0.1920544091536044  T  T  T
-0.0000000000000000  -0.0000000000000000  0.2634185001277641  T  T  T
0.3333333333333357  0.6666666666666643  0.0806621173198451  T  T  T
0.3333333333333357  0.6666666666666643  0.1568390705169939  T  T  T
0.3333333333333357  0.6666666666666643  0.2330168402747919  T  T  T
0.3333333333333357  0.6666666666666643  0.0000000000000000  T  T  T
0.6666666666666643  0.3333333333333357  0.3109507377246009  T  T  T

0.00000000E+00  0.00000000E+00  0.00000000E+00
0.00000000E+00  0.00000000E+00  0.00000000E+00
0.00000000E+00  0.00000000E+00  0.00000000E+00
0.00000000E+00  0.00000000E+00  0.00000000E+00
0.00000000E+00  0.00000000E+00  0.00000000E+00
0.00000000E+00  0.00000000E+00  0.00000000E+00
0.00000000E+00  0.00000000E+00  0.00000000E+00
0.00000000E+00  0.00000000E+00  0.00000000E+00
0.00000000E+00  0.00000000E+00  0.00000000E+00
