Ti4N3  (n=3)
1.00000000000000
2.9959268340965921  0.0000000000000001  0.0000000000000000
-1.4979634170482961  2.5945487464347616  0.0000000000000000
-0.0000000000000001  -0.0000000000000004  36.4010488602875952
Ti  N  Cl
4  3  2
Selective  dynamics
Direct
-0.0000000000000000  -0.0000000000000000  0.0470407386216923  T  T  T
-0.0000000000000000  -0.0000000000000000  0.1197514963239168  T  T  T
-0.0000000000000000  -0.0000000000000000  0.1933043625171689  T  T  T
-0.0000000000000000  -0.0000000000000000  0.2659012513234692  T  T  T
0.3333333333333357  0.6666666666666643  0.0817274826699422  T  T  T
0.3333333333333357  0.6666666666666643  0.1565264741747704  T  T  T
0.3333333333333357  0.6666666666666643  0.2316938171027528  T  T  T
0.3333333333333357  0.6666666666666643  0.0000000000000000  T  T  T
0.6666666666666643  0.3333333333333357  0.3132066030307655  T  T  T

0.00000000E+00  0.00000000E+00  0.00000000E+00
0.00000000E+00  0.00000000E+00  0.00000000E+00
0.00000000E+00  0.00000000E+00  0.00000000E+00
0.00000000E+00  0.00000000E+00  0.00000000E+00
0.00000000E+00  0.00000000E+00  0.00000000E+00
0.00000000E+00  0.00000000E+00  0.00000000E+00
0.00000000E+00  0.00000000E+00  0.00000000E+00
0.00000000E+00  0.00000000E+00  0.00000000E+00
0.00000000E+00  0.00000000E+00  0.00000000E+00
