Sc4C3  (n=3)
1.00000000000000
3.4090751880717369  0.0000000000000001  -0.0000000000000000
-1.7045375940358685  2.9523457186811766  -0.0000000000000000
-0.0000000000000002  -0.0000000000000001  36.4976426939912812
Sc  C  Cl
4  3  2
Selective  dynamics
Direct
-0.0000000000000000  -0.0000000000000000  0.0476424610657445  T  T  T
-0.0000000000000000  -0.0000000000000000  0.1215195359229818  T  T  T
0.0000000000000000  0.0000000000000000  0.1950013769037503  T  T  T
0.0000000000000000  0.0000000000000000  0.2688044772091813  T  T  T
0.3333333333333357  0.6666666666666643  0.0835163220879701  T  T  T
0.3333333333333357  0.6666666666666643  0.1559842896081715  T  T  T
0.3333333333333357  0.6666666666666643  0.2331496880513614  T  T  T
0.3333333333333357  0.6666666666666643  0.0000000000000000  T  T  T
0.6666666666666643  0.3333333333333357  0.3150242548646620  T  T  T

0.00000000E+00  0.00000000E+00  0.00000000E+00
0.00000000E+00  0.00000000E+00  0.00000000E+00
0.00000000E+00  0.00000000E+00  0.00000000E+00
0.00000000E+00  0.00000000E+00  0.00000000E+00
0.00000000E+00  0.00000000E+00  0.00000000E+00
0.00000000E+00  0.00000000E+00  0.00000000E+00
0.00000000E+00  0.00000000E+00  0.00000000E+00
0.00000000E+00  0.00000000E+00  0.00000000E+00
0.00000000E+00  0.00000000E+00  0.00000000E+00
