Hf4N3  (n=3)
1.00000000000000
3.1363896930260484  -0.0000000000000006  0.0000000000000000
-1.5681948465130247  2.7161931513634356  0.0000000000000000
-0.0000000000000002  -0.0000000000000005  37.3551179258170336
Hf  N  Cl
4  3  2
Selective  dynamics
Direct
0.0000000000000000  0.0000000000000000  0.0484759179150353  T  T  T
0.0000000000000000  0.0000000000000000  0.1259276726122375  T  T  T
0.0000000000000000  0.0000000000000000  0.2040501775403425  T  T  T
0.0000000000000000  0.0000000000000000  0.2816422918244919  T  T  T
0.3333333333333357  0.6666666666666643  0.0870319032421167  T  T  T
0.3333333333333357  0.6666666666666643  0.1648829010580319  T  T  T
0.3333333333333357  0.6666666666666643  0.2428604184680417  T  T  T
0.3333333333333357  0.6666666666666643  0.0000000000000000  T  T  T
0.6666666666666643  0.3333333333333357  0.3307476622173400  T  T  T

0.00000000E+00  0.00000000E+00  0.00000000E+00
0.00000000E+00  0.00000000E+00  0.00000000E+00
0.00000000E+00  0.00000000E+00  0.00000000E+00
0.00000000E+00  0.00000000E+00  0.00000000E+00
0.00000000E+00  0.00000000E+00  0.00000000E+00
0.00000000E+00  0.00000000E+00  0.00000000E+00
0.00000000E+00  0.00000000E+00  0.00000000E+00
0.00000000E+00  0.00000000E+00  0.00000000E+00
0.00000000E+00  0.00000000E+00  0.00000000E+00
