Zr4N3  (n=3)
1.00000000000000
3.1963678751375446  0.0000000000000003  -0.0000000000000001
-1.5981839375687721  2.7681357806561930  0.0000000000000001
-0.0000000000000009  0.0000000000000012  37.4529222455849151
Zr  N  Cl
4  3  2
Selective  dynamics
Direct
0.0000000000000000  0.0000000000000000  0.0487894697443150  T  T  T
0.0000000000000000  0.0000000000000000  0.1265087126984588  T  T  T
0.0000000000000000  0.0000000000000000  0.2050524321029186  T  T  T
0.0000000000000000  0.0000000000000000  0.2831632684704388  T  T  T
0.3333333333333357  0.6666666666666643  0.0870512043848396  T  T  T
0.3333333333333357  0.6666666666666643  0.1657659680993125  T  T  T
0.3333333333333357  0.6666666666666643  0.2443274436962151  T  T  T
0.3333333333333357  0.6666666666666643  0.0000000000000000  T  T  T
0.6666666666666643  0.3333333333333357  0.3324953434588916  T  T  T

0.00000000E+00  0.00000000E+00  0.00000000E+00
0.00000000E+00  0.00000000E+00  0.00000000E+00
0.00000000E+00  0.00000000E+00  0.00000000E+00
0.00000000E+00  0.00000000E+00  0.00000000E+00
0.00000000E+00  0.00000000E+00  0.00000000E+00
0.00000000E+00  0.00000000E+00  0.00000000E+00
0.00000000E+00  0.00000000E+00  0.00000000E+00
0.00000000E+00  0.00000000E+00  0.00000000E+00
0.00000000E+00  0.00000000E+00  0.00000000E+00
