Nb4C3  (n=3)
1.00000000000000
3.1201595033328098  0.0000000000000002  0.0000000000000001
-1.5600797516664047  2.7021373951086711  -0.0000000000000000
0.0000000000000016  0.0000000000000007  37.1644195382134370
Nb  C  Cl
4  3  2
Selective  dynamics
Direct
-0.0000000000000000  0.0000000000000000  0.0483477062379186  T  T  T
0.0000000000000000  0.0000000000000000  0.1245194905173256  T  T  T
-0.0000000000000000  -0.0000000000000000  0.2014625567457334  T  T  T
0.0000000000000000  -0.0000000000000000  0.2778602387751469  T  T  T
0.3333333333333357  0.6666666666666643  0.0841080334809695  T  T  T
0.3333333333333357  0.6666666666666643  0.1632709452396280  T  T  T
0.3333333333333357  0.6666666666666643  0.2415661772824854  T  T  T
0.3333333333333357  0.6666666666666643  0.0000000000000000  T  T  T
0.6666666666666643  0.3333333333333357  0.3273135888939597  T  T  T

0.00000000E+00  0.00000000E+00  0.00000000E+00
0.00000000E+00  0.00000000E+00  0.00000000E+00
0.00000000E+00  0.00000000E+00  0.00000000E+00
0.00000000E+00  0.00000000E+00  0.00000000E+00
0.00000000E+00  0.00000000E+00  0.00000000E+00
0.00000000E+00  0.00000000E+00  0.00000000E+00
0.00000000E+00  0.00000000E+00  0.00000000E+00
0.00000000E+00  0.00000000E+00  0.00000000E+00
0.00000000E+00  0.00000000E+00  0.00000000E+00
