Cr4N3  (n=3)
1.00000000000000
2.7923977423603454  -0.0000000000000002  0.0000000000000000
-1.3961988711801729  2.4182873823559929  0.0000000000000000
-0.0000000000000011  -0.0000000000000001  36.0782771390304902
Cr  N  Cl
4  3  2
Selective  dynamics
Direct
0.0000000000000000  0.0000000000000000  0.0487269824477093  T  T  T
0.0000000000000000  0.0000000000000000  0.1184622739978802  T  T  T
0.0000000000000000  0.0000000000000000  0.1899721932474070  T  T  T
0.0000000000000000  0.0000000000000000  0.2589804092225274  T  T  T
0.3333333333333357  0.6666666666666643  0.0822299394453772  T  T  T
0.3333333333333357  0.6666666666666643  0.1542748675980720  T  T  T
0.3333333333333357  0.6666666666666643  0.2256931552402202  T  T  T
0.3333333333333357  0.6666666666666643  0.0000000000000000  T  T  T
0.6666666666666643  0.3333333333333357  0.3070622551165478  T  T  T

0.00000000E+00  0.00000000E+00  0.00000000E+00
0.00000000E+00  0.00000000E+00  0.00000000E+00
0.00000000E+00  0.00000000E+00  0.00000000E+00
0.00000000E+00  0.00000000E+00  0.00000000E+00
0.00000000E+00  0.00000000E+00  0.00000000E+00
0.00000000E+00  0.00000000E+00  0.00000000E+00
0.00000000E+00  0.00000000E+00  0.00000000E+00
0.00000000E+00  0.00000000E+00  0.00000000E+00
0.00000000E+00  0.00000000E+00  0.00000000E+00
