Cr4C3  (n=3)
1.00000000000000
2.8262413693262123  0.0000000000000002  0.0000000000000000
-1.4131206846631061  2.4475968230372835  0.0000000000000001
-0.0000000000000006  0.0000000000000019  36.0585780324450837
Cr  C  Cl
4  3  2
Selective  dynamics
Direct
-0.0000000000000000  -0.0000000000000000  0.0474475654283843  T  T  T
-0.0000000000000000  -0.0000000000000000  0.1180026631177875  T  T  T
-0.0000000000000000  -0.0000000000000000  0.1892218098781882  T  T  T
-0.0000000000000000  -0.0000000000000000  0.2592098082662890  T  T  T
0.3333333333333357  0.6666666666666643  0.0811747947348288  T  T  T
0.3333333333333357  0.6666666666666643  0.1532581135439116  T  T  T
0.3333333333333357  0.6666666666666643  0.2249893967382111  T  T  T
0.3333333333333357  0.6666666666666643  0.0000000000000000  T  T  T
0.6666666666666643  0.3333333333333357  0.3066836973575248  T  T  T

0.00000000E+00  0.00000000E+00  0.00000000E+00
0.00000000E+00  0.00000000E+00  0.00000000E+00
0.00000000E+00  0.00000000E+00  0.00000000E+00
0.00000000E+00  0.00000000E+00  0.00000000E+00
0.00000000E+00  0.00000000E+00  0.00000000E+00
0.00000000E+00  0.00000000E+00  0.00000000E+00
0.00000000E+00  0.00000000E+00  0.00000000E+00
0.00000000E+00  0.00000000E+00  0.00000000E+00
0.00000000E+00  0.00000000E+00  0.00000000E+00
