Cr4N3  (n=3)
1.00000000000000
2.9717627138594103  -0.0000000000000001  0.0000000000000000
-1.4858813569297051  2.5736220042236524  0.0000000000000000
0.0000000000000000  0.0000000000000000  36.7045496844533332
Cr  N  I
4  3  2
Selective  dynamics
Direct
-0.0000000000000000  -0.0000000000000000  0.0584678434105981  T  T  T
0.0000000000000000  -0.0000000000000000  0.1251992000849902  T  T  T
-0.0000000000000000  0.0000000000000000  0.1936863273244619  T  T  T
0.0000000000000000  0.0000000000000000  0.2604176839988540  T  T  T
0.3333333333333357  0.6666666666666643  0.0890258444511717  T  T  T
0.3333333333333357  0.6666666666666643  0.1594427637047299  T  T  T
0.3333333333333357  0.6666666666666643  0.2298596829582726  T  T  T
0.3333333333333357  0.6666666666666643  0.0000000000000000  T  T  T
0.3333333333333357  0.6666666666666643  0.3188855274094520  T  T  T

0.00000000E+00  0.00000000E+00  0.00000000E+00
0.00000000E+00  0.00000000E+00  0.00000000E+00
0.00000000E+00  0.00000000E+00  0.00000000E+00
0.00000000E+00  0.00000000E+00  0.00000000E+00
0.00000000E+00  0.00000000E+00  0.00000000E+00
0.00000000E+00  0.00000000E+00  0.00000000E+00
0.00000000E+00  0.00000000E+00  0.00000000E+00
0.00000000E+00  0.00000000E+00  0.00000000E+00
0.00000000E+00  0.00000000E+00  0.00000000E+00
