Hf4C3  (n=3)
1.00000000000000
3.3923835476593500  -0.0000000000000001  0.0000000000000000
-1.6961917738296752  2.9378903341138418  0.0000000000000000
0.0000000000000000  0.0000000000000000  37.8511014535932944
Hf  C  I
4  3  2
Selective  dynamics
Direct
0.0000000000000000  0.0000000000000000  0.0586080500737427  T  T  T
0.0000000000000000  0.0000000000000000  0.1332965151506234  T  T  T
0.0000000000000000  0.0000000000000000  0.2062207237162341  T  T  T
0.0000000000000000  0.0000000000000000  0.2809091887931148  T  T  T
0.3333333333333357  0.6666666666666643  0.0900576102114612  T  T  T
0.3333333333333357  0.6666666666666643  0.1697586194334287  T  T  T
0.3333333333333357  0.6666666666666643  0.2494596286553889  T  T  T
0.3333333333333357  0.6666666666666643  0.0000000000000000  T  T  T
0.3333333333333357  0.6666666666666643  0.3395172388668575  T  T  T

0.00000000E+00  0.00000000E+00  0.00000000E+00
0.00000000E+00  0.00000000E+00  0.00000000E+00
0.00000000E+00  0.00000000E+00  0.00000000E+00
0.00000000E+00  0.00000000E+00  0.00000000E+00
0.00000000E+00  0.00000000E+00  0.00000000E+00
0.00000000E+00  0.00000000E+00  0.00000000E+00
0.00000000E+00  0.00000000E+00  0.00000000E+00
0.00000000E+00  0.00000000E+00  0.00000000E+00
0.00000000E+00  0.00000000E+00  0.00000000E+00
