Zr4N3  (n=3)
1.00000000000000
3.3239050116269429  0.0000000000000004  -0.0000000000000000
-1.6619525058134712  2.8785861801388553  0.0000000000000000
0.0000000000000000  -0.0000000000000000  37.9821812840970523
Zr  N  I
4  3  2
Selective  dynamics
Direct
0.0000000000000000  0.0000000000000000  0.0567470954072700  T  T  T
0.0000000000000000  0.0000000000000000  0.1325983338454658  T  T  T
0.0000000000000000  0.0000000000000000  0.2091982888127573  T  T  T
0.0000000000000000  0.0000000000000000  0.2850495272509531  T  T  T
0.3333333333333357  0.6666666666666643  0.0940368554817793  T  T  T
0.3333333333333357  0.6666666666666643  0.1708983113291156  T  T  T
0.3333333333333357  0.6666666666666643  0.2477597671764438  T  T  T
0.3333333333333357  0.6666666666666643  0.0000000000000000  T  T  T
0.3333333333333357  0.6666666666666643  0.3417966226582312  T  T  T

0.00000000E+00  0.00000000E+00  0.00000000E+00
0.00000000E+00  0.00000000E+00  0.00000000E+00
0.00000000E+00  0.00000000E+00  0.00000000E+00
0.00000000E+00  0.00000000E+00  0.00000000E+00
0.00000000E+00  0.00000000E+00  0.00000000E+00
0.00000000E+00  0.00000000E+00  0.00000000E+00
0.00000000E+00  0.00000000E+00  0.00000000E+00
0.00000000E+00  0.00000000E+00  0.00000000E+00
0.00000000E+00  0.00000000E+00  0.00000000E+00
