Zr4C3  (n=3)
1.00000000000000
3.4368823601466478  0.0000000000000001  0.0000000000000000
-1.7184411800733237  2.9764274374510382  0.0000000000000000
0.0000000000000000  0.0000000000000000  37.9990570697812160
Zr  C  I
4  3  2
Selective  dynamics
Direct
-0.0000000000000000  0.0000000000000000  0.0587905858806632  T  T  T
-0.0000000000000000  0.0000000000000000  0.1342115425432072  T  T  T
-0.0000000000000000  0.0000000000000000  0.2078773952404291  T  T  T
-0.0000000000000000  0.0000000000000000  0.2832983519029658  T  T  T
0.3333333333333357  0.6666666666666643  0.0906005086730061  T  T  T
0.3333333333333357  0.6666666666666643  0.1710444688918181  T  T  T
0.3333333333333357  0.6666666666666643  0.2514884291106231  T  T  T
0.3333333333333357  0.6666666666666643  0.0000000000000000  T  T  T
0.3333333333333357  0.6666666666666643  0.3420889377836359  T  T  T

0.00000000E+00  0.00000000E+00  0.00000000E+00
0.00000000E+00  0.00000000E+00  0.00000000E+00
0.00000000E+00  0.00000000E+00  0.00000000E+00
0.00000000E+00  0.00000000E+00  0.00000000E+00
0.00000000E+00  0.00000000E+00  0.00000000E+00
0.00000000E+00  0.00000000E+00  0.00000000E+00
0.00000000E+00  0.00000000E+00  0.00000000E+00
0.00000000E+00  0.00000000E+00  0.00000000E+00
0.00000000E+00  0.00000000E+00  0.00000000E+00
