Sc4N3  (n=3)
1.00000000000000
3.3360011672451280  0.0000000000000000  0.0000000000000000
-1.6680005836225640  2.8890617585123426  0.0000000000000000
0.0000000000000000  0.0000000000000000  37.5718838432639828
Sc  N  I
4  3  2
Selective  dynamics
Direct
-0.0000000000000000  -0.0000000000000000  0.0581705899991466  T  T  T
-0.0000000000000000  -0.0000000000000000  0.1312960735259774  T  T  T
-0.0000000000000000  -0.0000000000000000  0.2033127498087595  T  T  T
-0.0000000000000000  -0.0000000000000000  0.2764382333355903  T  T  T
0.3333333333333357  0.6666666666666643  0.0889908032934962  T  T  T
0.3333333333333357  0.6666666666666643  0.1673044116673685  T  T  T
0.3333333333333357  0.6666666666666643  0.2456180200412331  T  T  T
0.3333333333333357  0.6666666666666643  0.0000000000000000  T  T  T
0.3333333333333357  0.6666666666666643  0.3346088233347371  T  T  T

0.00000000E+00  0.00000000E+00  0.00000000E+00
0.00000000E+00  0.00000000E+00  0.00000000E+00
0.00000000E+00  0.00000000E+00  0.00000000E+00
0.00000000E+00  0.00000000E+00  0.00000000E+00
0.00000000E+00  0.00000000E+00  0.00000000E+00
0.00000000E+00  0.00000000E+00  0.00000000E+00
0.00000000E+00  0.00000000E+00  0.00000000E+00
0.00000000E+00  0.00000000E+00  0.00000000E+00
0.00000000E+00  0.00000000E+00  0.00000000E+00
