Ta4C3  (n=3)
1.00000000000000
3.2143462125013045  0.0000000000000001  0.0000000000000000
-1.6071731062506525  2.7837054775845456  0.0000000000000000
0.0000000000000000  0.0000000000000000  37.6754380515033418
Ta  C  I
4  3  2
Selective  dynamics
Direct
0.0000000000000000  0.0000000000000000  0.0567261891945850  T  T  T
0.0000000000000000  0.0000000000000000  0.1307172472769063  T  T  T
0.0000000000000000  0.0000000000000000  0.2057204614015084  T  T  T
0.0000000000000000  0.0000000000000000  0.2797115194838298  T  T  T
0.3333333333333357  0.6666666666666643  0.0910502182684255  T  T  T
0.3333333333333357  0.6666666666666643  0.1682188543392109  T  T  T
0.3333333333333357  0.6666666666666643  0.2453874904099892  T  T  T
0.3333333333333357  0.6666666666666643  0.0000000000000000  T  T  T
0.3333333333333357  0.6666666666666643  0.3364377086784148  T  T  T

0.00000000E+00  0.00000000E+00  0.00000000E+00
0.00000000E+00  0.00000000E+00  0.00000000E+00
0.00000000E+00  0.00000000E+00  0.00000000E+00
0.00000000E+00  0.00000000E+00  0.00000000E+00
0.00000000E+00  0.00000000E+00  0.00000000E+00
0.00000000E+00  0.00000000E+00  0.00000000E+00
0.00000000E+00  0.00000000E+00  0.00000000E+00
0.00000000E+00  0.00000000E+00  0.00000000E+00
0.00000000E+00  0.00000000E+00  0.00000000E+00
