Ti4C3  (n=3)
1.00000000000000
3.2636922696220942  0.0000000000000001  0.0000000000000000
-1.6318461348110471  2.8264404163005739  0.0000000000000000
0.0000000000000000  0.0000000000000000  36.9204944255342298
Ti  C  I
4  3  2
Selective  dynamics
Direct
0.0000000000000000  -0.0000000000000000  0.0574317867739030  T  T  T
0.0000000000000000  0.0000000000000000  0.1271759152102823  T  T  T
0.0000000000000000  0.0000000000000000  0.1956933911468397  T  T  T
0.0000000000000000  0.0000000000000000  0.2654375195832193  T  T  T
0.3333333333333357  0.6666666666666643  0.0870443246476435  T  T  T
0.3333333333333357  0.6666666666666643  0.1614346531785576  T  T  T
0.3333333333333357  0.6666666666666643  0.2358249817094714  T  T  T
0.3333333333333357  0.6666666666666643  0.0000000000000000  T  T  T
0.3333333333333357  0.6666666666666643  0.3228693063571221  T  T  T

0.00000000E+00  0.00000000E+00  0.00000000E+00
0.00000000E+00  0.00000000E+00  0.00000000E+00
0.00000000E+00  0.00000000E+00  0.00000000E+00
0.00000000E+00  0.00000000E+00  0.00000000E+00
0.00000000E+00  0.00000000E+00  0.00000000E+00
0.00000000E+00  0.00000000E+00  0.00000000E+00
0.00000000E+00  0.00000000E+00  0.00000000E+00
0.00000000E+00  0.00000000E+00  0.00000000E+00
0.00000000E+00  0.00000000E+00  0.00000000E+00
