Nb4C3  (n=3)
1.00000000000000
3.2390436652741230  0.0000000000000000  0.0000000000000000
-1.6195218326370611  2.8050940989612005  0.0000000000000000
0.0000000000000000  0.0000000000000000  37.6636603544827011
Nb  C  I
4  3  2
Selective  dynamics
Direct
0.0000000000000000  0.0000000000000000  0.0566521233351108  T  T  T
0.0000000000000000  0.0000000000000000  0.1305591146751341  T  T  T
0.0000000000000000  0.0000000000000000  0.2056710933103594  T  T  T
0.0000000000000000  0.0000000000000000  0.2795780846503897  T  T  T
0.3333333333333357  0.6666666666666643  0.0908193263481611  T  T  T
0.3333333333333357  0.6666666666666643  0.1681151039927502  T  T  T
0.3333333333333357  0.6666666666666643  0.2454108816373253  T  T  T
0.3333333333333357  0.6666666666666643  0.0000000000000000  T  T  T
0.3333333333333357  0.6666666666666643  0.3362302079854935  T  T  T

0.00000000E+00  0.00000000E+00  0.00000000E+00
0.00000000E+00  0.00000000E+00  0.00000000E+00
0.00000000E+00  0.00000000E+00  0.00000000E+00
0.00000000E+00  0.00000000E+00  0.00000000E+00
0.00000000E+00  0.00000000E+00  0.00000000E+00
0.00000000E+00  0.00000000E+00  0.00000000E+00
0.00000000E+00  0.00000000E+00  0.00000000E+00
0.00000000E+00  0.00000000E+00  0.00000000E+00
0.00000000E+00  0.00000000E+00  0.00000000E+00
