Hf4N3  (n=3)
1.00000000000000
3.2749933765211217  -0.0000000000000013  0.0000000000000000
-1.6374966882605622  2.8362274624595467  0.0000000000000000
0.0000000000000000  0.0000000000000000  37.8600760304606752
Hf  N  I
4  3  2
Selective  dynamics
Direct
0.0000000000000000  0.0000000000000000  0.0564527541556156  T  T  T
0.0000000000000000  0.0000000000000000  0.1318433835003867  T  T  T
0.0000000000000000  0.0000000000000000  0.2078304201156894  T  T  T
0.0000000000000000  0.0000000000000000  0.2832210494604605  T  T  T
0.3333333333333357  0.6666666666666643  0.0937813774766157  T  T  T
0.3333333333333357  0.6666666666666643  0.1698369018080415  T  T  T
0.3333333333333357  0.6666666666666643  0.2458924261394604  T  T  T
0.3333333333333357  0.6666666666666643  0.0000000000000000  T  T  T
0.3333333333333357  0.6666666666666643  0.3396738036160831  T  T  T

0.00000000E+00  0.00000000E+00  0.00000000E+00
0.00000000E+00  0.00000000E+00  0.00000000E+00
0.00000000E+00  0.00000000E+00  0.00000000E+00
0.00000000E+00  0.00000000E+00  0.00000000E+00
0.00000000E+00  0.00000000E+00  0.00000000E+00
0.00000000E+00  0.00000000E+00  0.00000000E+00
0.00000000E+00  0.00000000E+00  0.00000000E+00
0.00000000E+00  0.00000000E+00  0.00000000E+00
0.00000000E+00  0.00000000E+00  0.00000000E+00
