Mo4N3  (n=3)
1.00000000000000
3.0415937227676757  0.0000000000000000  0.0000000000000000
-1.5207968613838379  2.6340974319457957  0.0000000000000000
0.0000000000000000  0.0000000000000000  37.7482982291035825
Mo  N  I
4  3  2
Selective  dynamics
Direct
-0.0000000000000000  0.0000000000000000  0.0605669058972155  T  T  T
-0.0000000000000000  -0.0000000000000000  0.1316657825418257  T  T  T
-0.0000000000000000  -0.0000000000000000  0.2060527061627879  T  T  T
-0.0000000000000000  -0.0000000000000000  0.2771515828073896  T  T  T
0.3333333333333357  0.6666666666666643  0.0951734443629826  T  T  T
0.3333333333333357  0.6666666666666643  0.1688592443523026  T  T  T
0.3333333333333357  0.6666666666666643  0.2425450443416140  T  T  T
0.3333333333333357  0.6666666666666643  0.0000000000000000  T  T  T
0.3333333333333357  0.6666666666666643  0.3377184887046051  T  T  T

0.00000000E+00  0.00000000E+00  0.00000000E+00
0.00000000E+00  0.00000000E+00  0.00000000E+00
0.00000000E+00  0.00000000E+00  0.00000000E+00
0.00000000E+00  0.00000000E+00  0.00000000E+00
0.00000000E+00  0.00000000E+00  0.00000000E+00
0.00000000E+00  0.00000000E+00  0.00000000E+00
0.00000000E+00  0.00000000E+00  0.00000000E+00
0.00000000E+00  0.00000000E+00  0.00000000E+00
0.00000000E+00  0.00000000E+00  0.00000000E+00
