Sc4C3  (n=3)
1.00000000000000
3.5020714437810172  -0.0000000000000001  -0.0000000000000000
-1.7510357218905086  3.0328828387779487  -0.0000000000000000
-0.0000000000000000  0.0000000000000000  37.2930248514811211
Sc  C  I
4  3  2
Selective  dynamics
Direct
-0.0000000000000000  -0.0000000000000000  0.0571696089360274  T  T  T
-0.0000000000000000  -0.0000000000000000  0.1289168813731562  T  T  T
-0.0000000000000000  -0.0000000000000000  0.2007164723287195  T  T  T
-0.0000000000000000  -0.0000000000000000  0.2724637447658482  T  T  T
0.3333333333333357  0.6666666666666643  0.0916846947271855  T  T  T
0.3333333333333357  0.6666666666666643  0.1648166768509378  T  T  T
0.3333333333333357  0.6666666666666643  0.2379486589746830  T  T  T
0.3333333333333357  0.6666666666666643  0.0000000000000000  T  T  T
0.3333333333333357  0.6666666666666643  0.3296333537018757  T  T  T

0.00000000E+00  0.00000000E+00  0.00000000E+00
0.00000000E+00  0.00000000E+00  0.00000000E+00
0.00000000E+00  0.00000000E+00  0.00000000E+00
0.00000000E+00  0.00000000E+00  0.00000000E+00
0.00000000E+00  0.00000000E+00  0.00000000E+00
0.00000000E+00  0.00000000E+00  0.00000000E+00
0.00000000E+00  0.00000000E+00  0.00000000E+00
0.00000000E+00  0.00000000E+00  0.00000000E+00
0.00000000E+00  0.00000000E+00  0.00000000E+00
