Nb4N3  (n=3)
1.00000000000000
3.1463385360032907  0.0000000000000000  0.0000000000000000
-1.5731692680016451  2.7248091012933480  0.0000000000000000
0.0000000000000000  0.0000000000000000  37.8408717321748682
Nb  N  I
4  3  2
Selective  dynamics
Direct
0.0000000000000000  -0.0000000000000000  0.0573606158011335  T  T  T
0.0000000000000000  -0.0000000000000000  0.1318595640744106  T  T  T
0.0000000000000000  -0.0000000000000000  0.2074791230218673  T  T  T
0.0000000000000000  0.0000000000000000  0.2819780712951522  T  T  T
0.3333333333333357  0.6666666666666643  0.0946343409376880  T  T  T
0.3333333333333357  0.6666666666666643  0.1696693435481428  T  T  T
0.3333333333333357  0.6666666666666643  0.2447043461585897  T  T  T
0.3333333333333357  0.6666666666666643  0.0000000000000000  T  T  T
0.3333333333333357  0.6666666666666643  0.3393386870962777  T  T  T

0.00000000E+00  0.00000000E+00  0.00000000E+00
0.00000000E+00  0.00000000E+00  0.00000000E+00
0.00000000E+00  0.00000000E+00  0.00000000E+00
0.00000000E+00  0.00000000E+00  0.00000000E+00
0.00000000E+00  0.00000000E+00  0.00000000E+00
0.00000000E+00  0.00000000E+00  0.00000000E+00
0.00000000E+00  0.00000000E+00  0.00000000E+00
0.00000000E+00  0.00000000E+00  0.00000000E+00
0.00000000E+00  0.00000000E+00  0.00000000E+00
