Ti4N3  (n=3)
1.00000000000000
3.1455140731624796  0.0000000000000000  0.0000000000000000
-1.5727570365812398  2.7240950953603593  0.0000000000000000
0.0000000000000000  0.0000000000000000  37.0049386373979985
Ti  N  I
4  3  2
Selective  dynamics
Direct
0.0000000000000000  0.0000000000000000  0.0561850201892039  T  T  T
0.0000000000000000  0.0000000000000000  0.1265896113971651  T  T  T
0.0000000000000000  0.0000000000000000  0.1978248878412026  T  T  T
0.0000000000000000  0.0000000000000000  0.2682294790491638  T  T  T
0.3333333333333357  0.6666666666666643  0.0886310993776012  T  T  T
0.3333333333333357  0.6666666666666643  0.1622072496191838  T  T  T
0.3333333333333357  0.6666666666666643  0.2357833998607491  T  T  T
0.3333333333333357  0.6666666666666643  0.0000000000000000  T  T  T
0.3333333333333357  0.6666666666666643  0.3244144992383677  T  T  T

0.00000000E+00  0.00000000E+00  0.00000000E+00
0.00000000E+00  0.00000000E+00  0.00000000E+00
0.00000000E+00  0.00000000E+00  0.00000000E+00
0.00000000E+00  0.00000000E+00  0.00000000E+00
0.00000000E+00  0.00000000E+00  0.00000000E+00
0.00000000E+00  0.00000000E+00  0.00000000E+00
0.00000000E+00  0.00000000E+00  0.00000000E+00
0.00000000E+00  0.00000000E+00  0.00000000E+00
0.00000000E+00  0.00000000E+00  0.00000000E+00
