Mo4C3  (n=3)
1.00000000000000
3.0766880433339785  0.0000000000000001  0.0000000000000000
-1.5383440216669892  2.6644900051240299  0.0000000000000000
0.0000000000000000  0.0000000000000000  37.7279268231933784
Mo  C  I
4  3  2
Selective  dynamics
Direct
0.0000000000000000  -0.0000000000000000  0.0590800696343998  T  T  T
0.0000000000000000  -0.0000000000000000  0.1316691239626872  T  T  T
0.0000000000000000  -0.0000000000000000  0.2056917621215394  T  T  T
0.0000000000000000  0.0000000000000000  0.2782808164498349  T  T  T
0.3333333333333357  0.6666666666666643  0.0939797168500625  T  T  T
0.3333333333333357  0.6666666666666643  0.1686804430421132  T  T  T
0.3333333333333357  0.6666666666666643  0.2433811692341560  T  T  T
0.3333333333333357  0.6666666666666643  0.0000000000000000  T  T  T
0.3333333333333357  0.6666666666666643  0.3373608860842265  T  T  T

0.00000000E+00  0.00000000E+00  0.00000000E+00
0.00000000E+00  0.00000000E+00  0.00000000E+00
0.00000000E+00  0.00000000E+00  0.00000000E+00
0.00000000E+00  0.00000000E+00  0.00000000E+00
0.00000000E+00  0.00000000E+00  0.00000000E+00
0.00000000E+00  0.00000000E+00  0.00000000E+00
0.00000000E+00  0.00000000E+00  0.00000000E+00
0.00000000E+00  0.00000000E+00  0.00000000E+00
0.00000000E+00  0.00000000E+00  0.00000000E+00
