Cr4C3  (n=3)
1.00000000000000
2.9900346208166222  0.0000000000000000  0.0000000000000000
-1.4950173104083109  2.5894459398251302  0.0000000000000000
0.0000000000000000  0.0000000000000000  36.6132189324318631
Cr  C  I
4  3  2
Selective  dynamics
Direct
0.0000000000000000  0.0000000000000000  0.0578215731875181  T  T  T
0.0000000000000000  0.0000000000000000  0.1247496776406226  T  T  T
0.0000000000000000  0.0000000000000000  0.1931420722667471  T  T  T
0.0000000000000000  0.0000000000000000  0.2600100304901690  T  T  T
0.3333333333333357  0.6666666666666643  0.0890227232622372  T  T  T
0.3333333333333357  0.6666666666666643  0.1589908645277766  T  T  T
0.3333333333333357  0.6666666666666643  0.2288194913875456  T  T  T
0.3333333333333357  0.6666666666666643  0.0000000000000000  T  T  T
0.3333333333333357  0.6666666666666643  0.3171865045207732  T  T  T

0.00000000E+00  0.00000000E+00  0.00000000E+00
0.00000000E+00  0.00000000E+00  0.00000000E+00
0.00000000E+00  0.00000000E+00  0.00000000E+00
0.00000000E+00  0.00000000E+00  0.00000000E+00
0.00000000E+00  0.00000000E+00  0.00000000E+00
0.00000000E+00  0.00000000E+00  0.00000000E+00
0.00000000E+00  0.00000000E+00  0.00000000E+00
0.00000000E+00  0.00000000E+00  0.00000000E+00
0.00000000E+00  0.00000000E+00  0.00000000E+00
