Ta4N3  (n=3)
1.00000000000000
3.1115381082665552  0.0000000000000000  0.0000000000000000
-1.5557690541332776  2.6946710466871879  0.0000000000000000
0.0000000000000000  0.0000000000000000  37.9117367303772852
Ta  N  I
4  3  2
Selective  dynamics
Direct
0.0000000000000000  0.0000000000000000  0.0575448346325385  T  T  T
0.0000000000000000  0.0000000000000000  0.1324616322023745  T  T  T
0.0000000000000000  0.0000000000000000  0.2081119696403304  T  T  T
0.0000000000000000  0.0000000000000000  0.2830287672101749  T  T  T
0.3333333333333357  0.6666666666666643  0.0953462692570797  T  T  T
0.3333333333333357  0.6666666666666643  0.1702868009213525  T  T  T
0.3333333333333357  0.6666666666666643  0.2452273325856251  T  T  T
0.3333333333333357  0.6666666666666643  0.0000000000000000  T  T  T
0.3333333333333357  0.6666666666666643  0.3405736018427134  T  T  T

0.00000000E+00  0.00000000E+00  0.00000000E+00
0.00000000E+00  0.00000000E+00  0.00000000E+00
0.00000000E+00  0.00000000E+00  0.00000000E+00
0.00000000E+00  0.00000000E+00  0.00000000E+00
0.00000000E+00  0.00000000E+00  0.00000000E+00
0.00000000E+00  0.00000000E+00  0.00000000E+00
0.00000000E+00  0.00000000E+00  0.00000000E+00
0.00000000E+00  0.00000000E+00  0.00000000E+00
0.00000000E+00  0.00000000E+00  0.00000000E+00
