Sc4N3 (n=3)                             
   1.00000000000000     
     3.1994458153103098    0.0000000000000000    0.0000000000000000
    -1.5997229076551549    2.7708013542670291   -0.0000000000000001
    -0.0000000000000001    0.0000000000000001   33.3059315842929209
   Sc   N 
     4     3
Selective dynamics
Direct
  0.0000000000000000  0.0000000000000000  0.9863538714690417   T   T   T
  0.6666666666666643  0.3333333333333357  0.0622887390973298   T   T   T
  0.3333333333333357  0.6666666666666643  0.1377112609026730   T   T   T
  0.0000000000000000  0.0000000000000000  0.2136461285309612   T   T   T
  0.3333333333333357  0.6666666666666643  0.0193047150798502   T   T   T
  0.0000000000000000  0.0000000000000000  0.1000000000000014   T   T   T
  0.6666666666666643  0.3333333333333357  0.1806952849201456   T   T   T
 
  0.00000000E+00  0.00000000E+00  0.00000000E+00
  0.00000000E+00  0.00000000E+00  0.00000000E+00
  0.00000000E+00  0.00000000E+00  0.00000000E+00
  0.00000000E+00  0.00000000E+00  0.00000000E+00
  0.00000000E+00  0.00000000E+00  0.00000000E+00
  0.00000000E+00  0.00000000E+00  0.00000000E+00
  0.00000000E+00  0.00000000E+00  0.00000000E+00
