Sc4C3 (n=3)                             
   1.00000000000000     
     3.3942421353271559    0.0000000000000001    0.0000000000000000
    -1.6971210676635780    2.9394999160685620   -0.0000000000000002
     0.0000000000000006   -0.0000000000000001   29.4400768741753218
   Sc   C 
     4     3
Selective dynamics
Direct
  0.0000000000000000  0.0000000000000000  0.9723929653679841   T   T   T
  0.6666666666666643  0.3333333333333357  0.0565386461403073   T   T   T
  0.3333333333333357  0.6666666666666643  0.1434613538596956   T   T   T
  0.0000000000000000  0.0000000000000000  0.2276070346320187   T   T   T
  0.3333333333333357  0.6666666666666643  0.0033408158247441   T   T   T
  0.0000000000000000  0.0000000000000000  0.1000000000000014   T   T   T
  0.6666666666666643  0.3333333333333357  0.1966591841752516   T   T   T
 
  0.00000000E+00  0.00000000E+00  0.00000000E+00
  0.00000000E+00  0.00000000E+00  0.00000000E+00
  0.00000000E+00  0.00000000E+00  0.00000000E+00
  0.00000000E+00  0.00000000E+00  0.00000000E+00
  0.00000000E+00  0.00000000E+00  0.00000000E+00
  0.00000000E+00  0.00000000E+00  0.00000000E+00
  0.00000000E+00  0.00000000E+00  0.00000000E+00
