Ta4C3 (n=3)                             
   1.00000000000000     
     3.1211307888220134    0.0000000000000000    0.0000000000000000
    -1.5605653944110067    2.7029785517877416    0.0000000000000000
     0.0000000000000000   -0.0000000000000005   34.6457399646385653
   Ta   C 
     4     3
Selective dynamics
Direct
  0.0000000000000000  0.0000000000000000 -0.0102838299398764   T   T   T
  0.6666666666666643  0.3333333333333357  0.0614033146175695   T   T   T
  0.3333333333333357  0.6666666666666643  0.1385966853824334   T   T   T
  0.0000000000000000  0.0000000000000000  0.2102838299398792   T   T   T
  0.3333333333333357  0.6666666666666643  0.0235820724666095   T   T   T
  0.0000000000000000  0.0000000000000000  0.1000000000000014   T   T   T
  0.6666666666666643  0.3333333333333357  0.1764179275333863   T   T   T
 
  0.00000000E+00  0.00000000E+00  0.00000000E+00
  0.00000000E+00  0.00000000E+00  0.00000000E+00
  0.00000000E+00  0.00000000E+00  0.00000000E+00
  0.00000000E+00  0.00000000E+00  0.00000000E+00
  0.00000000E+00  0.00000000E+00  0.00000000E+00
  0.00000000E+00  0.00000000E+00  0.00000000E+00
  0.00000000E+00  0.00000000E+00  0.00000000E+00
