Hf4C3 (n=3)                             
   1.00000000000000     
     3.2859891626631859    0.0000000000000000    0.0000000000000000
    -1.6429945813315929    2.8457500916813223   -0.0000000000000001
    -0.0000000000000003    0.0000000000000017   31.2565847844531852
   Hf   C 
     4     3
Selective dynamics
Direct
  0.0000000000000000  0.0000000000000000 -0.0242984961003154   T   T   T
  0.6666666666666643  0.3333333333333357  0.0587525709384294   T   T   T
  0.3333333333333357  0.6666666666666643  0.1412474290615735   T   T   T
  0.0000000000000000  0.0000000000000000  0.2242984961003183   T   T   T
  0.3333333333333357  0.6666666666666643  0.0117453369887979   T   T   T
  0.0000000000000000  0.0000000000000000  0.1000000000000014   T   T   T
  0.6666666666666643  0.3333333333333357  0.1882546630111978   T   T   T
 
  0.00000000E+00  0.00000000E+00  0.00000000E+00
  0.00000000E+00  0.00000000E+00  0.00000000E+00
  0.00000000E+00  0.00000000E+00  0.00000000E+00
  0.00000000E+00  0.00000000E+00  0.00000000E+00
  0.00000000E+00  0.00000000E+00  0.00000000E+00
  0.00000000E+00  0.00000000E+00  0.00000000E+00
  0.00000000E+00  0.00000000E+00  0.00000000E+00
