Mo4C3 (n=3)                             
   1.00000000000000     
     3.0801240064061952    0.0000000000000000    0.0000000000000000
    -1.5400620032030976    2.6674656364439024    0.0000000000000000
    -0.0000000000000002   -0.0000000000000004   35.5350578021040704
   Mo   C 
     4     3
Selective dynamics
Direct
  0.0000000000000000  0.0000000000000000  0.9975381555189375   T   T   T
  0.6666666666666643  0.3333333333333357  0.0633294962202936   T   T   T
  0.3333333333333357  0.6666666666666643  0.1366705037797092   T   T   T
  0.0000000000000000  0.0000000000000000  0.2024618444810653   T   T   T
  0.3333333333333357  0.6666666666666643  0.0256586631757330   T   T   T
  0.0000000000000000  0.0000000000000000  0.1000000000000014   T   T   T
  0.6666666666666643  0.3333333333333357  0.1743413368242628   T   T   T
 
  0.00000000E+00  0.00000000E+00  0.00000000E+00
  0.00000000E+00  0.00000000E+00  0.00000000E+00
  0.00000000E+00  0.00000000E+00  0.00000000E+00
  0.00000000E+00  0.00000000E+00  0.00000000E+00
  0.00000000E+00  0.00000000E+00  0.00000000E+00
  0.00000000E+00  0.00000000E+00  0.00000000E+00
  0.00000000E+00  0.00000000E+00  0.00000000E+00
