Zr4N3 (n=3)                             
   1.00000000000000     
     3.2387070103100517    0.0000000000000000    0.0000000000000000
    -1.6193535051550259    2.8048025465521529    0.0000000000000000
    -0.0000000000000001   -0.0000000000000004   31.7578293767182522
   Zr   N 
     4     3
Selective dynamics
Direct
  0.0000000000000000  0.0000000000000000  0.9755248031091753   T   T   T
  0.6666666666666643  0.3333333333333357  0.0564700775625410   T   T   T
  0.3333333333333357  0.6666666666666643  0.1435299224374618   T   T   T
  0.0000000000000000  0.0000000000000000  0.2244751968908275   T   T   T
  0.3333333333333357  0.6666666666666643  0.0157115941810724   T   T   T
  0.0000000000000000  0.0000000000000000  0.1000000000000014   T   T   T
  0.6666666666666643  0.3333333333333357  0.1842884058189234   T   T   T
 
  0.00000000E+00  0.00000000E+00  0.00000000E+00
  0.00000000E+00  0.00000000E+00  0.00000000E+00
  0.00000000E+00  0.00000000E+00  0.00000000E+00
  0.00000000E+00  0.00000000E+00  0.00000000E+00
  0.00000000E+00  0.00000000E+00  0.00000000E+00
  0.00000000E+00  0.00000000E+00  0.00000000E+00
  0.00000000E+00  0.00000000E+00  0.00000000E+00
