Zr4C3 (n=3)                             
   1.00000000000000     
     3.3509973035059613    0.0000000000000000    0.0000000000000000
    -1.6754986517529806    2.9020487931092056    0.0000000000000000
     0.0000000000000000    0.0000000000000004   30.1977683212653787
   Zr   C 
     4     3
Selective dynamics
Direct
  0.0000000000000000  0.0000000000000000  0.9701656466089786   T   T   T
  0.6666666666666643  0.3333333333333357  0.0569268517641861   T   T   T
  0.3333333333333357  0.6666666666666643  0.1430731482358168   T   T   T
  0.0000000000000000  0.0000000000000000  0.2298343533910241   T   T   T
  0.3333333333333357  0.6666666666666643  0.0069691669614690   T   T   T
  0.0000000000000000  0.0000000000000000  0.1000000000000014   T   T   T
  0.6666666666666643  0.3333333333333357  0.1930308330385268   T   T   T
 
  0.00000000E+00  0.00000000E+00  0.00000000E+00
  0.00000000E+00  0.00000000E+00  0.00000000E+00
  0.00000000E+00  0.00000000E+00  0.00000000E+00
  0.00000000E+00  0.00000000E+00  0.00000000E+00
  0.00000000E+00  0.00000000E+00  0.00000000E+00
  0.00000000E+00  0.00000000E+00  0.00000000E+00
  0.00000000E+00  0.00000000E+00  0.00000000E+00
