Nb4C3 (n=3)                             
   1.00000000000000     
     3.1427061586729557    0.0000000000000000    0.0000000000000000
    -1.5713530793364778    2.7216633701922905    0.0000000000000000
     0.0000000000000000    0.0000000000000002   34.1598106629060467
   Nb   C 
     4     3
Selective dynamics
Direct
  0.0000000000000000  0.0000000000000000  0.9878980115165419   T   T   T
  0.6666666666666643  0.3333333333333357  0.0607981495526886   T   T   T
  0.3333333333333357  0.6666666666666643  0.1392018504473143   T   T   T
  0.0000000000000000  0.0000000000000000  0.2121019884834610   T   T   T
  0.3333333333333357  0.6666666666666643  0.0214846166161777   T   T   T
  0.0000000000000000  0.0000000000000000  0.1000000000000014   T   T   T
  0.6666666666666643  0.3333333333333357  0.1785153833838180   T   T   T
 
  0.00000000E+00  0.00000000E+00  0.00000000E+00
  0.00000000E+00  0.00000000E+00  0.00000000E+00
  0.00000000E+00  0.00000000E+00  0.00000000E+00
  0.00000000E+00  0.00000000E+00  0.00000000E+00
  0.00000000E+00  0.00000000E+00  0.00000000E+00
  0.00000000E+00  0.00000000E+00  0.00000000E+00
  0.00000000E+00  0.00000000E+00  0.00000000E+00
