Cr4N3 (n=3)                             
   1.00000000000000     
     2.9398060064374376    0.0000000000000000    0.0000000000000000
    -1.4699030032187188    2.5459466837919118    0.0000000000000000
     0.0000000000000000    0.0000000000000006   35.6120036049249435
   Cr   N 
     4     3
Selective dynamics
Direct
  0.0000000000000000  0.0000000000000000  0.0072539875892612   T   T   T
  0.6666666666666643  0.3333333333333357  0.0689622591488899   T   T   T
  0.3333333333333357  0.6666666666666643  0.1310377408511129   T   T   T
  0.0000000000000000  0.0000000000000000  0.1927460124107345   T   T   T
  0.3333333333333357  0.6666666666666643  0.0314247605827086   T   T   T
  0.0000000000000000  0.0000000000000000  0.1000000000000014   T   T   T
  0.6666666666666643  0.3333333333333357  0.1685752394172871   T   T   T
 
  0.00000000E+00  0.00000000E+00  0.00000000E+00
  0.00000000E+00  0.00000000E+00  0.00000000E+00
  0.00000000E+00  0.00000000E+00  0.00000000E+00
  0.00000000E+00  0.00000000E+00  0.00000000E+00
  0.00000000E+00  0.00000000E+00  0.00000000E+00
  0.00000000E+00  0.00000000E+00  0.00000000E+00
  0.00000000E+00  0.00000000E+00  0.00000000E+00
