Ti4N3 (n=3)                             
   1.00000000000000     
     2.9763571932650326    0.0000000000000000    0.0000000000000000
    -1.4881785966325163    2.5776009401485616    0.0000000000000000
     0.0000000000000000    0.0000000000000003   35.9190382549956055
   Ti   N 
     4     3
Selective dynamics
Direct
  0.0000000000000000  0.0000000000000000  0.9990589080483078   T   T   T
  0.6666666666666643  0.3333333333333357  0.0645997035857275   T   T   T
  0.3333333333333357  0.6666666666666643  0.1354002964142754   T   T   T
  0.0000000000000000  0.0000000000000000  0.2009410919516952   T   T   T
  0.3333333333333357  0.6666666666666643  0.0303956577563915   T   T   T
  0.0000000000000000  0.0000000000000000  0.1000000000000014   T   T   T
  0.6666666666666643  0.3333333333333357  0.1696043422436042   T   T   T
 
  0.00000000E+00  0.00000000E+00  0.00000000E+00
  0.00000000E+00  0.00000000E+00  0.00000000E+00
  0.00000000E+00  0.00000000E+00  0.00000000E+00
  0.00000000E+00  0.00000000E+00  0.00000000E+00
  0.00000000E+00  0.00000000E+00  0.00000000E+00
  0.00000000E+00  0.00000000E+00  0.00000000E+00
  0.00000000E+00  0.00000000E+00  0.00000000E+00
