Ti4C3 (n=3)                             
   1.00000000000000     
     3.0957485791332719    0.0000000000000000    0.0000000000000000
    -1.5478742895666360    2.6809969133359997    0.0000000000000000
     0.0000000000000001   -0.0000000000000008   35.2161935912824688
   Ti   C 
     4     3
Selective dynamics
Direct
  0.0000000000000000  0.0000000000000000 -0.0014294565626540   T   T   T
  0.6666666666666643  0.3333333333333357  0.0663683065493156   T   T   T
  0.3333333333333357  0.6666666666666643  0.1336316934506872   T   T   T
  0.0000000000000000  0.0000000000000000  0.2014294565626568   T   T   T
  0.3333333333333357  0.6666666666666643  0.0272367043268126   T   T   T
  0.0000000000000000  0.0000000000000000  0.1000000000000014   T   T   T
  0.6666666666666643  0.3333333333333357  0.1727632956731832   T   T   T
 
  0.00000000E+00  0.00000000E+00  0.00000000E+00
  0.00000000E+00  0.00000000E+00  0.00000000E+00
  0.00000000E+00  0.00000000E+00  0.00000000E+00
  0.00000000E+00  0.00000000E+00  0.00000000E+00
  0.00000000E+00  0.00000000E+00  0.00000000E+00
  0.00000000E+00  0.00000000E+00  0.00000000E+00
  0.00000000E+00  0.00000000E+00  0.00000000E+00
