Cr4C3 (n=3)                             
   1.00000000000000     
     2.9005033120913790    0.0000000000000000    0.0000000000000000
    -1.4502516560456895    2.5119095520266872    0.0000000000000001
    -0.0000000000000001    0.0000000000000006   37.8003571983112039
   Cr   C 
     4     3
Selective dynamics
Direct
  0.0000000000000000  0.0000000000000000  0.0123804947023148   T   T   T
  0.6666666666666643  0.3333333333333357  0.0687145552506739   T   T   T
  0.3333333333333357  0.6666666666666643  0.1312854447493289   T   T   T
  0.0000000000000000  0.0000000000000000  0.1876195052976881   T   T   T
  0.3333333333333357  0.6666666666666643  0.0355260912297550   T   T   T
  0.0000000000000000  0.0000000000000000  0.1000000000000014   T   T   T
  0.6666666666666643  0.3333333333333357  0.1644739087702407   T   T   T
 
  0.00000000E+00  0.00000000E+00  0.00000000E+00
  0.00000000E+00  0.00000000E+00  0.00000000E+00
  0.00000000E+00  0.00000000E+00  0.00000000E+00
  0.00000000E+00  0.00000000E+00  0.00000000E+00
  0.00000000E+00  0.00000000E+00  0.00000000E+00
  0.00000000E+00  0.00000000E+00  0.00000000E+00
  0.00000000E+00  0.00000000E+00  0.00000000E+00
