Ta4N3 (n=3)                             
   1.00000000000000     
     3.0381130274017618    0.0000000000000000    0.0000000000000000
    -1.5190565137008809    2.6310830613834275    0.0000000000000000
     0.0000000000000001    0.0000000000000002   36.1108077252363060
   Ta   N 
     4     3
Selective dynamics
Direct
  0.0000000000000000  0.0000000000000000  0.9912183815794074   T   T   T
  0.6666666666666643  0.3333333333333357  0.0631909655960637   T   T   T
  0.3333333333333357  0.6666666666666643  0.1368090344039462   T   T   T
  0.0000000000000000  0.0000000000000000  0.2087816184205954   T   T   T
  0.3333333333333357  0.6666666666666643  0.0261785411483056   T   T   T
  0.0000000000000000  0.0000000000000000  0.1000000000000014   T   T   T
  0.6666666666666643  0.3333333333333357  0.1738214588516901   T   T   T
 
  0.00000000E+00  0.00000000E+00  0.00000000E+00
  0.00000000E+00  0.00000000E+00  0.00000000E+00
  0.00000000E+00  0.00000000E+00  0.00000000E+00
  0.00000000E+00  0.00000000E+00  0.00000000E+00
  0.00000000E+00  0.00000000E+00  0.00000000E+00
  0.00000000E+00  0.00000000E+00  0.00000000E+00
  0.00000000E+00  0.00000000E+00  0.00000000E+00
