Mo4N3 (n=3)                             
   1.00000000000000     
     2.8018646994155159    0.0000000000000000    0.0000000000000000
    -1.4009323497077579    2.4264860076932178    0.0000000000000000
    -0.0000000000000001    0.0000000000000000   41.4551942150638624
   Mo   N 
     4     3
Selective dynamics
Direct
  0.0000000000000000  0.0000000000000000  0.9937950021629056   T   T   T
  0.6666666666666643  0.3333333333333357  0.0647889168285563   T   T   T
  0.3333333333333357  0.6666666666666643  0.1352110831714465   T   T   T
  0.0000000000000000  0.0000000000000000  0.2062049978370973   T   T   T
  0.3333333333333357  0.6666666666666643  0.0269445278094002   T   T   T
  0.0000000000000000  0.0000000000000000  0.1000000000000014   T   T   T
  0.6666666666666643  0.3333333333333357  0.1730554721905956   T   T   T
 
  0.00000000E+00  0.00000000E+00  0.00000000E+00
  0.00000000E+00  0.00000000E+00  0.00000000E+00
  0.00000000E+00  0.00000000E+00  0.00000000E+00
  0.00000000E+00  0.00000000E+00  0.00000000E+00
  0.00000000E+00  0.00000000E+00  0.00000000E+00
  0.00000000E+00  0.00000000E+00  0.00000000E+00
  0.00000000E+00  0.00000000E+00  0.00000000E+00
