Hf4N3 (n=3)                             
   1.00000000000000     
     3.1704048769705442    0.0000000000000000    0.0000000000000000
    -1.5852024384852721    2.7456511639351899    0.0000000000000000
     0.0000000000000000   -0.0000000000000004   33.5518503804660355
   Hf   N 
     4     3
Selective dynamics
Direct
  0.0000000000000000  0.0000000000000000  0.9830773495608067   T   T   T
  0.6666666666666643  0.3333333333333357  0.0589888030632566   T   T   T
  0.3333333333333357  0.6666666666666643  0.1410111969367462   T   T   T
  0.0000000000000000  0.0000000000000000  0.2169226504391961   T   T   T
  0.3333333333333357  0.6666666666666643  0.0220816546637337   T   T   T
  0.0000000000000000  0.0000000000000000  0.1000000000000014   T   T   T
  0.6666666666666643  0.3333333333333357  0.1779183453362620   T   T   T
 
  0.00000000E+00  0.00000000E+00  0.00000000E+00
  0.00000000E+00  0.00000000E+00  0.00000000E+00
  0.00000000E+00  0.00000000E+00  0.00000000E+00
  0.00000000E+00  0.00000000E+00  0.00000000E+00
  0.00000000E+00  0.00000000E+00  0.00000000E+00
  0.00000000E+00  0.00000000E+00  0.00000000E+00
  0.00000000E+00  0.00000000E+00  0.00000000E+00
