Nb4N3 (n=3)                             
   1.00000000000000     
     3.1695393347303931    0.0000000000000000    0.0000000000000000
    -1.5847696673651965    2.7449015822962428    0.0000000000000000
     0.0000000000000000    0.0000000000000001   33.5623449698628775
   Nb   N 
     4     3
Selective dynamics
Direct
  0.0000000000000000  0.0000000000000000  0.9911156278894282   T   T   T
  0.6666666666666643  0.3333333333333357  0.0591527879169860   T   T   T
  0.3333333333333357  0.6666666666666643  0.1408472120830169   T   T   T
  0.0000000000000000  0.0000000000000000  0.2088843721105746   T   T   T
  0.3333333333333357  0.6666666666666643  0.0225124643249828   T   T   T
  0.0000000000000000  0.0000000000000000  0.1000000000000014   T   T   T
  0.6666666666666643  0.3333333333333357  0.1774875356750130   T   T   T
 
  0.00000000E+00  0.00000000E+00  0.00000000E+00
  0.00000000E+00  0.00000000E+00  0.00000000E+00
  0.00000000E+00  0.00000000E+00  0.00000000E+00
  0.00000000E+00  0.00000000E+00  0.00000000E+00
  0.00000000E+00  0.00000000E+00  0.00000000E+00
  0.00000000E+00  0.00000000E+00  0.00000000E+00
  0.00000000E+00  0.00000000E+00  0.00000000E+00
