Hf3C2  (n=2)
1.00000000000000
3.2559734877917070  0.0000000000000000  -0.0000000000000001
-1.6279867438958535  2.8197557546146506  -0.0000000000000001
0.0000000000000005  -0.0000000000000008  32.3974018844073726
Hf  C  H
3  2  2
Selective  dynamics
Direct
-0.0000000000000000  -0.0000000000000000  0.0369185407771346  T  T  T
0.6666666666666643  0.3333333333333357  0.1168530908245366  T  T  T
0.3333333333333357  0.6666666666666643  0.1958641913136639  T  T  T
0.3333333333333357  0.6666666666666643  0.0749827047583301  T  T  T
-0.0000000000000000  -0.0000000000000000  0.1597548768853836  T  T  T
0.3333333333333357  0.6666666666666643  0.0000000000000000  T  T  T
0.6666666666666643  0.3333333333333357  0.2283331827286954  T  T  T

0.00000000E+00  0.00000000E+00  0.00000000E+00
0.00000000E+00  0.00000000E+00  0.00000000E+00
0.00000000E+00  0.00000000E+00  0.00000000E+00
0.00000000E+00  0.00000000E+00  0.00000000E+00
0.00000000E+00  0.00000000E+00  0.00000000E+00
0.00000000E+00  0.00000000E+00  0.00000000E+00
0.00000000E+00  0.00000000E+00  0.00000000E+00
