Mo3C2  (n=2)
1.00000000000000
3.0362212178145342  -0.0000000000000001  0.0000000000000000
-1.5181106089072673  2.6294447061998225  0.0000000000000000
-0.0000000000000001  0.0000000000000003  32.1769523407584188
Mo  C  H
3  2  2
Selective  dynamics
Direct
0.0000000000000000  0.0000000000000000  0.0361076627947159  T  T  T
0.6666666666666643  0.3333333333333357  0.1137177196239930  T  T  T
0.3333333333333357  0.6666666666666643  0.1886408612827476  T  T  T
0.3333333333333357  0.6666666666666643  0.0722837533713287  T  T  T
0.0000000000000000  0.0000000000000000  0.1543611144297739  T  T  T
0.3333333333333357  0.6666666666666643  0.0000000000000000  T  T  T
0.6666666666666643  0.3333333333333357  0.2230463676221879  T  T  T

0.00000000E+00  0.00000000E+00  0.00000000E+00
0.00000000E+00  0.00000000E+00  0.00000000E+00
0.00000000E+00  0.00000000E+00  0.00000000E+00
0.00000000E+00  0.00000000E+00  0.00000000E+00
0.00000000E+00  0.00000000E+00  0.00000000E+00
0.00000000E+00  0.00000000E+00  0.00000000E+00
0.00000000E+00  0.00000000E+00  0.00000000E+00
