Zr3C2  (n=2)
1.00000000000000
3.3124376738349337  0.0000000000000000  0.0000000000000001
-1.6562188369174669  2.8686551741555486  0.0000000000000000
0.0000000000000000  -0.0000000000000012  32.4920520218363720
Zr  C  H
3  2  2
Selective  dynamics
Direct
0.0000000000000000  0.0000000000000000  0.0367735837407381  T  T  T
0.6666666666666643  0.3333333333333357  0.1179044159922389  T  T  T
0.3333333333333357  0.6666666666666643  0.1980412019223047  T  T  T
0.3333333333333357  0.6666666666666643  0.0750889060334331  T  T  T
-0.0000000000000000  -0.0000000000000000  0.1613070639225553  T  T  T
0.3333333333333357  0.6666666666666643  0.0000000000000000  T  T  T
0.6666666666666643  0.3333333333333357  0.2305810669268077  T  T  T

0.00000000E+00  0.00000000E+00  0.00000000E+00
0.00000000E+00  0.00000000E+00  0.00000000E+00
0.00000000E+00  0.00000000E+00  0.00000000E+00
0.00000000E+00  0.00000000E+00  0.00000000E+00
0.00000000E+00  0.00000000E+00  0.00000000E+00
0.00000000E+00  0.00000000E+00  0.00000000E+00
0.00000000E+00  0.00000000E+00  0.00000000E+00
