Nb3N2  (n=2)
1.00000000000000
2.9865352585315086  0.0000000000000001  0.0000000000000000
-1.4932676292657543  2.5864154032712130  0.0000000000000000
-0.0000000000000001  0.0000000000000000  32.8006278079834175
Nb  N  H
3  2  2
Selective  dynamics
Direct
0.0000000000000000  -0.0000000000000000  0.0355552154342057  T  T  T
0.6666666666666643  0.3333333333333357  0.1206695559199704  T  T  T
0.3333333333333357  0.6666666666666643  0.2046910613381732  T  T  T
0.3333333333333357  0.6666666666666643  0.0765543234200453  T  T  T
-0.0000000000000000  0.0000000000000000  0.1639718864843696  T  T  T
0.3333333333333357  0.6666666666666643  0.0000000000000000  T  T  T
0.6666666666666643  0.3333333333333357  0.2378194665556007  T  T  T

0.00000000E+00  0.00000000E+00  0.00000000E+00
0.00000000E+00  0.00000000E+00  0.00000000E+00
0.00000000E+00  0.00000000E+00  0.00000000E+00
0.00000000E+00  0.00000000E+00  0.00000000E+00
0.00000000E+00  0.00000000E+00  0.00000000E+00
0.00000000E+00  0.00000000E+00  0.00000000E+00
0.00000000E+00  0.00000000E+00  0.00000000E+00
