Sc3C2  (n=2)
1.00000000000000
3.2360483549787338  0.0000000000000000  0.0000000000000000
-1.6180241774893669  2.8025000834308771  0.0000000000000001
-0.0000000000000002  0.0000000000000001  32.6406051408766587
Sc  C  H
3  2  2
Selective  dynamics
Direct
0.0000000000000000  0.0000000000000000  0.0359975685457709  T  T  T
0.6666666666666643  0.3333333333333357  0.1194939138973087  T  T  T
0.3333333333333357  0.6666666666666643  0.2020514647272570  T  T  T
0.3333333333333357  0.6666666666666643  0.0765217932772037  T  T  T
0.0000000000000000  -0.0000000000000000  0.1630941621336145  T  T  T
0.3333333333333357  0.6666666666666643  0.0000000000000000  T  T  T
0.6666666666666643  0.3333333333333357  0.2340828274445236  T  T  T

0.00000000E+00  0.00000000E+00  0.00000000E+00
0.00000000E+00  0.00000000E+00  0.00000000E+00
0.00000000E+00  0.00000000E+00  0.00000000E+00
0.00000000E+00  0.00000000E+00  0.00000000E+00
0.00000000E+00  0.00000000E+00  0.00000000E+00
0.00000000E+00  0.00000000E+00  0.00000000E+00
0.00000000E+00  0.00000000E+00  0.00000000E+00
