Cr3C2  (n=2)
1.00000000000000
2.8055927254929363  0.0000000000000000  0.0000000000000000
-1.4027963627464681  2.4297145729532286  0.0000000000000000
-0.0000000000000006  -0.0000000000000007  31.7298131437548570
Cr  C  H
3  2  2
Selective  dynamics
Direct
-0.0000000000000000  -0.0000000000000000  0.0338953056807781  T  T  T
0.6666666666666643  0.3333333333333357  0.1082091035152971  T  T  T
0.3333333333333357  0.6666666666666643  0.1809720328976773  T  T  T
0.3333333333333357  0.6666666666666643  0.0692007548566300  T  T  T
-0.0000000000000000  -0.0000000000000000  0.1468272765790491  T  T  T
0.3333333333333357  0.6666666666666643  0.0000000000000000  T  T  T
0.6666666666666643  0.3333333333333357  0.2120974716511823  T  T  T

0.00000000E+00  0.00000000E+00  0.00000000E+00
0.00000000E+00  0.00000000E+00  0.00000000E+00
0.00000000E+00  0.00000000E+00  0.00000000E+00
0.00000000E+00  0.00000000E+00  0.00000000E+00
0.00000000E+00  0.00000000E+00  0.00000000E+00
0.00000000E+00  0.00000000E+00  0.00000000E+00
0.00000000E+00  0.00000000E+00  0.00000000E+00
