Sc3N2  (n=2)
1.00000000000000
3.1619642388185101  -0.0000000000000001  0.0000000000000000
-1.5809821194092550  2.7383413567725570  0.0000000000000000
0.0000000000000000  -0.0000000000000003  32.3424440751132423
Sc  N  H
3  2  2
Selective  dynamics
Direct
-0.0000000000000000  0.0000000000000000  0.0365585571500908  T  T  T
0.6666666666666643  0.3333333333333357  0.1155721325136632  T  T  T
0.3333333333333357  0.6666666666666643  0.1941468939145817  T  T  T
0.3333333333333357  0.6666666666666643  0.0755003707489791  T  T  T
0.0000000000000000  -0.0000000000000000  0.1582859086858097  T  T  T
0.3333333333333357  0.6666666666666643  0.0000000000000000  T  T  T
0.6666666666666643  0.3333333333333357  0.2270219300081618  T  T  T

0.00000000E+00  0.00000000E+00  0.00000000E+00
0.00000000E+00  0.00000000E+00  0.00000000E+00
0.00000000E+00  0.00000000E+00  0.00000000E+00
0.00000000E+00  0.00000000E+00  0.00000000E+00
0.00000000E+00  0.00000000E+00  0.00000000E+00
0.00000000E+00  0.00000000E+00  0.00000000E+00
0.00000000E+00  0.00000000E+00  0.00000000E+00
