Ti3C2  (n=2)
1.00000000000000
3.0417111300782640  0.0000000000000000  0.0000000000000000
-1.5208555650391320  2.6341991096673185  0.0000000000000000
-0.0000000000000003  0.0000000000000003  31.9344562978002173
Ti  C  H
3  2  2
Selective  dynamics
Direct
0.0000000000000000  0.0000000000000000  0.0354880373286256  T  T  T
0.6666666666666643  0.3333333333333357  0.1109466694457013  T  T  T
0.3333333333333357  0.6666666666666643  0.1856348414756212  T  T  T
0.3333333333333357  0.6666666666666643  0.0713508445170761  T  T  T
0.0000000000000000  0.0000000000000000  0.1514518251328320  T  T  T
0.3333333333333357  0.6666666666666643  0.0000000000000000  T  T  T
0.6666666666666643  0.3333333333333357  0.2171465276607165  T  T  T

0.00000000E+00  0.00000000E+00  0.00000000E+00
0.00000000E+00  0.00000000E+00  0.00000000E+00
0.00000000E+00  0.00000000E+00  0.00000000E+00
0.00000000E+00  0.00000000E+00  0.00000000E+00
0.00000000E+00  0.00000000E+00  0.00000000E+00
0.00000000E+00  0.00000000E+00  0.00000000E+00
0.00000000E+00  0.00000000E+00  0.00000000E+00
