Cr3N2  (n=2)
1.00000000000000
2.7442732960070795  0.0000000000000000  0.0000000000000000
-1.3721366480035397  2.3766103892711610  0.0000000000000000
0.0000000000000000  0.0000000000000000  32.0584401076501209
Cr  N  H
3  2  2
Selective  dynamics
Direct
0.0000000000000000  0.0000000000000000  0.0333865779656075  T  T  T
0.6666666666666643  0.3333333333333357  0.1116275106066012  T  T  T
0.3333333333333357  0.6666666666666643  0.1893038290417409  T  T  T
0.3333333333333357  0.6666666666666643  0.0715949320966665  T  T  T
0.0000000000000000  -0.0000000000000000  0.1523131826288957  T  T  T
0.3333333333333357  0.6666666666666643  0.0000000000000000  T  T  T
0.6666666666666643  0.3333333333333357  0.2201741595644812  T  T  T

0.00000000E+00  0.00000000E+00  0.00000000E+00
0.00000000E+00  0.00000000E+00  0.00000000E+00
0.00000000E+00  0.00000000E+00  0.00000000E+00
0.00000000E+00  0.00000000E+00  0.00000000E+00
0.00000000E+00  0.00000000E+00  0.00000000E+00
0.00000000E+00  0.00000000E+00  0.00000000E+00
0.00000000E+00  0.00000000E+00  0.00000000E+00
