Mo3N2  (n=2)
1.00000000000000
2.8002711798477731  0.0000000000000000  0.0000000000000000
-1.4001355899238865  2.4251059792903145  0.0000000000000001
0.0000000000000004  0.0000000000000001  33.2087547734483195
Mo  N  H
3  2  2
Selective  dynamics
Direct
0.0000000000000000  0.0000000000000000  0.0353841282736304  T  T  T
0.6666666666666643  0.3333333333333357  0.1249115396445141  T  T  T
0.3333333333333357  0.6666666666666643  0.2125303126136859  T  T  T
0.3333333333333357  0.6666666666666643  0.0780067340181814  T  T  T
0.0000000000000000  0.0000000000000000  0.1698355616526714  T  T  T
0.3333333333333357  0.6666666666666643  0.0000000000000000  T  T  T
0.6666666666666643  0.3333333333333357  0.2471864672267549  T  T  T

0.00000000E+00  0.00000000E+00  0.00000000E+00
0.00000000E+00  0.00000000E+00  0.00000000E+00
0.00000000E+00  0.00000000E+00  0.00000000E+00
0.00000000E+00  0.00000000E+00  0.00000000E+00
0.00000000E+00  0.00000000E+00  0.00000000E+00
0.00000000E+00  0.00000000E+00  0.00000000E+00
0.00000000E+00  0.00000000E+00  0.00000000E+00
