Ta3N2  (n=2)
1.00000000000000
2.9602645007053967  -0.0000000000000001  0.0000000000000000
-1.4801322503526984  2.5636642595991352  0.0000000000000000
-0.0000000000000003  0.0000000000000007  32.7805713275657666
Ta  N  H
3  2  2
Selective  dynamics
Direct
-0.0000000000000000  -0.0000000000000000  0.0349368159344117  T  T  T
0.6666666666666643  0.3333333333333357  0.1202202996474045  T  T  T
0.3333333333333357  0.6666666666666643  0.2046212478394222  T  T  T
0.3333333333333357  0.6666666666666643  0.0763840872724104  T  T  T
0.0000000000000000  0.0000000000000000  0.1637071984978858  T  T  T
0.3333333333333357  0.6666666666666643  0.0000000000000000  T  T  T
0.6666666666666643  0.3333333333333357  0.2373531336539868  T  T  T

0.00000000E+00  0.00000000E+00  0.00000000E+00
0.00000000E+00  0.00000000E+00  0.00000000E+00
0.00000000E+00  0.00000000E+00  0.00000000E+00
0.00000000E+00  0.00000000E+00  0.00000000E+00
0.00000000E+00  0.00000000E+00  0.00000000E+00
0.00000000E+00  0.00000000E+00  0.00000000E+00
0.00000000E+00  0.00000000E+00  0.00000000E+00
