Nb3C2  (n=2)
1.00000000000000
3.0948830239101839  0.0000000000000000  0.0000000000000000
-1.5474415119550917  2.6802473205461492  -0.0000000000000001
0.0000000000000000  0.0000000000000004  32.3950251476473525
Nb  C  H
3  2  2
Selective  dynamics
Direct
0.0000000000000000  0.0000000000000000  0.0356187882817189  T  T  T
0.6666666666666643  0.3333333333333357  0.1162229581650424  T  T  T
0.3333333333333357  0.6666666666666643  0.1966939011955708  T  T  T
0.3333333333333357  0.6666666666666643  0.0749615012865785  T  T  T
-0.0000000000000000  -0.0000000000000000  0.1574932267151230  T  T  T
0.3333333333333357  0.6666666666666643  0.0000000000000000  T  T  T
0.6666666666666643  0.3333333333333357  0.2282765675884776  T  T  T

0.00000000E+00  0.00000000E+00  0.00000000E+00
0.00000000E+00  0.00000000E+00  0.00000000E+00
0.00000000E+00  0.00000000E+00  0.00000000E+00
0.00000000E+00  0.00000000E+00  0.00000000E+00
0.00000000E+00  0.00000000E+00  0.00000000E+00
0.00000000E+00  0.00000000E+00  0.00000000E+00
0.00000000E+00  0.00000000E+00  0.00000000E+00
