Hf3N2  (n=2)
1.00000000000000
3.1295345816550650  0.0000000000000002  0.0000000000000000
-1.5647672908275327  2.7102564498411459  0.0000000000000000
0.0000000000000000  0.0000000000000000  32.5117666948547210
Hf  N  H
3  2  2
Selective  dynamics
Direct
0.0000000000000000  -0.0000000000000000  0.0353468199613776  T  T  T
0.6666666666666643  0.3333333333333357  0.1182545760937080  T  T  T
0.3333333333333357  0.6666666666666643  0.1999796668995563  T  T  T
0.3333333333333357  0.6666666666666643  0.0781983065425212  T  T  T
-0.0000000000000000  0.0000000000000000  0.1584224987177055  T  T  T
0.3333333333333357  0.6666666666666643  0.0000000000000000  T  T  T
0.6666666666666643  0.3333333333333357  0.2310476316269680  T  T  T

0.00000000E+00  0.00000000E+00  0.00000000E+00
0.00000000E+00  0.00000000E+00  0.00000000E+00
0.00000000E+00  0.00000000E+00  0.00000000E+00
0.00000000E+00  0.00000000E+00  0.00000000E+00
0.00000000E+00  0.00000000E+00  0.00000000E+00
0.00000000E+00  0.00000000E+00  0.00000000E+00
0.00000000E+00  0.00000000E+00  0.00000000E+00
