Ti3N2  (n=2)
1.00000000000000
2.9284250554626041  0.0000000000000001  0.0000000000000000
-1.4642125277313021  2.5360904911328537  0.0000000000000000
0.0000000000000000  -0.0000000000000007  32.0646749817534555
Ti  N  H
3  2  2
Selective  dynamics
Direct
-0.0000000000000000  -0.0000000000000000  0.0349756284026316  T  T  T
0.6666666666666643  0.3333333333333357  0.1125971525253776  T  T  T
0.3333333333333357  0.6666666666666643  0.1893692765799114  T  T  T
0.3333333333333357  0.6666666666666643  0.0737467873711668  T  T  T
-0.0000000000000000  -0.0000000000000000  0.1514797392290910  T  T  T
0.3333333333333357  0.6666666666666643  0.0000000000000000  T  T  T
0.6666666666666643  0.3333333333333357  0.2203257942197649  T  T  T

0.00000000E+00  0.00000000E+00  0.00000000E+00
0.00000000E+00  0.00000000E+00  0.00000000E+00
0.00000000E+00  0.00000000E+00  0.00000000E+00
0.00000000E+00  0.00000000E+00  0.00000000E+00
0.00000000E+00  0.00000000E+00  0.00000000E+00
0.00000000E+00  0.00000000E+00  0.00000000E+00
0.00000000E+00  0.00000000E+00  0.00000000E+00
