Ta3C2  (n=2)
1.00000000000000
3.0727744249890159  -0.0000000000000001  0.0000000000000000
-1.5363872124945079  2.6611007122314607  0.0000000000000000
-0.0000000000000001  0.0000000000000001  32.3792774565794303
Ta  C  H
3  2  2
Selective  dynamics
Direct
0.0000000000000000  0.0000000000000000  0.0358532854841125  T  T  T
0.6666666666666643  0.3333333333333357  0.1165060691083059  T  T  T
0.3333333333333357  0.6666666666666643  0.1966500903369012  T  T  T
0.3333333333333357  0.6666666666666643  0.0755717716717032  T  T  T
0.0000000000000000  0.0000000000000000  0.1574440957240586  T  T  T
0.3333333333333357  0.6666666666666643  0.0000000000000000  T  T  T
0.6666666666666643  0.3333333333333357  0.2279012391945753  T  T  T

0.00000000E+00  0.00000000E+00  0.00000000E+00
0.00000000E+00  0.00000000E+00  0.00000000E+00
0.00000000E+00  0.00000000E+00  0.00000000E+00
0.00000000E+00  0.00000000E+00  0.00000000E+00
0.00000000E+00  0.00000000E+00  0.00000000E+00
0.00000000E+00  0.00000000E+00  0.00000000E+00
0.00000000E+00  0.00000000E+00  0.00000000E+00
