Zr3N2  (n=2)
1.00000000000000
3.1934972966899324  0.0000000000000000  0.0000000000000000
-1.5967486483449664  2.7656497859952323  0.0000000000000000
0.0000000000000001  0.0000000000000000  32.6089381550769772
Zr  N  H
3  2  2
Selective  dynamics
Direct
0.0000000000000000  -0.0000000000000000  0.0359241343958788  T  T  T
0.6666666666666643  0.3333333333333357  0.1191394210868246  T  T  T
0.3333333333333357  0.6666666666666643  0.2015608292747307  T  T  T
0.3333333333333357  0.6666666666666643  0.0780844420155413  T  T  T
0.0000000000000000  0.0000000000000000  0.1601302882717541  T  T  T
0.3333333333333357  0.6666666666666643  0.0000000000000000  T  T  T
0.6666666666666643  0.3333333333333357  0.2333390348036316  T  T  T

0.00000000E+00  0.00000000E+00  0.00000000E+00
0.00000000E+00  0.00000000E+00  0.00000000E+00
0.00000000E+00  0.00000000E+00  0.00000000E+00
0.00000000E+00  0.00000000E+00  0.00000000E+00
0.00000000E+00  0.00000000E+00  0.00000000E+00
0.00000000E+00  0.00000000E+00  0.00000000E+00
0.00000000E+00  0.00000000E+00  0.00000000E+00
