Zr4N3  (n=3)
1.00000000000000
3.3354212453527543  0.0000000000000000  0.0000000000000000
-1.6677106226763772  2.8885595318656856  -0.0000000000000001
-0.0000000000000005  -0.0000000000000008  36.2075016447038323
Zr  N  S
4  3  2
Selective  dynamics
Direct
0.0000000000000000  -0.0000000000000000  0.0451585359818299  T  T  T
0.6666666666666643  0.3333333333333357  0.1172605031182660  T  T  T
0.3333333333333357  0.6666666666666643  0.1926914164589006  T  T  T
0.0000000000000000  -0.0000000000000000  0.2646627889107038  T  T  T
0.3333333333333357  0.6666666666666643  0.0842986094069082  T  T  T
0.0000000000000000  -0.0000000000000000  0.1553065395400634  T  T  T
0.6666666666666643  0.3333333333333357  0.2277962003298524  T  T  T
0.3333333333333357  0.6666666666666643  0.0000000000000000  T  T  T
0.3333333333333357  0.6666666666666643  0.3095353486324618  T  T  T

0.00000000E+00  0.00000000E+00  0.00000000E+00
0.00000000E+00  0.00000000E+00  0.00000000E+00
0.00000000E+00  0.00000000E+00  0.00000000E+00
0.00000000E+00  0.00000000E+00  0.00000000E+00
0.00000000E+00  0.00000000E+00  0.00000000E+00
0.00000000E+00  0.00000000E+00  0.00000000E+00
0.00000000E+00  0.00000000E+00  0.00000000E+00
0.00000000E+00  0.00000000E+00  0.00000000E+00
0.00000000E+00  0.00000000E+00  0.00000000E+00
