Nb4N3  (n=3)
1.00000000000000
3.1738845944241492  0.0000000000000000  0.0000000000000000
-1.5869422972120744  2.7486646879167993  0.0000000000000000
0.0000000000000001  -0.0000000000000003  35.9994247113502581
Nb  N  S
4  3  2
Selective  dynamics
Direct
-0.0000000000000000  -0.0000000000000000  0.0457511356828792  T  T  T
0.6666666666666643  0.3333333333333357  0.1191312955893469  T  T  T
0.3333333333333357  0.6666666666666643  0.1894108303204554  T  T  T
0.0000000000000000  0.0000000000000000  0.2596542973083025  T  T  T
0.3333333333333357  0.6666666666666643  0.0825508136429618  T  T  T
0.0000000000000000  0.0000000000000000  0.1531411285488709  T  T  T
0.6666666666666643  0.3333333333333357  0.2235137504457600  T  T  T
0.3333333333333357  0.6666666666666643  0.0000000000000000  T  T  T
0.3333333333333357  0.6666666666666643  0.3055444579891370  T  T  T

0.00000000E+00  0.00000000E+00  0.00000000E+00
0.00000000E+00  0.00000000E+00  0.00000000E+00
0.00000000E+00  0.00000000E+00  0.00000000E+00
0.00000000E+00  0.00000000E+00  0.00000000E+00
0.00000000E+00  0.00000000E+00  0.00000000E+00
0.00000000E+00  0.00000000E+00  0.00000000E+00
0.00000000E+00  0.00000000E+00  0.00000000E+00
0.00000000E+00  0.00000000E+00  0.00000000E+00
0.00000000E+00  0.00000000E+00  0.00000000E+00
