Cr4C3  (n=3)
1.00000000000000
2.9297480782060625  0.0000000000000000  0.0000000000000000
-1.4648740391030313  2.5372362623967106  0.0000000000000002
0.0000000000000001  0.0000000000000025  35.0680626770125201
Cr  C  S
4  3  2
Selective  dynamics
Direct
0.0000000000000000  0.0000000000000000  0.0438383372848937  T  T  T
0.6666666666666643  0.3333333333333357  0.1103486728952847  T  T  T
0.3333333333333357  0.6666666666666643  0.1785681971974973  T  T  T
-0.0000000000000000  -0.0000000000000000  0.2423565182977555  T  T  T
0.3333333333333357  0.6666666666666643  0.0756757692350281  T  T  T
-0.0000000000000000  -0.0000000000000000  0.1435439353776210  T  T  T
0.6666666666666643  0.3333333333333357  0.2107704694291145  T  T  T
0.3333333333333357  0.6666666666666643  0.0000000000000000  T  T  T
0.3333333333333357  0.6666666666666643  0.2871006239991764  T  T  T

0.00000000E+00  0.00000000E+00  0.00000000E+00
0.00000000E+00  0.00000000E+00  0.00000000E+00
0.00000000E+00  0.00000000E+00  0.00000000E+00
0.00000000E+00  0.00000000E+00  0.00000000E+00
0.00000000E+00  0.00000000E+00  0.00000000E+00
0.00000000E+00  0.00000000E+00  0.00000000E+00
0.00000000E+00  0.00000000E+00  0.00000000E+00
0.00000000E+00  0.00000000E+00  0.00000000E+00
0.00000000E+00  0.00000000E+00  0.00000000E+00
