Hf4N3  (n=3)
1.00000000000000
3.2853263028889761  -0.0000000000000001  0.0000000000000000
-1.6426631514444880  2.8451760391659318  -0.0000000000000001
-0.0000000000000002  -0.0000000000000015  36.0372073126022627
Hf  N  S
4  3  2
Selective  dynamics
Direct
0.0000000000000000  0.0000000000000000  0.0447655657295703  T  T  T
0.6666666666666643  0.3333333333333357  0.1159224036207637  T  T  T
0.3333333333333357  0.6666666666666643  0.1906787784369053  T  T  T
0.0000000000000000  0.0000000000000000  0.2617767324277104  T  T  T
0.3333333333333357  0.6666666666666643  0.0839901983660063  T  T  T
0.0000000000000000  0.0000000000000000  0.1537902230276188  T  T  T
0.6666666666666643  0.3333333333333357  0.2251572259598241  T  T  T
0.3333333333333357  0.6666666666666643  0.0000000000000000  T  T  T
0.3333333333333357  0.6666666666666643  0.3062725481711379  T  T  T

0.00000000E+00  0.00000000E+00  0.00000000E+00
0.00000000E+00  0.00000000E+00  0.00000000E+00
0.00000000E+00  0.00000000E+00  0.00000000E+00
0.00000000E+00  0.00000000E+00  0.00000000E+00
0.00000000E+00  0.00000000E+00  0.00000000E+00
0.00000000E+00  0.00000000E+00  0.00000000E+00
0.00000000E+00  0.00000000E+00  0.00000000E+00
0.00000000E+00  0.00000000E+00  0.00000000E+00
0.00000000E+00  0.00000000E+00  0.00000000E+00
