Cr4N3  (n=3)
1.00000000000000
2.9298052067633682  0.0000000000000001  0.0000000000000000
-1.4649026033816839  2.5372857372622373  0.0000000000000001
-0.0000000000000001  0.0000000000000012  35.2207059558828348
Cr  N  S
4  3  2
Selective  dynamics
Direct
0.0000000000000000  0.0000000000000000  0.0433194118094720  T  T  T
0.6666666666666643  0.3333333333333357  0.1126555830390120  T  T  T
0.3333333333333357  0.6666666666666643  0.1833807955613118  T  T  T
0.0000000000000000  0.0000000000000000  0.2472756000120573  T  T  T
0.3333333333333357  0.6666666666666643  0.0762676230138377  T  T  T
0.0000000000000000  0.0000000000000000  0.1447504927829259  T  T  T
0.6666666666666643  0.3333333333333357  0.2119318221787546  T  T  T
0.3333333333333357  0.6666666666666643  0.0000000000000000  T  T  T
0.3333333333333357  0.6666666666666643  0.2901902638943468  T  T  T

0.00000000E+00  0.00000000E+00  0.00000000E+00
0.00000000E+00  0.00000000E+00  0.00000000E+00
0.00000000E+00  0.00000000E+00  0.00000000E+00
0.00000000E+00  0.00000000E+00  0.00000000E+00
0.00000000E+00  0.00000000E+00  0.00000000E+00
0.00000000E+00  0.00000000E+00  0.00000000E+00
0.00000000E+00  0.00000000E+00  0.00000000E+00
0.00000000E+00  0.00000000E+00  0.00000000E+00
0.00000000E+00  0.00000000E+00  0.00000000E+00
