Sc4N3  (n=3)
1.00000000000000
3.2288513218904384  0.0000000000000000  0.0000000000000000
-1.6144256609452194  2.7962672706103495  -0.0000000000000003
0.0000000000000005  -0.0000000000000055  36.2872008247514231
Sc  N  S
4  3  2
Selective  dynamics
Direct
0.0000000000000000  0.0000000000000000  0.0478571357237458  T  T  T
0.6666666666666643  0.3333333333333357  0.1200563982126019  T  T  T
0.3333333333333357  0.6666666666666643  0.1915060767700217  T  T  T
0.0000000000000000  -0.0000000000000000  0.2629444884718584  T  T  T
0.3333333333333357  0.6666666666666643  0.0852092426102871  T  T  T
0.0000000000000000  -0.0000000000000000  0.1567011702528532  T  T  T
0.6666666666666643  0.3333333333333357  0.2284781033229255  T  T  T
0.3333333333333357  0.6666666666666643  0.0000000000000000  T  T  T
0.3333333333333357  0.6666666666666643  0.3110518466073703  T  T  T

0.00000000E+00  0.00000000E+00  0.00000000E+00
0.00000000E+00  0.00000000E+00  0.00000000E+00
0.00000000E+00  0.00000000E+00  0.00000000E+00
0.00000000E+00  0.00000000E+00  0.00000000E+00
0.00000000E+00  0.00000000E+00  0.00000000E+00
0.00000000E+00  0.00000000E+00  0.00000000E+00
0.00000000E+00  0.00000000E+00  0.00000000E+00
0.00000000E+00  0.00000000E+00  0.00000000E+00
0.00000000E+00  0.00000000E+00  0.00000000E+00
