Mo4N3  (n=3)
1.00000000000000
2.9569079813703723  -0.0000000000000002  -0.0000000000000002
-1.4784539906851859  2.5607574287525598  0.0000000000000001
-0.0000000000000008  0.0000000000000013  36.7716572068261911
Mo  N  S
4  3  2
Selective  dynamics
Direct
-0.0000000000000000  -0.0000000000000000  0.0447896812024336  T  T  T
0.6666666666666643  0.3333333333333357  0.1222943762811336  T  T  T
0.3333333333333357  0.6666666666666643  0.1980315389527008  T  T  T
0.0000000000000000  -0.0000000000000000  0.2753061393113850  T  T  T
0.3333333333333357  0.6666666666666643  0.0807890091658094  T  T  T
0.0000000000000000  0.0000000000000000  0.1578576026805939  T  T  T
0.6666666666666643  0.3333333333333357  0.2332996338174166  T  T  T
0.3333333333333357  0.6666666666666643  0.0000000000000000  T  T  T
0.3333333333333357  0.6666666666666643  0.3201285473922273  T  T  T

0.00000000E+00  0.00000000E+00  0.00000000E+00
0.00000000E+00  0.00000000E+00  0.00000000E+00
0.00000000E+00  0.00000000E+00  0.00000000E+00
0.00000000E+00  0.00000000E+00  0.00000000E+00
0.00000000E+00  0.00000000E+00  0.00000000E+00
0.00000000E+00  0.00000000E+00  0.00000000E+00
0.00000000E+00  0.00000000E+00  0.00000000E+00
0.00000000E+00  0.00000000E+00  0.00000000E+00
0.00000000E+00  0.00000000E+00  0.00000000E+00
