Sc4C3  (n=3)
1.00000000000000
3.5773011127874010  0.0000000000000003  -0.0000000000000002
-1.7886505563937001  3.0980336418150989  -0.0000000000000005
-0.0000000000000002  -0.0000000000000019  35.0031926044985084
Sc  C  S
4  3  2
Selective  dynamics
Direct
-0.0000000000000000  -0.0000000000000000  0.0360757572501579  T  T  T
0.6666666666666643  0.3333333333333357  0.1027181952730835  T  T  T
0.3333333333333357  0.6666666666666643  0.1720918826897196  T  T  T
0.0000000000000000  0.0000000000000000  0.2463742967387461  T  T  T
0.3333333333333357  0.6666666666666643  0.0594545616233277  T  T  T
-0.0000000000000000  -0.0000000000000000  0.1342664468473852  T  T  T
0.6666666666666643  0.3333333333333357  0.2061717551023311  T  T  T
0.3333333333333357  0.6666666666666643  0.0000000000000000  T  T  T
0.3333333333333357  0.6666666666666643  0.2857794349653959  T  T  T

0.00000000E+00  0.00000000E+00  0.00000000E+00
0.00000000E+00  0.00000000E+00  0.00000000E+00
0.00000000E+00  0.00000000E+00  0.00000000E+00
0.00000000E+00  0.00000000E+00  0.00000000E+00
0.00000000E+00  0.00000000E+00  0.00000000E+00
0.00000000E+00  0.00000000E+00  0.00000000E+00
0.00000000E+00  0.00000000E+00  0.00000000E+00
0.00000000E+00  0.00000000E+00  0.00000000E+00
0.00000000E+00  0.00000000E+00  0.00000000E+00
