Ta4C3  (n=3)
1.00000000000000
3.2075583575649635  0.0000000000000003  0.0000000000000000
-1.6037791787824818  2.7778270224585979  -0.0000000000000001
0.0000000000000001  -0.0000000000000017  35.9246021411373988
Ta  C  S
4  3  2
Selective  dynamics
Direct
0.0000000000000000  -0.0000000000000000  0.0461057428439959  T  T  T
0.6666666666666643  0.3333333333333357  0.1150701412706975  T  T  T
0.3333333333333357  0.6666666666666643  0.1898531399030524  T  T  T
0.0000000000000000  -0.0000000000000000  0.2581254170259472  T  T  T
0.3333333333333357  0.6666666666666643  0.0815753114655881  T  T  T
0.0000000000000000  -0.0000000000000000  0.1522868151213487  T  T  T
0.6666666666666643  0.3333333333333357  0.2241139765273976  T  T  T
0.3333333333333357  0.6666666666666643  0.0000000000000000  T  T  T
0.3333333333333357  0.6666666666666643  0.3040980690118095  T  T  T

0.00000000E+00  0.00000000E+00  0.00000000E+00
0.00000000E+00  0.00000000E+00  0.00000000E+00
0.00000000E+00  0.00000000E+00  0.00000000E+00
0.00000000E+00  0.00000000E+00  0.00000000E+00
0.00000000E+00  0.00000000E+00  0.00000000E+00
0.00000000E+00  0.00000000E+00  0.00000000E+00
0.00000000E+00  0.00000000E+00  0.00000000E+00
0.00000000E+00  0.00000000E+00  0.00000000E+00
0.00000000E+00  0.00000000E+00  0.00000000E+00
