Zr4C3  (n=3)
1.00000000000000
3.4058908737906628  -0.0000000000000002  0.0000000000000000
-1.7029454368953314  2.9495880207110341  0.0000000000000001
0.0000000000000012  0.0000000000000022  36.3289140715087910
Zr  C  S
4  3  2
Selective  dynamics
Direct
-0.0000000000000000  0.0000000000000000  0.0447973399897235  T  T  T
0.6666666666666643  0.3333333333333357  0.1194316809105209  T  T  T
0.3333333333333357  0.6666666666666643  0.1933595502085013  T  T  T
0.0000000000000000  0.0000000000000000  0.2675953605793796  T  T  T
0.3333333333333357  0.6666666666666643  0.0830253236155564  T  T  T
-0.0000000000000000  -0.0000000000000000  0.1569353550556048  T  T  T
0.6666666666666643  0.3333333333333357  0.2312501056024988  T  T  T
0.3333333333333357  0.6666666666666643  0.0000000000000000  T  T  T
0.3333333333333357  0.6666666666666643  0.3118429042280010  T  T  T

0.00000000E+00  0.00000000E+00  0.00000000E+00
0.00000000E+00  0.00000000E+00  0.00000000E+00
0.00000000E+00  0.00000000E+00  0.00000000E+00
0.00000000E+00  0.00000000E+00  0.00000000E+00
0.00000000E+00  0.00000000E+00  0.00000000E+00
0.00000000E+00  0.00000000E+00  0.00000000E+00
0.00000000E+00  0.00000000E+00  0.00000000E+00
0.00000000E+00  0.00000000E+00  0.00000000E+00
0.00000000E+00  0.00000000E+00  0.00000000E+00
