Nb4C3  (n=3)
1.00000000000000
3.2187385651155997  0.0000000000000000  -0.0000000000000001
-1.6093692825577999  2.7875093662986448  0.0000000000000001
-0.0000000000000004  0.0000000000000013  36.0181394407041253
Nb  C  S
4  3  2
Selective  dynamics
Direct
0.0000000000000000  0.0000000000000000  0.0464157667089588  T  T  T
0.6666666666666643  0.3333333333333357  0.1164859601783349  T  T  T
0.3333333333333357  0.6666666666666643  0.1911117716815865  T  T  T
-0.0000000000000000  -0.0000000000000000  0.2596803638712071  T  T  T
0.3333333333333357  0.6666666666666643  0.0816101451425831  T  T  T
-0.0000000000000000  -0.0000000000000000  0.1531188489611200  T  T  T
0.6666666666666643  0.3333333333333357  0.2254425411360477  T  T  T
0.3333333333333357  0.6666666666666643  0.0000000000000000  T  T  T
0.3333333333333357  0.6666666666666643  0.3059052913836109  T  T  T

0.00000000E+00  0.00000000E+00  0.00000000E+00
0.00000000E+00  0.00000000E+00  0.00000000E+00
0.00000000E+00  0.00000000E+00  0.00000000E+00
0.00000000E+00  0.00000000E+00  0.00000000E+00
0.00000000E+00  0.00000000E+00  0.00000000E+00
0.00000000E+00  0.00000000E+00  0.00000000E+00
0.00000000E+00  0.00000000E+00  0.00000000E+00
0.00000000E+00  0.00000000E+00  0.00000000E+00
0.00000000E+00  0.00000000E+00  0.00000000E+00
