Ta4N3  (n=3)
1.00000000000000
3.1602198816645681  0.0000000000000000  0.0000000000000000
-1.5801099408322841  2.7368306995407221  0.0000000000000000
0.0000000000000003  0.0000000000000002  35.9069880666001211
Ta  N  S
4  3  2
Selective  dynamics
Direct
-0.0000000000000000  -0.0000000000000000  0.0454645561841780  T  T  T
0.6666666666666643  0.3333333333333357  0.1187868754630063  T  T  T
0.3333333333333357  0.6666666666666643  0.1881243408727595  T  T  T
0.0000000000000000  0.0000000000000000  0.2582280904436671  T  T  T
0.3333333333333357  0.6666666666666643  0.0828261673647923  T  T  T
0.0000000000000000  -0.0000000000000000  0.1524461892893661  T  T  T
0.6666666666666643  0.3333333333333357  0.2221636535756120  T  T  T
0.3333333333333357  0.6666666666666643  0.0000000000000000  T  T  T
0.3333333333333357  0.6666666666666643  0.3037566962277617  T  T  T

0.00000000E+00  0.00000000E+00  0.00000000E+00
0.00000000E+00  0.00000000E+00  0.00000000E+00
0.00000000E+00  0.00000000E+00  0.00000000E+00
0.00000000E+00  0.00000000E+00  0.00000000E+00
0.00000000E+00  0.00000000E+00  0.00000000E+00
0.00000000E+00  0.00000000E+00  0.00000000E+00
0.00000000E+00  0.00000000E+00  0.00000000E+00
0.00000000E+00  0.00000000E+00  0.00000000E+00
0.00000000E+00  0.00000000E+00  0.00000000E+00
