Mo4C3  (n=3)
1.00000000000000
3.1129482859334461  0.0000000000000001  -0.0000000000000001
-1.5564741429667226  2.6958922967194736  -0.0000000000000000
-0.0000000000000013  -0.0000000000000018  35.8029625542208265
Mo  C  S
4  3  2
Selective  dynamics
Direct
-0.0000000000000000  -0.0000000000000000  0.0451700973235468  T  T  T
0.6666666666666643  0.3333333333333357  0.1186423411110764  T  T  T
0.3333333333333357  0.6666666666666643  0.1853404076430391  T  T  T
0.0000000000000000  0.0000000000000000  0.2559931908129566  T  T  T
0.3333333333333357  0.6666666666666643  0.0794009575396611  T  T  T
-0.0000000000000000  -0.0000000000000000  0.1505017879517562  T  T  T
0.6666666666666643  0.3333333333333357  0.2206811070689027  T  T  T
0.3333333333333357  0.6666666666666643  0.0000000000000000  T  T  T
0.3333333333333357  0.6666666666666643  0.3017337612176805  T  T  T

0.00000000E+00  0.00000000E+00  0.00000000E+00
0.00000000E+00  0.00000000E+00  0.00000000E+00
0.00000000E+00  0.00000000E+00  0.00000000E+00
0.00000000E+00  0.00000000E+00  0.00000000E+00
0.00000000E+00  0.00000000E+00  0.00000000E+00
0.00000000E+00  0.00000000E+00  0.00000000E+00
0.00000000E+00  0.00000000E+00  0.00000000E+00
0.00000000E+00  0.00000000E+00  0.00000000E+00
0.00000000E+00  0.00000000E+00  0.00000000E+00
