Hf4C3  (n=3)
1.00000000000000
3.3505162965015747  0.0000000000000000  -0.0000000000000001
-1.6752581482507873  2.9016322299947639  -0.0000000000000001
0.0000000000000001  0.0000000000000038  36.2186802838669806
Hf  C  S
4  3  2
Selective  dynamics
Direct
0.0000000000000000  0.0000000000000000  0.0446527995043781  T  T  T
0.6666666666666643  0.3333333333333357  0.1184448890366942  T  T  T
0.3333333333333357  0.6666666666666643  0.1915557524531444  T  T  T
0.0000000000000000  -0.0000000000000000  0.2651303983713549  T  T  T
0.3333333333333357  0.6666666666666643  0.0825888787509242  T  T  T
-0.0000000000000000  -0.0000000000000000  0.1558340299917119  T  T  T
0.6666666666666643  0.3333333333333357  0.2296314294067897  T  T  T
0.3333333333333357  0.6666666666666643  0.0000000000000000  T  T  T
0.3333333333333357  0.6666666666666643  0.3097484556571256  T  T  T

0.00000000E+00  0.00000000E+00  0.00000000E+00
0.00000000E+00  0.00000000E+00  0.00000000E+00
0.00000000E+00  0.00000000E+00  0.00000000E+00
0.00000000E+00  0.00000000E+00  0.00000000E+00
0.00000000E+00  0.00000000E+00  0.00000000E+00
0.00000000E+00  0.00000000E+00  0.00000000E+00
0.00000000E+00  0.00000000E+00  0.00000000E+00
0.00000000E+00  0.00000000E+00  0.00000000E+00
0.00000000E+00  0.00000000E+00  0.00000000E+00
