Ti4C3  (n=3)
1.00000000000000
3.1224928637576372  0.0000000000000004  0.0000000000000000
-1.5612464318788186  2.7041581434842721  0.0000000000000000
0.0000000000000006  -0.0000000000000022  35.6148817235930082
Ti  C  S
4  3  2
Selective  dynamics
Direct
0.0000000000000000  -0.0000000000000000  0.0452289709708863  T  T  T
0.6666666666666643  0.3333333333333357  0.1145019368408646  T  T  T
0.3333333333333357  0.6666666666666643  0.1833924583735902  T  T  T
0.0000000000000000  0.0000000000000000  0.2524442740638574  T  T  T
0.3333333333333357  0.6666666666666643  0.0800128975515362  T  T  T
0.0000000000000000  0.0000000000000000  0.1496288006452730  T  T  T
0.6666666666666643  0.3333333333333357  0.2198738727316325  T  T  T
0.3333333333333357  0.6666666666666643  0.0000000000000000  T  T  T
0.3333333333333357  0.6666666666666643  0.2980462438700505  T  T  T

0.00000000E+00  0.00000000E+00  0.00000000E+00
0.00000000E+00  0.00000000E+00  0.00000000E+00
0.00000000E+00  0.00000000E+00  0.00000000E+00
0.00000000E+00  0.00000000E+00  0.00000000E+00
0.00000000E+00  0.00000000E+00  0.00000000E+00
0.00000000E+00  0.00000000E+00  0.00000000E+00
0.00000000E+00  0.00000000E+00  0.00000000E+00
0.00000000E+00  0.00000000E+00  0.00000000E+00
0.00000000E+00  0.00000000E+00  0.00000000E+00
