Ti4N3  (n=3)
1.00000000000000
3.0728937584278584  0.0000000000000000  0.0000000000000000
-1.5364468792139292  2.6612040581310721  0.0000000000000000
0.0000000000000000  0.0000000000000006  35.4511223041167156
Ti  N  S
4  3  2
Selective  dynamics
Direct
-0.0000000000000000  -0.0000000000000000  0.0451960328877936  T  T  T
0.6666666666666643  0.3333333333333357  0.1129986465845092  T  T  T
0.3333333333333357  0.6666666666666643  0.1828747205180528  T  T  T
-0.0000000000000000  -0.0000000000000000  0.2499484656770421  T  T  T
0.3333333333333357  0.6666666666666643  0.0805242745109005  T  T  T
-0.0000000000000000  0.0000000000000000  0.1479467609868269  T  T  T
0.6666666666666643  0.3333333333333357  0.2165483294812716  T  T  T
0.3333333333333357  0.6666666666666643  0.0000000000000000  T  T  T
0.3333333333333357  0.6666666666666643  0.2948037078900346  T  T  T

0.00000000E+00  0.00000000E+00  0.00000000E+00
0.00000000E+00  0.00000000E+00  0.00000000E+00
0.00000000E+00  0.00000000E+00  0.00000000E+00
0.00000000E+00  0.00000000E+00  0.00000000E+00
0.00000000E+00  0.00000000E+00  0.00000000E+00
0.00000000E+00  0.00000000E+00  0.00000000E+00
0.00000000E+00  0.00000000E+00  0.00000000E+00
0.00000000E+00  0.00000000E+00  0.00000000E+00
0.00000000E+00  0.00000000E+00  0.00000000E+00
