Sc2N
1.00000000000000
3.5887137968219109  0.0000000000000000  0.0000000000000002
-1.7943568984109557  3.1079173150234376  0.0000000000000000
0.0000000000000006  0.0000000000000007  31.4232713036815241
Sc  N  I
2  1  2
Selective  dynamics
Direct
-0.0000000000000000  -0.0000000000000000  0.0657338669921436  T  T  T
0.6666666666666643  0.3333333333333357  0.1389254297242422  T  T  T
0.3333333333333357  0.6666666666666643  0.1050928309077975  T  T  T
0.3333333333333357  0.6666666666666643  0.0000000000000000  T  T  T
-0.0000000000000000  -0.0000000000000000  0.2044112861963223  T  T  T

0.00000000E+00  0.00000000E+00  0.00000000E+00
0.00000000E+00  0.00000000E+00  0.00000000E+00
0.00000000E+00  0.00000000E+00  0.00000000E+00
0.00000000E+00  0.00000000E+00  0.00000000E+00
0.00000000E+00  0.00000000E+00  0.00000000E+00
