Sc2C  (n=1)
1.00000000000000
3.6491184384489501  0.0000000000000000  0.0000000000000000
-1.8245592192244748  3.1602292692642759  -0.0000000000000001
0.0000000000000002  -0.0000000000000001  31.5474889109400252
Sc  C  I
2  1  2
Selective  dynamics
Direct
0.0000000000000000  0.0000000000000000  0.0668623493958747  T  T  T
0.6666666666666643  0.3333333333333357  0.1425775354003059  T  T  T
0.3333333333333357  0.6666666666666643  0.1057408255473628  T  T  T
0.3333333333333357  0.6666666666666643  0.0000000000000000  T  T  T
0.0000000000000000  0.0000000000000000  0.2075439008608222  T  T  T

0.00000000E+00  0.00000000E+00  0.00000000E+00
0.00000000E+00  0.00000000E+00  0.00000000E+00
0.00000000E+00  0.00000000E+00  0.00000000E+00
0.00000000E+00  0.00000000E+00  0.00000000E+00
0.00000000E+00  0.00000000E+00  0.00000000E+00
