Ta2N  (n=1)
1.00000000000000
3.5606646383234497  -0.0000000000000001  0.0000000000000000
-1.7803323191617251  3.0836260312391883  0.0000000000000000
0.0000000000000000  0.0000000000000000  31.2430045656257960
Ta  N  I
2  1  2
Selective  dynamics
Direct
-0.0000000000000000  0.0000000000000000  0.0728035990625849  T  T  T
0.6666666666666643  0.3333333333333357  0.1311152263174906  T  T  T
0.3333333333333357  0.6666666666666643  0.1032809384513034  T  T  T
0.3333333333333357  0.6666666666666643  0.0000000000000000  T  T  T
-0.0000000000000000  -0.0000000000000000  0.1998208767825895  T  T  T

0.00000000E+00  0.00000000E+00  0.00000000E+00
0.00000000E+00  0.00000000E+00  0.00000000E+00
0.00000000E+00  0.00000000E+00  0.00000000E+00
0.00000000E+00  0.00000000E+00  0.00000000E+00
0.00000000E+00  0.00000000E+00  0.00000000E+00
