Mo2N  (n=1)
1.00000000000000
3.5591475594741455  0.0000000000000002  0.0000000000000002
-1.7795737797370723  3.0823122025261238  -0.0000000000000004
0.0000000000000022  -0.0000000000000046  31.0401616963880187
Mo  N  I
2  1  2
Selective  dynamics
Direct
-0.0000000000000000  -0.0000000000000000  0.0724028921607027  T  T  T
0.6666666666666643  0.3333333333333357  0.1252999668883598  T  T  T
0.3333333333333357  0.6666666666666643  0.1011527337806705  T  T  T
0.3333333333333357  0.6666666666666643  0.0000000000000000  T  T  T
-0.0000000000000000  0.0000000000000000  0.1945918244714196  T  T  T

0.00000000E+00  0.00000000E+00  0.00000000E+00
0.00000000E+00  0.00000000E+00  0.00000000E+00
0.00000000E+00  0.00000000E+00  0.00000000E+00
0.00000000E+00  0.00000000E+00  0.00000000E+00
0.00000000E+00  0.00000000E+00  0.00000000E+00
