Mo2C  (n=1)
1.00000000000000
3.5047603791437565  0.0000000000000000  0.0000000000000000
-1.7523801895718785  3.0352115227005774  0.0000000000000000
0.0000000000000002  -0.0000000000000001  31.1521285268461980
Mo  C  I
2  1  2
Selective  dynamics
Direct
0.0000000000000000  0.0000000000000000  0.0714256056800288  T  T  T
0.6666666666666643  0.3333333333333357  0.1287482765704814  T  T  T
0.3333333333333357  0.6666666666666643  0.1021802280844454  T  T  T
0.3333333333333357  0.6666666666666643  0.0000000000000000  T  T  T
0.0000000000000000  0.0000000000000000  0.1974866186605655  T  T  T

0.00000000E+00  0.00000000E+00  0.00000000E+00
0.00000000E+00  0.00000000E+00  0.00000000E+00
0.00000000E+00  0.00000000E+00  0.00000000E+00
0.00000000E+00  0.00000000E+00  0.00000000E+00
0.00000000E+00  0.00000000E+00  0.00000000E+00
