Ta2C  (n=1)
1.00000000000000
3.5277046552818514  0.0000000000000000  0.0000000000000002
-1.7638523276409257  3.0550818486013989  -0.0000000000000007
0.0000000000000012  -0.0000000000000020  31.3683068347414178
Ta  C  I
2  1  2
Selective  dynamics
Direct
-0.0000000000000000  -0.0000000000000000  0.0716367035265863  T  T  T
0.6666666666666643  0.3333333333333357  0.1344553187703295  T  T  T
0.3333333333333357  0.6666666666666643  0.1037874550194957  T  T  T
0.3333333333333357  0.6666666666666643  0.0000000000000000  T  T  T
-0.0000000000000000  0.0000000000000000  0.2030172322749760  T  T  T

0.00000000E+00  0.00000000E+00  0.00000000E+00
0.00000000E+00  0.00000000E+00  0.00000000E+00
0.00000000E+00  0.00000000E+00  0.00000000E+00
0.00000000E+00  0.00000000E+00  0.00000000E+00
0.00000000E+00  0.00000000E+00  0.00000000E+00
