Cr2C  (n=1)
1.00000000000000
3.3725312813368364  0.0000000000000000  0.0000000000000000
-1.6862656406684182  2.9206977647051202  0.0000000000000000
0.0000000000000002  -0.0000000000000001  30.8098667967467108
Cr  C  I
2  1  2
Selective  dynamics
Direct
-0.0000000000000000  0.0000000000000000  0.0650193328863173  T  T  T
0.6666666666666643  0.3333333333333357  0.1234491310768340  T  T  T
0.3333333333333357  0.6666666666666643  0.0979983282324651  T  T  T
0.3333333333333357  0.6666666666666643  0.0000000000000000  T  T  T
0.0000000000000000  0.0000000000000000  0.1885716298312652  T  T  T

0.00000000E+00  0.00000000E+00  0.00000000E+00
0.00000000E+00  0.00000000E+00  0.00000000E+00
0.00000000E+00  0.00000000E+00  0.00000000E+00
0.00000000E+00  0.00000000E+00  0.00000000E+00
0.00000000E+00  0.00000000E+00  0.00000000E+00
