Hf2C  (n=1)
1.00000000000000
3.5817311227672124  0.0000000000000006  0.0000000000000000
-1.7908655613836062  3.1018701419824319  -0.0000000000000001
-0.0000000000000002  -0.0000000000000037  31.5294632096429552
Hf  C  I
2  1  2
Selective  dynamics
Direct
0.0000000000000000  -0.0000000000000000  0.0671607980947512  T  T  T
0.6666666666666643  0.3333333333333357  0.1392046261078416  T  T  T
0.3333333333333357  0.6666666666666643  0.1061456909403819  T  T  T
0.3333333333333357  0.6666666666666643  0.0000000000000000  T  T  T
0.0000000000000000  -0.0000000000000000  0.2070908459883321  T  T  T

0.00000000E+00  0.00000000E+00  0.00000000E+00
0.00000000E+00  0.00000000E+00  0.00000000E+00
0.00000000E+00  0.00000000E+00  0.00000000E+00
0.00000000E+00  0.00000000E+00  0.00000000E+00
0.00000000E+00  0.00000000E+00  0.00000000E+00
