Cr2N  (n=1)
1.00000000000000
3.3768384517131373  0.0000000000000002  0.0000000000000001
-1.6884192258565682  2.9244278838034190  -0.0000000000000001
0.0000000000000001  -0.0000000000000001  30.9798902711322697
Cr  N  I
2  1  2
Selective  dynamics
Direct
-0.0000000000000000  0.0000000000000000  0.0664184240354198  T  T  T
0.6666666666666643  0.3333333333333357  0.1268552853063051  T  T  T
0.3333333333333357  0.6666666666666643  0.1003714528360461  T  T  T
0.3333333333333357  0.6666666666666643  0.0000000000000000  T  T  T
0.0000000000000000  0.0000000000000000  0.1930249015989725  T  T  T

0.00000000E+00  0.00000000E+00  0.00000000E+00
0.00000000E+00  0.00000000E+00  0.00000000E+00
0.00000000E+00  0.00000000E+00  0.00000000E+00
0.00000000E+00  0.00000000E+00  0.00000000E+00
0.00000000E+00  0.00000000E+00  0.00000000E+00
