Nb2C  (n=1)
1.00000000000000
3.5336667062642855  0.0000000000000001  0.0000000000000000
-1.7668333531321430  3.0602451362556411  0.0000000000000000
0.0000000000000001  0.0000000000000002  31.3974653246867916
Nb  C  I
2  1  2
Selective  dynamics
Direct
0.0000000000000000  0.0000000000000000  0.0715107813870610  T  T  T
0.6666666666666643  0.3333333333333357  0.1356082944740100  T  T  T
0.3333333333333357  0.6666666666666643  0.1039060522282197  T  T  T
0.3333333333333357  0.6666666666666643  0.0000000000000000  T  T  T
0.0000000000000000  0.0000000000000000  0.2037573816398701  T  T  T

0.00000000E+00  0.00000000E+00  0.00000000E+00
0.00000000E+00  0.00000000E+00  0.00000000E+00
0.00000000E+00  0.00000000E+00  0.00000000E+00
0.00000000E+00  0.00000000E+00  0.00000000E+00
0.00000000E+00  0.00000000E+00  0.00000000E+00
