Ti2N  (n=1)
1.00000000000000
3.4283196492644317  0.0000000000000000  0.0000000000000000
-1.7141598246322158  2.9690119086577806  0.0000000000000000
0.0000000000000000  -0.0000000000000001  31.1019636597974021
Ti  N  I
2  1  2
Selective  dynamics
Direct
0.0000000000000000  0.0000000000000000  0.0675601280217774  T  T  T
0.6666666666666643  0.3333333333333357  0.1300601992792066  T  T  T
0.3333333333333357  0.6666666666666643  0.1004294410097886  T  T  T
0.3333333333333357  0.6666666666666643  0.0000000000000000  T  T  T
0.0000000000000000  0.0000000000000000  0.1961922316720098  T  T  T

0.00000000E+00  0.00000000E+00  0.00000000E+00
0.00000000E+00  0.00000000E+00  0.00000000E+00
0.00000000E+00  0.00000000E+00  0.00000000E+00
0.00000000E+00  0.00000000E+00  0.00000000E+00
0.00000000E+00  0.00000000E+00  0.00000000E+00
