Hf2N  (n=1)
1.00000000000000
3.5575150725594256  -0.0000000000000005  0.0000000000000000
-1.7787575362797130  3.0808984272539899  0.0000000000000000
-0.0000000000000004  0.0000000000000000  31.4815072469033765
Hf  N  I
2  1  2
Selective  dynamics
Direct
0.0000000000000000  0.0000000000000000  0.0691159463561838  T  T  T
0.6666666666666643  0.3333333333333357  0.1376138728818995  T  T  T
0.3333333333333357  0.6666666666666643  0.1050960024170761  T  T  T
0.3333333333333357  0.6666666666666643  0.0000000000000000  T  T  T
0.0000000000000000  0.0000000000000000  0.2058830028711830  T  T  T

0.00000000E+00  0.00000000E+00  0.00000000E+00
0.00000000E+00  0.00000000E+00  0.00000000E+00
0.00000000E+00  0.00000000E+00  0.00000000E+00
0.00000000E+00  0.00000000E+00  0.00000000E+00
0.00000000E+00  0.00000000E+00  0.00000000E+00
