Nb2N  (n=1)
1.00000000000000
3.5701364878523609  0.0000000000000001  0.0000000000000000
-1.7850682439261814  3.0918288936972131  0.0000000000000000
0.0000000000000000  -0.0000000000000001  31.2718057741192155
Nb  N  I
2  1  2
Selective  dynamics
Direct
0.0000000000000000  0.0000000000000000  0.0727582412889938  T  T  T
0.6666666666666643  0.3333333333333357  0.1317085294382981  T  T  T
0.3333333333333357  0.6666666666666643  0.1029722301160887  T  T  T
0.3333333333333357  0.6666666666666643  0.0000000000000000  T  T  T
0.0000000000000000  0.0000000000000000  0.2005578385661953  T  T  T

0.00000000E+00  0.00000000E+00  0.00000000E+00
0.00000000E+00  0.00000000E+00  0.00000000E+00
0.00000000E+00  0.00000000E+00  0.00000000E+00
0.00000000E+00  0.00000000E+00  0.00000000E+00
0.00000000E+00  0.00000000E+00  0.00000000E+00
