Zr2N  (n=1)
1.00000000000000
3.6064419957629732  0.0000000000000005  -0.0000000000000001
-1.8032209978814864  3.1232703857006414  0.0000000000000003
-0.0000000000000004  0.0000000000000011  31.5361275550970710
Zr  N  I
2  1  2
Selective  dynamics
Direct
-0.0000000000000000  -0.0000000000000000  0.0695508852386003  T  T  T
0.6666666666666643  0.3333333333333357  0.1391114703927753  T  T  T
0.3333333333333357  0.6666666666666643  0.1057005677275687  T  T  T
0.3333333333333357  0.6666666666666643  0.0000000000000000  T  T  T
-0.0000000000000000  -0.0000000000000000  0.2072584068439519  T  T  T

0.00000000E+00  0.00000000E+00  0.00000000E+00
0.00000000E+00  0.00000000E+00  0.00000000E+00
0.00000000E+00  0.00000000E+00  0.00000000E+00
0.00000000E+00  0.00000000E+00  0.00000000E+00
0.00000000E+00  0.00000000E+00  0.00000000E+00
