Zr2C  (n=1)
1.00000000000000
3.6167562016158046  -0.0000000000000013  0.0000000000000003
-1.8083781008079036  3.1322027500337843  -0.0000000000000002
0.0000000000000018  -0.0000000000000016  31.6101398964645455
Zr  C  I
2  1  2
Selective  dynamics
Direct
0.0000000000000000  0.0000000000000000  0.0674237431204510  T  T  T
0.6666666666666643  0.3333333333333357  0.1413250931388801  T  T  T
0.3333333333333357  0.6666666666666643  0.1069604850549388  T  T  T
0.3333333333333357  0.6666666666666643  0.0000000000000000  T  T  T
0.0000000000000000  0.0000000000000000  0.2091145410338365  T  T  T

0.00000000E+00  0.00000000E+00  0.00000000E+00
0.00000000E+00  0.00000000E+00  0.00000000E+00
0.00000000E+00  0.00000000E+00  0.00000000E+00
0.00000000E+00  0.00000000E+00  0.00000000E+00
0.00000000E+00  0.00000000E+00  0.00000000E+00
