Ti2C  (n=1)
1.00000000000000
3.4572330876644162  0.0000000000000000  0.0000000000000000
-1.7286165438322081  2.9940516808369817  0.0000000000000000
0.0000000000000000  -0.0000000000000001  31.1078275732364418
Ti  C  I
2  1  2
Selective  dynamics
Direct
-0.0000000000000000  0.0000000000000000  0.0648966072235098  T  T  T
0.6666666666666643  0.3333333333333357  0.1315174986298192  T  T  T
0.3333333333333357  0.6666666666666643  0.1008071751127384  T  T  T
0.3333333333333357  0.6666666666666643  0.0000000000000000  T  T  T
0.0000000000000000  0.0000000000000000  0.1963437517086954  T  T  T

0.00000000E+00  0.00000000E+00  0.00000000E+00
0.00000000E+00  0.00000000E+00  0.00000000E+00
0.00000000E+00  0.00000000E+00  0.00000000E+00
0.00000000E+00  0.00000000E+00  0.00000000E+00
0.00000000E+00  0.00000000E+00  0.00000000E+00
