Ta3N2  (n=2)
1.00000000000000
2.8930183354643484  0.0000000000000000  0.0000000000000000
-1.4465091677321742  2.5054273722456908  0.0000000000000000
-0.0000000000000001  0.0000000000000002  33.8654516419287148
Ta  N  F
3  2  2
Selective  dynamics
Direct
0.0000000000000000  -0.0000000000000000  0.0439200686230661  T  T  T
0.0000000000000000  -0.0000000000000000  0.1301622557610250  T  T  T
0.0000000000000000  -0.0000000000000000  0.2169597331289203  T  T  T
0.3333333333333357  0.6666666666666643  0.0861747696756720  T  T  T
0.3333333333333357  0.6666666666666643  0.1719985466674173  T  T  T
0.3333333333333357  0.6666666666666643  0.0000000000000000  T  T  T
0.6666666666666643  0.3333333333333357  0.2617845388765589  T  T  T

0.00000000E+00  0.00000000E+00  0.00000000E+00
0.00000000E+00  0.00000000E+00  0.00000000E+00
0.00000000E+00  0.00000000E+00  0.00000000E+00
0.00000000E+00  0.00000000E+00  0.00000000E+00
0.00000000E+00  0.00000000E+00  0.00000000E+00
0.00000000E+00  0.00000000E+00  0.00000000E+00
0.00000000E+00  0.00000000E+00  0.00000000E+00
