Cr3C2  (n=2)
1.00000000000000
2.6791333031331566  0.0000000000000001  0.0000000000000000
-1.3395666515665783  2.3201975006109321  0.0000000000000000
0.0000000000000001  0.0000000000000002  32.8861851567618828
Cr  C  F
3  2  2
Selective  dynamics
Direct
-0.0000000000000000  -0.0000000000000000  0.0411106234031831  T  T  T
-0.0000000000000000  -0.0000000000000000  0.1203674024759897  T  T  T
-0.0000000000000000  -0.0000000000000000  0.1989693229911363  T  T  T
0.3333333333333357  0.6666666666666643  0.0790789650444859  T  T  T
0.3333333333333357  0.6666666666666643  0.1600888331711318  T  T  T
0.3333333333333357  0.6666666666666643  0.0000000000000000  T  T  T
0.6666666666666643  0.3333333333333357  0.2398023704838373  T  T  T

0.00000000E+00  0.00000000E+00  0.00000000E+00
0.00000000E+00  0.00000000E+00  0.00000000E+00
0.00000000E+00  0.00000000E+00  0.00000000E+00
0.00000000E+00  0.00000000E+00  0.00000000E+00
0.00000000E+00  0.00000000E+00  0.00000000E+00
0.00000000E+00  0.00000000E+00  0.00000000E+00
0.00000000E+00  0.00000000E+00  0.00000000E+00
