Zr3N2  (n=2)
1.00000000000000
3.0941782449382118  -0.0000000000000001  0.0000000000000000
-1.5470891224691059  2.6796369641152218  0.0000000000000000
-0.0000000000000001  -0.0000000000000004  33.7115985550958897
Zr  N  F
3  2  2
Selective  dynamics
Direct
-0.0000000000000000  -0.0000000000000000  0.0416756056044202  T  T  T
-0.0000000000000000  -0.0000000000000000  0.1286014637277325  T  T  T
-0.0000000000000000  -0.0000000000000000  0.2162668916375989  T  T  T
0.3333333333333357  0.6666666666666643  0.0839584153157741  T  T  T
0.3333333333333357  0.6666666666666643  0.1735618371501379  T  T  T
0.3333333333333357  0.6666666666666643  0.0000000000000000  T  T  T
0.6666666666666643  0.3333333333333357  0.2584154691109725  T  T  T

0.00000000E+00  0.00000000E+00  0.00000000E+00
0.00000000E+00  0.00000000E+00  0.00000000E+00
0.00000000E+00  0.00000000E+00  0.00000000E+00
0.00000000E+00  0.00000000E+00  0.00000000E+00
0.00000000E+00  0.00000000E+00  0.00000000E+00
0.00000000E+00  0.00000000E+00  0.00000000E+00
0.00000000E+00  0.00000000E+00  0.00000000E+00
