Mo3C2  (n=2)
1.00000000000000
2.8772933295674781  -0.0000000000000001  0.0000000000000000
-1.4386466647837393  2.4918091176279966  0.0000000000000000
-0.0000000000000001  -0.0000000000000001  33.6132206601326899
Mo  C  F
3  2  2
Selective  dynamics
Direct
0.0000000000000000  0.0000000000000000  0.0444910122593306  T  T  T
0.0000000000000000  0.0000000000000000  0.1284717989279016  T  T  T
0.0000000000000000  0.0000000000000000  0.2119123235415454  T  T  T
0.3333333333333357  0.6666666666666643  0.0843858633619032  T  T  T
0.3333333333333357  0.6666666666666643  0.1704050837310553  T  T  T
0.3333333333333357  0.6666666666666643  0.0000000000000000  T  T  T
0.6666666666666643  0.3333333333333357  0.2562450277294758  T  T  T

0.00000000E+00  0.00000000E+00  0.00000000E+00
0.00000000E+00  0.00000000E+00  0.00000000E+00
0.00000000E+00  0.00000000E+00  0.00000000E+00
0.00000000E+00  0.00000000E+00  0.00000000E+00
0.00000000E+00  0.00000000E+00  0.00000000E+00
0.00000000E+00  0.00000000E+00  0.00000000E+00
0.00000000E+00  0.00000000E+00  0.00000000E+00
