Sc3N2  (n=2)
1.00000000000000
3.1026890158227345  0.0000000000000000  0.0000000000000000
-1.5513445079113672  2.6870075078322504  0.0000000000000000
-0.0000000000000001  0.0000000000000000  32.9916554721981186
Sc  N  F
3  2  2
Selective  dynamics
Direct
-0.0000000000000000  -0.0000000000000000  0.0392051806113606  T  T  T
-0.0000000000000000  -0.0000000000000000  0.1222645771721459  T  T  T
-0.0000000000000000  -0.0000000000000000  0.2052806750233726  T  T  T
0.3333333333333357  0.6666666666666643  0.0793501828985696  T  T  T
0.3333333333333357  0.6666666666666643  0.1689232001685472  T  T  T
0.3333333333333357  0.6666666666666643  0.0000000000000000  T  T  T
0.6666666666666643  0.3333333333333357  0.2422326299731348  T  T  T

0.00000000E+00  0.00000000E+00  0.00000000E+00
0.00000000E+00  0.00000000E+00  0.00000000E+00
0.00000000E+00  0.00000000E+00  0.00000000E+00
0.00000000E+00  0.00000000E+00  0.00000000E+00
0.00000000E+00  0.00000000E+00  0.00000000E+00
0.00000000E+00  0.00000000E+00  0.00000000E+00
0.00000000E+00  0.00000000E+00  0.00000000E+00
