Nb3N2  (n=2)
1.00000000000000
2.9190491387814479  0.0000000000000000  0.0000000000000000
-1.4595245693907239  2.5279707092076125  0.0000000000000000
-0.0000000000000001  0.0000000000000005  33.7830096973879748
Nb  N  F
3  2  2
Selective  dynamics
Direct
-0.0000000000000000  0.0000000000000000  0.0429516014286863  T  T  T
-0.0000000000000000  0.0000000000000000  0.1292698614489934  T  T  T
-0.0000000000000000  0.0000000000000000  0.2158564165058492  T  T  T
0.3333333333333357  0.6666666666666643  0.0850134279583714  T  T  T
0.3333333333333357  0.6666666666666643  0.1711206889289784  T  T  T
0.3333333333333357  0.6666666666666643  0.0000000000000000  T  T  T
0.6666666666666643  0.3333333333333357  0.2599830440230746  T  T  T

0.00000000E+00  0.00000000E+00  0.00000000E+00
0.00000000E+00  0.00000000E+00  0.00000000E+00
0.00000000E+00  0.00000000E+00  0.00000000E+00
0.00000000E+00  0.00000000E+00  0.00000000E+00
0.00000000E+00  0.00000000E+00  0.00000000E+00
0.00000000E+00  0.00000000E+00  0.00000000E+00
0.00000000E+00  0.00000000E+00  0.00000000E+00
