Ta3C2  (n=2)
1.00000000000000
2.9900144006945819  0.0000000000000000  0.0000000000000000
-1.4950072003472910  2.5894284288594123  0.0000000000000000
0.0000000000000000  0.0000000000000000  33.6078055050382574
Ta  C  F
3  2  2
Selective  dynamics
Direct
-0.0000000000000000  -0.0000000000000000  0.0423956034687549  T  T  T
-0.0000000000000000  -0.0000000000000000  0.1270055612491098  T  T  T
-0.0000000000000000  -0.0000000000000000  0.2121804873147078  T  T  T
0.3333333333333357  0.6666666666666643  0.0827808510446043  T  T  T
0.3333333333333357  0.6666666666666643  0.1716739321570311  T  T  T
0.3333333333333357  0.6666666666666643  0.0000000000000000  T  T  T
0.6666666666666643  0.3333333333333357  0.2561251880533477  T  T  T

0.00000000E+00  0.00000000E+00  0.00000000E+00
0.00000000E+00  0.00000000E+00  0.00000000E+00
0.00000000E+00  0.00000000E+00  0.00000000E+00
0.00000000E+00  0.00000000E+00  0.00000000E+00
0.00000000E+00  0.00000000E+00  0.00000000E+00
0.00000000E+00  0.00000000E+00  0.00000000E+00
0.00000000E+00  0.00000000E+00  0.00000000E+00
