Hf3C2  (n=2)
1.00000000000000
3.1944365311167355  0.0000000000000000  0.0000000000000000
-1.5972182655583678  2.7664631869605643  0.0000000000000000
0.0000000000000001  0.0000000000000000  33.3658125360791047
Hf  C  F
3  2  2
Selective  dynamics
Direct
0.0000000000000000  0.0000000000000000  0.0421745063982144  T  T  T
0.0000000000000000  0.0000000000000000  0.1268748361917717  T  T  T
0.0000000000000000  0.0000000000000000  0.2105549951109041  T  T  T
0.3333333333333357  0.6666666666666643  0.0814322532581299  T  T  T
0.3333333333333357  0.6666666666666643  0.1745232140733280  T  T  T
0.3333333333333357  0.6666666666666643  0.0000000000000000  T  T  T
0.6666666666666643  0.3333333333333357  0.2507300706983528  T  T  T

0.00000000E+00  0.00000000E+00  0.00000000E+00
0.00000000E+00  0.00000000E+00  0.00000000E+00
0.00000000E+00  0.00000000E+00  0.00000000E+00
0.00000000E+00  0.00000000E+00  0.00000000E+00
0.00000000E+00  0.00000000E+00  0.00000000E+00
0.00000000E+00  0.00000000E+00  0.00000000E+00
0.00000000E+00  0.00000000E+00  0.00000000E+00
