Zr3C2  (n=2)
1.00000000000000
3.2422253767633555  0.0000000000000001  0.0000000000000000
-1.6211126883816778  2.8078495413301008  0.0000000000000000
0.0000000000000000  -0.0000000000000001  33.4677473489994313
Zr  C  F
3  2  2
Selective  dynamics
Direct
-0.0000000000000000  -0.0000000000000000  0.0420369077676873  T  T  T
-0.0000000000000000  -0.0000000000000000  0.1278995205938048  T  T  T
-0.0000000000000000  -0.0000000000000000  0.2127545696159867  T  T  T
0.3333333333333357  0.6666666666666643  0.0817641981266383  T  T  T
0.3333333333333357  0.6666666666666643  0.1758401371643399  T  T  T
0.3333333333333357  0.6666666666666643  0.0000000000000000  T  T  T
0.6666666666666643  0.3333333333333357  0.2530121690204700  T  T  T

0.00000000E+00  0.00000000E+00  0.00000000E+00
0.00000000E+00  0.00000000E+00  0.00000000E+00
0.00000000E+00  0.00000000E+00  0.00000000E+00
0.00000000E+00  0.00000000E+00  0.00000000E+00
0.00000000E+00  0.00000000E+00  0.00000000E+00
0.00000000E+00  0.00000000E+00  0.00000000E+00
0.00000000E+00  0.00000000E+00  0.00000000E+00
