Mo3N2  (n=2)
1.00000000000000
2.8199456533114500  0.0000000000000002  0.0000000000000000
-1.4099728266557250  2.4421445731268476  0.0000000000000000
-0.0000000000000001  0.0000000000000000  33.8182031135279502
Mo  N  F
3  2  2
Selective  dynamics
Direct
-0.0000000000000000  -0.0000000000000000  0.0471432744677575  T  T  T
-0.0000000000000000  -0.0000000000000000  0.1315460972288499  T  T  T
-0.0000000000000000  -0.0000000000000000  0.2152590553973882  T  T  T
0.3333333333333357  0.6666666666666643  0.0881927444282958  T  T  T
0.3333333333333357  0.6666666666666643  0.1743792445185294  T  T  T
0.3333333333333357  0.6666666666666643  0.0000000000000000  T  T  T
0.6666666666666643  0.3333333333333357  0.2607531536765919  T  T  T

0.00000000E+00  0.00000000E+00  0.00000000E+00
0.00000000E+00  0.00000000E+00  0.00000000E+00
0.00000000E+00  0.00000000E+00  0.00000000E+00
0.00000000E+00  0.00000000E+00  0.00000000E+00
0.00000000E+00  0.00000000E+00  0.00000000E+00
0.00000000E+00  0.00000000E+00  0.00000000E+00
0.00000000E+00  0.00000000E+00  0.00000000E+00
