Cr3N2  (n=2)
1.00000000000000
2.6588449913971943  0.0000000000000000  0.0000000000000000
-1.3294224956985974  2.3026273072660008  0.0000000000000000
0.0000000000000001  -0.0000000000000001  32.9081018551381561
Cr  N  F
3  2  2
Selective  dynamics
Direct
-0.0000000000000000  -0.0000000000000000  0.0426395048327657  T  T  T
-0.0000000000000000  -0.0000000000000000  0.1210101848787482  T  T  T
-0.0000000000000000  -0.0000000000000000  0.1986111390677434  T  T  T
0.3333333333333357  0.6666666666666643  0.0801848777463971  T  T  T
0.3333333333333357  0.6666666666666643  0.1612259482765934  T  T  T
0.3333333333333357  0.6666666666666643  0.0000000000000000  T  T  T
0.6666666666666643  0.3333333333333357  0.2403086598537257  T  T  T

0.00000000E+00  0.00000000E+00  0.00000000E+00
0.00000000E+00  0.00000000E+00  0.00000000E+00
0.00000000E+00  0.00000000E+00  0.00000000E+00
0.00000000E+00  0.00000000E+00  0.00000000E+00
0.00000000E+00  0.00000000E+00  0.00000000E+00
0.00000000E+00  0.00000000E+00  0.00000000E+00
0.00000000E+00  0.00000000E+00  0.00000000E+00
