Hf3N2  (n=2)
1.00000000000000
3.0329440179140112  0.0000000000000001  0.0000000000000000
-1.5164720089570052  2.6266065679063253  0.0000000000000000
-0.0000000000000009  0.0000000000000005  33.6737255847081727
Hf  N  F
3  2  2
Selective  dynamics
Direct
0.0000000000000000  0.0000000000000000  0.0418370795874398  T  T  T
0.0000000000000000  0.0000000000000000  0.1284025665392678  T  T  T
0.0000000000000000  0.0000000000000000  0.2154299169633016  T  T  T
0.3333333333333357  0.6666666666666643  0.0841318706681216  T  T  T
0.3333333333333357  0.6666666666666643  0.1733501224456903  T  T  T
0.3333333333333357  0.6666666666666643  0.0000000000000000  T  T  T
0.6666666666666643  0.3333333333333357  0.2575814060992129  T  T  T

0.00000000E+00  0.00000000E+00  0.00000000E+00
0.00000000E+00  0.00000000E+00  0.00000000E+00
0.00000000E+00  0.00000000E+00  0.00000000E+00
0.00000000E+00  0.00000000E+00  0.00000000E+00
0.00000000E+00  0.00000000E+00  0.00000000E+00
0.00000000E+00  0.00000000E+00  0.00000000E+00
0.00000000E+00  0.00000000E+00  0.00000000E+00
