Sc3C2  (n=2)
1.00000000000000
3.1641438608059969  0.0000000000000000  0.0000000000000000
-1.5820719304029984  2.7402289648103029  0.0000000000000000
0.0000000000000000  0.0000000000000000  33.3252516081919836
Sc  C  F
3  2  2
Selective  dynamics
Direct
-0.0000000000000000  -0.0000000000000000  0.0386607506714262  T  T  T
-0.0000000000000000  -0.0000000000000000  0.1267102555528084  T  T  T
-0.0000000000000000  -0.0000000000000000  0.2145005905282257  T  T  T
0.3333333333333357  0.6666666666666643  0.0806945156646110  T  T  T
0.3333333333333357  0.6666666666666643  0.1739165676353874  T  T  T
0.3333333333333357  0.6666666666666643  0.0000000000000000  T  T  T
0.6666666666666643  0.3333333333333357  0.2498181170864882  T  T  T

0.00000000E+00  0.00000000E+00  0.00000000E+00
0.00000000E+00  0.00000000E+00  0.00000000E+00
0.00000000E+00  0.00000000E+00  0.00000000E+00
0.00000000E+00  0.00000000E+00  0.00000000E+00
0.00000000E+00  0.00000000E+00  0.00000000E+00
0.00000000E+00  0.00000000E+00  0.00000000E+00
0.00000000E+00  0.00000000E+00  0.00000000E+00
