Nb3C2  (n=2)
1.00000000000000
3.0062412255948510  0.0000000000000000  0.0000000000000000
-1.5031206127974255  2.6034812714422078  0.0000000000000000
0.0000000000000001  0.0000000000000001  33.6020243887932324
Nb  C  F
3  2  2
Selective  dynamics
Direct
-0.0000000000000000  -0.0000000000000000  0.0420020403206141  T  T  T
-0.0000000000000000  -0.0000000000000000  0.1270703918104454  T  T  T
-0.0000000000000000  -0.0000000000000000  0.2125845504657657  T  T  T
0.3333333333333357  0.6666666666666643  0.0827187979543949  T  T  T
0.3333333333333357  0.6666666666666643  0.1715350273955495  T  T  T
0.3333333333333357  0.6666666666666643  0.0000000000000000  T  T  T
0.6666666666666643  0.3333333333333357  0.2559972068725160  T  T  T

0.00000000E+00  0.00000000E+00  0.00000000E+00
0.00000000E+00  0.00000000E+00  0.00000000E+00
0.00000000E+00  0.00000000E+00  0.00000000E+00
0.00000000E+00  0.00000000E+00  0.00000000E+00
0.00000000E+00  0.00000000E+00  0.00000000E+00
0.00000000E+00  0.00000000E+00  0.00000000E+00
0.00000000E+00  0.00000000E+00  0.00000000E+00
