Ti3N2  (n=2)
1.00000000000000
2.8646150011208720  0.0000000000000000  0.0000000000000000
-1.4323075005604358  2.4808293630763458  0.0000000000000000
-0.0000000000000002  -0.0000000000000001  32.9873987934100370
Ti  N  F
3  2  2
Selective  dynamics
Direct
-0.0000000000000000  -0.0000000000000000  0.0397614512101575  T  T  T
-0.0000000000000000  -0.0000000000000000  0.1210871291994141  T  T  T
-0.0000000000000000  -0.0000000000000000  0.2024940231095384  T  T  T
0.3333333333333357  0.6666666666666643  0.0791114883915782  T  T  T
0.3333333333333357  0.6666666666666643  0.1639324061184960  T  T  T
0.3333333333333357  0.6666666666666643  0.0000000000000000  T  T  T
0.6666666666666643  0.3333333333333357  0.2421348480197746  T  T  T

0.00000000E+00  0.00000000E+00  0.00000000E+00
0.00000000E+00  0.00000000E+00  0.00000000E+00
0.00000000E+00  0.00000000E+00  0.00000000E+00
0.00000000E+00  0.00000000E+00  0.00000000E+00
0.00000000E+00  0.00000000E+00  0.00000000E+00
0.00000000E+00  0.00000000E+00  0.00000000E+00
0.00000000E+00  0.00000000E+00  0.00000000E+00
