Ti3C2  (n=2)
1.00000000000000
2.9895889022850897  0.0000000000000000  0.0000000000000000
-1.4947944511425446  2.5890599363238573  0.0000000000000000
0.0000000000000001  -0.0000000000000002  32.8349634084358257
Ti  C  F
3  2  2
Selective  dynamics
Direct
0.0000000000000000  0.0000000000000000  0.0404187159010958  T  T  T
0.0000000000000000  0.0000000000000000  0.1210169009054924  T  T  T
0.0000000000000000  0.0000000000000000  0.2003541869319586  T  T  T
0.3333333333333357  0.6666666666666643  0.0782608313135424  T  T  T
0.3333333333333357  0.6666666666666643  0.1650439495907713  T  T  T
0.3333333333333357  0.6666666666666643  0.0000000000000000  T  T  T
0.6666666666666643  0.3333333333333357  0.2386164805782271  T  T  T

0.00000000E+00  0.00000000E+00  0.00000000E+00
0.00000000E+00  0.00000000E+00  0.00000000E+00
0.00000000E+00  0.00000000E+00  0.00000000E+00
0.00000000E+00  0.00000000E+00  0.00000000E+00
0.00000000E+00  0.00000000E+00  0.00000000E+00
0.00000000E+00  0.00000000E+00  0.00000000E+00
0.00000000E+00  0.00000000E+00  0.00000000E+00
