Zr4N3  (n=3)
1.00000000000000
3.3599145784484765  -0.0000000000000002  -0.0000000000000001
-1.6799572892242387  2.9097713807682273  0.0000000000000001
-0.0000000000000003  -0.0000000000000013  36.4658507115000816
Zr  N  Se
4  3  2
Selective  dynamics
Direct
0.0000000000000000  -0.0000000000000000  0.0503440771455716  T  T  T
0.6666666666666643  0.3333333333333357  0.1204204719719803  T  T  T
0.3333333333333357  0.6666666666666643  0.1940066012426903  T  T  T
0.0000000000000000  0.0000000000000000  0.2640829960691062  T  T  T
0.3333333333333357  0.6666666666666643  0.0854753093965692  T  T  T
-0.0000000000000000  -0.0000000000000000  0.1572135366073354  T  T  T
0.6666666666666643  0.3333333333333357  0.2289517638180944  T  T  T
0.6666666666666643  0.3333333333333357  0.0000000000000000  T  T  T
0.3333333333333357  0.6666666666666643  0.3144270732146704  T  T  T

0.00000000E+00  0.00000000E+00  0.00000000E+00
0.00000000E+00  0.00000000E+00  0.00000000E+00
0.00000000E+00  0.00000000E+00  0.00000000E+00
0.00000000E+00  0.00000000E+00  0.00000000E+00
0.00000000E+00  0.00000000E+00  0.00000000E+00
0.00000000E+00  0.00000000E+00  0.00000000E+00
0.00000000E+00  0.00000000E+00  0.00000000E+00
0.00000000E+00  0.00000000E+00  0.00000000E+00
0.00000000E+00  0.00000000E+00  0.00000000E+00
