Hf4C3  (n=3)
1.00000000000000
3.3563816993858930  0.0000000000000000  0.0000000000000000
-1.6781908496929467  2.9067118181489269  -0.0000000000000001
0.0000000000000004  0.0000000000000018  36.5720894484332320
Hf  C  Se
4  3  2
Selective  dynamics
Direct
0.0000000000000000  0.0000000000000000  0.0511021518484987  T  T  T
0.6666666666666643  0.3333333333333357  0.1225800169739748  T  T  T
0.3333333333333357  0.6666666666666643  0.1938385859267403  T  T  T
0.0000000000000000  0.0000000000000000  0.2653164510522166  T  T  T
0.3333333333333357  0.6666666666666643  0.0843624379513986  T  T  T
0.0000000000000000  0.0000000000000000  0.1582093014503613  T  T  T
0.6666666666666643  0.3333333333333357  0.2320561649493093  T  T  T
0.6666666666666643  0.3333333333333357  0.0000000000000000  T  T  T
0.3333333333333357  0.6666666666666643  0.3164186029007152  T  T  T

0.00000000E+00  0.00000000E+00  0.00000000E+00
0.00000000E+00  0.00000000E+00  0.00000000E+00
0.00000000E+00  0.00000000E+00  0.00000000E+00
0.00000000E+00  0.00000000E+00  0.00000000E+00
0.00000000E+00  0.00000000E+00  0.00000000E+00
0.00000000E+00  0.00000000E+00  0.00000000E+00
0.00000000E+00  0.00000000E+00  0.00000000E+00
0.00000000E+00  0.00000000E+00  0.00000000E+00
0.00000000E+00  0.00000000E+00  0.00000000E+00
