Sc4N3  (n=3)
1.00000000000000
3.2491620782133634  -0.0000000000000002  0.0000000000000001
-1.6245810391066817  2.8138569017492627  -0.0000000000000004
0.0000000000000000  -0.0000000000000047  36.5552786391204307
Sc  N  Se
4  3  2
Selective  dynamics
Direct
0.0000000000000000  -0.0000000000000000  0.0531925870275530  T  T  T
0.6666666666666643  0.3333333333333357  0.1230571322491023  T  T  T
0.3333333333333357  0.6666666666666643  0.1930471095813665  T  T  T
-0.0000000000000000  0.0000000000000000  0.2629116548029157  T  T  T
0.3333333333333357  0.6666666666666643  0.0863960835460788  T  T  T
0.0000000000000000  0.0000000000000000  0.1580521209152344  T  T  T
0.6666666666666643  0.3333333333333357  0.2297081582843824  T  T  T
0.6666666666666643  0.3333333333333357  0.0000000000000000  T  T  T
0.3333333333333357  0.6666666666666643  0.3161042418304615  T  T  T

0.00000000E+00  0.00000000E+00  0.00000000E+00
0.00000000E+00  0.00000000E+00  0.00000000E+00
0.00000000E+00  0.00000000E+00  0.00000000E+00
0.00000000E+00  0.00000000E+00  0.00000000E+00
0.00000000E+00  0.00000000E+00  0.00000000E+00
0.00000000E+00  0.00000000E+00  0.00000000E+00
0.00000000E+00  0.00000000E+00  0.00000000E+00
0.00000000E+00  0.00000000E+00  0.00000000E+00
0.00000000E+00  0.00000000E+00  0.00000000E+00
