Cr4C3  (n=3)
1.00000000000000
2.9841996560294595  0.0000000000000000  0.0000000000000000
-1.4920998280147297  2.5843927120576971  0.0000000000000003
-0.0000000000000002  0.0000000000000045  35.1988507866467728
Cr  C  Se
4  3  2
Selective  dynamics
Direct
-0.0000000000000000  0.0000000000000000  0.0518925337230137  T  T  T
0.6666666666666643  0.3333333333333357  0.1115156111970615  T  T  T
0.3333333333333357  0.6666666666666643  0.1782339277428820  T  T  T
0.0000000000000000  -0.0000000000000000  0.2378570052169300  T  T  T
0.3333333333333357  0.6666666666666643  0.0791272825464173  T  T  T
0.0000000000000000  0.0000000000000000  0.1448747694699718  T  T  T
0.6666666666666643  0.3333333333333357  0.2106222563935188  T  T  T
0.6666666666666643  0.3333333333333357  0.0000000000000000  T  T  T
0.3333333333333357  0.6666666666666643  0.2897495389399435  T  T  T

0.00000000E+00  0.00000000E+00  0.00000000E+00
0.00000000E+00  0.00000000E+00  0.00000000E+00
0.00000000E+00  0.00000000E+00  0.00000000E+00
0.00000000E+00  0.00000000E+00  0.00000000E+00
0.00000000E+00  0.00000000E+00  0.00000000E+00
0.00000000E+00  0.00000000E+00  0.00000000E+00
0.00000000E+00  0.00000000E+00  0.00000000E+00
0.00000000E+00  0.00000000E+00  0.00000000E+00
0.00000000E+00  0.00000000E+00  0.00000000E+00
