Hf4N3  (n=3)
1.00000000000000
3.3118079054390805  0.0000000000000001  0.0000000000000000
-1.6559039527195401  2.8681097799952053  -0.0000000000000001
0.0000000000000001  -0.0000000000000013  36.2816325667822497
Hf  N  Se
4  3  2
Selective  dynamics
Direct
0.0000000000000000  0.0000000000000000  0.0498132965758944  T  T  T
0.6666666666666643  0.3333333333333357  0.1190746243360954  T  T  T
0.3333333333333357  0.6666666666666643  0.1918714871989028  T  T  T
-0.0000000000000000  -0.0000000000000000  0.2611328149591036  T  T  T
0.3333333333333357  0.6666666666666643  0.0847531569089281  T  T  T
0.0000000000000000  0.0000000000000000  0.1554730557674992  T  T  T
0.6666666666666643  0.3333333333333357  0.2261929546260559  T  T  T
0.6666666666666643  0.3333333333333357  0.0000000000000000  T  T  T
0.3333333333333357  0.6666666666666643  0.3109461115349913  T  T  T

0.00000000E+00  0.00000000E+00  0.00000000E+00
0.00000000E+00  0.00000000E+00  0.00000000E+00
0.00000000E+00  0.00000000E+00  0.00000000E+00
0.00000000E+00  0.00000000E+00  0.00000000E+00
0.00000000E+00  0.00000000E+00  0.00000000E+00
0.00000000E+00  0.00000000E+00  0.00000000E+00
0.00000000E+00  0.00000000E+00  0.00000000E+00
0.00000000E+00  0.00000000E+00  0.00000000E+00
0.00000000E+00  0.00000000E+00  0.00000000E+00
