Nb4N3  (n=3)
1.00000000000000
3.2449742913876900  -0.0000000000000001  0.0000000000000000
-1.6224871456938450  2.8102301717175293  0.0000000000000000
-0.0000000000000001  0.0000000000000002  35.9962782255155247
Nb  N  Se
4  3  2
Selective  dynamics
Direct
-0.0000000000000000  -0.0000000000000000  0.0507221346014271  T  T  T
0.6666666666666643  0.3333333333333357  0.1167090613858018  T  T  T
0.3333333333333357  0.6666666666666643  0.1887746932575032  T  T  T
0.0000000000000000  0.0000000000000000  0.2547616200418779  T  T  T
0.3333333333333357  0.6666666666666643  0.0838392662036075  T  T  T
-0.0000000000000000  -0.0000000000000000  0.1527418773216562  T  T  T
0.6666666666666643  0.3333333333333357  0.2216444884396974  T  T  T
0.6666666666666643  0.3333333333333357  0.0000000000000000  T  T  T
0.3333333333333357  0.6666666666666643  0.3054837546433050  T  T  T

0.00000000E+00  0.00000000E+00  0.00000000E+00
0.00000000E+00  0.00000000E+00  0.00000000E+00
0.00000000E+00  0.00000000E+00  0.00000000E+00
0.00000000E+00  0.00000000E+00  0.00000000E+00
0.00000000E+00  0.00000000E+00  0.00000000E+00
0.00000000E+00  0.00000000E+00  0.00000000E+00
0.00000000E+00  0.00000000E+00  0.00000000E+00
0.00000000E+00  0.00000000E+00  0.00000000E+00
0.00000000E+00  0.00000000E+00  0.00000000E+00
