Ta4C3  (n=3)
1.00000000000000
3.2411882233957559  0.0000000000000000  0.0000000000000000
-1.6205941116978779  2.8069513409155400  -0.0000000000000001
0.0000000000000003  -0.0000000000000034  36.1687174318280142
Ta  C  Se
4  3  2
Selective  dynamics
Direct
0.0000000000000000  0.0000000000000000  0.0503484630950898  T  T  T
0.6666666666666643  0.3333333333333357  0.1174099030454325  T  T  T
0.3333333333333357  0.6666666666666643  0.1913850508502772  T  T  T
-0.0000000000000000  0.0000000000000000  0.2584464908006125  T  T  T
0.3333333333333357  0.6666666666666643  0.0834766572605927  T  T  T
-0.0000000000000000  -0.0000000000000000  0.1543974769478548  T  T  T
0.6666666666666643  0.3333333333333357  0.2253182966351097  T  T  T
0.6666666666666643  0.3333333333333357  0.0000000000000000  T  T  T
0.3333333333333357  0.6666666666666643  0.3087949538957023  T  T  T

0.00000000E+00  0.00000000E+00  0.00000000E+00
0.00000000E+00  0.00000000E+00  0.00000000E+00
0.00000000E+00  0.00000000E+00  0.00000000E+00
0.00000000E+00  0.00000000E+00  0.00000000E+00
0.00000000E+00  0.00000000E+00  0.00000000E+00
0.00000000E+00  0.00000000E+00  0.00000000E+00
0.00000000E+00  0.00000000E+00  0.00000000E+00
0.00000000E+00  0.00000000E+00  0.00000000E+00
0.00000000E+00  0.00000000E+00  0.00000000E+00
