Zr4C3  (n=3)
1.00000000000000
3.4110037000131017  0.0000000000000001  -0.0000000000000001
-1.7055018500065511  2.9540158583866951  0.0000000000000001
-0.0000000000000014  0.0000000000000010  36.7144114850211309
Zr  C  Se
4  3  2
Selective  dynamics
Direct
-0.0000000000000000  0.0000000000000000  0.0507367609095691  T  T  T
0.6666666666666643  0.3333333333333357  0.1233192210273260  T  T  T
0.3333333333333357  0.6666666666666643  0.1957492594738640  T  T  T
0.0000000000000000  -0.0000000000000000  0.2683317195916207  T  T  T
0.3333333333333357  0.6666666666666643  0.0849324474061935  T  T  T
-0.0000000000000000  -0.0000000000000000  0.1595342402505949  T  T  T
0.6666666666666643  0.3333333333333357  0.2341360330949891  T  T  T
0.6666666666666643  0.3333333333333357  0.0000000000000000  T  T  T
0.3333333333333357  0.6666666666666643  0.3190684805011900  T  T  T

0.00000000E+00  0.00000000E+00  0.00000000E+00
0.00000000E+00  0.00000000E+00  0.00000000E+00
0.00000000E+00  0.00000000E+00  0.00000000E+00
0.00000000E+00  0.00000000E+00  0.00000000E+00
0.00000000E+00  0.00000000E+00  0.00000000E+00
0.00000000E+00  0.00000000E+00  0.00000000E+00
0.00000000E+00  0.00000000E+00  0.00000000E+00
0.00000000E+00  0.00000000E+00  0.00000000E+00
0.00000000E+00  0.00000000E+00  0.00000000E+00
