Ti4N3  (n=3)
1.00000000000000
3.1020092031616846  -0.0000000000000001  0.0000000000000000
-1.5510046015808423  2.6864187729275852  0.0000000000000000
0.0000000000000000  0.0000000000000004  35.7188679072767457
Ti  N  Se
4  3  2
Selective  dynamics
Direct
0.0000000000000000  0.0000000000000000  0.0504656661559465  T  T  T
0.6666666666666643  0.3333333333333357  0.1154974404133317  T  T  T
0.3333333333333357  0.6666666666666643  0.1845923590478954  T  T  T
-0.0000000000000000  0.0000000000000000  0.2496241333052806  T  T  T
0.3333333333333357  0.6666666666666643  0.0821023192713913  T  T  T
-0.0000000000000000  -0.0000000000000000  0.1500448997306100  T  T  T
0.6666666666666643  0.3333333333333357  0.2179874801898286  T  T  T
0.6666666666666643  0.3333333333333357  0.0000000000000000  T  T  T
0.3333333333333357  0.6666666666666643  0.3000897994612272  T  T  T

0.00000000E+00  0.00000000E+00  0.00000000E+00
0.00000000E+00  0.00000000E+00  0.00000000E+00
0.00000000E+00  0.00000000E+00  0.00000000E+00
0.00000000E+00  0.00000000E+00  0.00000000E+00
0.00000000E+00  0.00000000E+00  0.00000000E+00
0.00000000E+00  0.00000000E+00  0.00000000E+00
0.00000000E+00  0.00000000E+00  0.00000000E+00
0.00000000E+00  0.00000000E+00  0.00000000E+00
0.00000000E+00  0.00000000E+00  0.00000000E+00
