Ta4N3  (n=3)
1.00000000000000
3.2363534722016416  -0.0000000000000003  0.0000000000000001
-1.6181767361008212  2.8027643232259751  0.0000000000000000
0.0000000000000008  0.0000000000000007  35.8802860504613790
Ta  N  Se
4  3  2
Selective  dynamics
Direct
0.0000000000000000  0.0000000000000000  0.0502599312224486  T  T  T
0.6666666666666643  0.3333333333333357  0.1161158596641809  T  T  T
0.3333333333333357  0.6666666666666643  0.1871226940965052  T  T  T
0.0000000000000000  0.0000000000000000  0.2529786225382305  T  T  T
0.3333333333333357  0.6666666666666643  0.0835068160334275  T  T  T
0.0000000000000000  0.0000000000000000  0.1516192768803395  T  T  T
0.6666666666666643  0.3333333333333357  0.2197317377272446  T  T  T
0.6666666666666643  0.3333333333333357  0.0000000000000000  T  T  T
0.3333333333333357  0.6666666666666643  0.3032385537606790  T  T  T

0.00000000E+00  0.00000000E+00  0.00000000E+00
0.00000000E+00  0.00000000E+00  0.00000000E+00
0.00000000E+00  0.00000000E+00  0.00000000E+00
0.00000000E+00  0.00000000E+00  0.00000000E+00
0.00000000E+00  0.00000000E+00  0.00000000E+00
0.00000000E+00  0.00000000E+00  0.00000000E+00
0.00000000E+00  0.00000000E+00  0.00000000E+00
0.00000000E+00  0.00000000E+00  0.00000000E+00
0.00000000E+00  0.00000000E+00  0.00000000E+00
