Cr4N3  (n=3)
1.00000000000000
3.0135283551127636  0.0000000000000000  0.0000000000000000
-1.5067641775563818  2.6097921106440722  0.0000000000000001
0.0000000000000000  0.0000000000000015  35.1693599846078797
Cr  N  Se
4  3  2
Selective  dynamics
Direct
-0.0000000000000000  -0.0000000000000000  0.0510385282028860  T  T  T
0.6666666666666643  0.3333333333333357  0.1112494727916045  T  T  T
0.3333333333333357  0.6666666666666643  0.1779044950104419  T  T  T
0.0000000000000000  0.0000000000000000  0.2381154395991606  T  T  T
0.3333333333333357  0.6666666666666643  0.0782946109113360  T  T  T
0.0000000000000000  0.0000000000000000  0.1445769839010303  T  T  T
0.6666666666666643  0.3333333333333357  0.2108593568907105  T  T  T
0.6666666666666643  0.3333333333333357  0.0000000000000000  T  T  T
0.3333333333333357  0.6666666666666643  0.2891539678020463  T  T  T

0.00000000E+00  0.00000000E+00  0.00000000E+00
0.00000000E+00  0.00000000E+00  0.00000000E+00
0.00000000E+00  0.00000000E+00  0.00000000E+00
0.00000000E+00  0.00000000E+00  0.00000000E+00
0.00000000E+00  0.00000000E+00  0.00000000E+00
0.00000000E+00  0.00000000E+00  0.00000000E+00
0.00000000E+00  0.00000000E+00  0.00000000E+00
0.00000000E+00  0.00000000E+00  0.00000000E+00
0.00000000E+00  0.00000000E+00  0.00000000E+00
