Nb4C3  (n=3)
1.00000000000000
3.2495584112208071  0.0000000000000004  -0.0000000000000000
-1.6247792056104036  2.8142001364093328  0.0000000000000000
-0.0000000000000001  0.0000000000000004  36.2539979260296832
Nb  C  Se
4  3  2
Selective  dynamics
Direct
0.0000000000000000  0.0000000000000000  0.0506674007377008  T  T  T
0.6666666666666643  0.3333333333333357  0.1181573383624896  T  T  T
0.3333333333333357  0.6666666666666643  0.1922635412599902  T  T  T
-0.0000000000000000  -0.0000000000000000  0.2597534788847790  T  T  T
0.3333333333333357  0.6666666666666643  0.0839489858018625  T  T  T
-0.0000000000000000  -0.0000000000000000  0.1552104398112435  T  T  T
0.6666666666666643  0.3333333333333357  0.2264718938206099  T  T  T
0.6666666666666643  0.3333333333333357  0.0000000000000000  T  T  T
0.3333333333333357  0.6666666666666643  0.3104208796224796  T  T  T

0.00000000E+00  0.00000000E+00  0.00000000E+00
0.00000000E+00  0.00000000E+00  0.00000000E+00
0.00000000E+00  0.00000000E+00  0.00000000E+00
0.00000000E+00  0.00000000E+00  0.00000000E+00
0.00000000E+00  0.00000000E+00  0.00000000E+00
0.00000000E+00  0.00000000E+00  0.00000000E+00
0.00000000E+00  0.00000000E+00  0.00000000E+00
0.00000000E+00  0.00000000E+00  0.00000000E+00
0.00000000E+00  0.00000000E+00  0.00000000E+00
