Mo4N3  (n=3)
1.00000000000000
3.0024295706953685  0.0000000000000000  0.0000000000000001
-1.5012147853476843  2.6001802815324435  -0.0000000000000004
-0.0000000000000019  -0.0000000000000011  36.8957899725381679
Mo  N  Se
4  3  2
Selective  dynamics
Direct
0.0000000000000000  0.0000000000000000  0.0498504000708738  T  T  T
0.6666666666666643  0.3333333333333357  0.1236299971938805  T  T  T
0.3333333333333357  0.6666666666666643  0.1987859202154582  T  T  T
0.0000000000000000  0.0000000000000000  0.2725655173384649  T  T  T
0.3333333333333357  0.6666666666666643  0.0883349870621980  T  T  T
0.0000000000000000  0.0000000000000000  0.1612079587046693  T  T  T
0.6666666666666643  0.3333333333333357  0.2340809303471270  T  T  T
0.6666666666666643  0.3333333333333357  0.0000000000000000  T  T  T
0.3333333333333357  0.6666666666666643  0.3224159174093387  T  T  T

0.00000000E+00  0.00000000E+00  0.00000000E+00
0.00000000E+00  0.00000000E+00  0.00000000E+00
0.00000000E+00  0.00000000E+00  0.00000000E+00
0.00000000E+00  0.00000000E+00  0.00000000E+00
0.00000000E+00  0.00000000E+00  0.00000000E+00
0.00000000E+00  0.00000000E+00  0.00000000E+00
0.00000000E+00  0.00000000E+00  0.00000000E+00
0.00000000E+00  0.00000000E+00  0.00000000E+00
0.00000000E+00  0.00000000E+00  0.00000000E+00
