Mo4C3  (n=3)
1.00000000000000
3.1661291915549423  0.0000000000000003  -0.0000000000000001
-1.5830645957774712  2.7419483122922412  -0.0000000000000001
-0.0000000000000011  -0.0000000000000014  36.0031222627194296
Mo  C  Se
4  3  2
Selective  dynamics
Direct
-0.0000000000000000  -0.0000000000000000  0.0529329071322776  T  T  T
0.6666666666666643  0.3333333333333357  0.1165208846852068  T  T  T
0.3333333333333357  0.6666666666666643  0.1890948944805140  T  T  T
0.0000000000000000  0.0000000000000000  0.2526828720334358  T  T  T
0.3333333333333357  0.6666666666666643  0.0824953257220427  T  T  T
-0.0000000000000000  -0.0000000000000000  0.1528078895828567  T  T  T
0.6666666666666643  0.3333333333333357  0.2231204534436707  T  T  T
0.6666666666666643  0.3333333333333357  0.0000000000000000  T  T  T
0.3333333333333357  0.6666666666666643  0.3056157791657131  T  T  T

0.00000000E+00  0.00000000E+00  0.00000000E+00
0.00000000E+00  0.00000000E+00  0.00000000E+00
0.00000000E+00  0.00000000E+00  0.00000000E+00
0.00000000E+00  0.00000000E+00  0.00000000E+00
0.00000000E+00  0.00000000E+00  0.00000000E+00
0.00000000E+00  0.00000000E+00  0.00000000E+00
0.00000000E+00  0.00000000E+00  0.00000000E+00
0.00000000E+00  0.00000000E+00  0.00000000E+00
0.00000000E+00  0.00000000E+00  0.00000000E+00
