Sc4C3  (n=3)
1.00000000000000
3.3011220659884919  0.0000000000000003  0.0000000000000000
-1.6505610329942459  2.8588555711807659  -0.0000000000000004
0.0000000000000007  0.0000000000000012  37.1660653467497966
Sc  C  Se
4  3  2
Selective  dynamics
Direct
0.0000000000000000  0.0000000000000000  0.0562489264442348  T  T  T
0.6666666666666643  0.3333333333333357  0.1260571728303635  T  T  T
0.3333333333333357  0.6666666666666643  0.2012862043402772  T  T  T
-0.0000000000000000  -0.0000000000000000  0.2710944507263980  T  T  T
0.3333333333333357  0.6666666666666643  0.0889664176752630  T  T  T
0.0000000000000000  0.0000000000000000  0.1636716885853204  T  T  T
0.6666666666666643  0.3333333333333357  0.2383769594953697  T  T  T
0.6666666666666643  0.3333333333333357  0.0000000000000000  T  T  T
0.3333333333333357  0.6666666666666643  0.3273433771706407  T  T  T

0.00000000E+00  0.00000000E+00  0.00000000E+00
0.00000000E+00  0.00000000E+00  0.00000000E+00
0.00000000E+00  0.00000000E+00  0.00000000E+00
0.00000000E+00  0.00000000E+00  0.00000000E+00
0.00000000E+00  0.00000000E+00  0.00000000E+00
0.00000000E+00  0.00000000E+00  0.00000000E+00
0.00000000E+00  0.00000000E+00  0.00000000E+00
0.00000000E+00  0.00000000E+00  0.00000000E+00
0.00000000E+00  0.00000000E+00  0.00000000E+00
