Ti4C3  (n=3)
1.00000000000000
3.1495429464083067  0.0000000000000000  0.0000000000000000
-1.5747714732041533  2.7275842023451249  -0.0000000000000001
0.0000000000000003  -0.0000000000000025  35.8989590386664190
Ti  C  Se
4  3  2
Selective  dynamics
Direct
-0.0000000000000000  0.0000000000000000  0.0505892052550148  T  T  T
0.6666666666666643  0.3333333333333357  0.1180243862591844  T  T  T
0.3333333333333357  0.6666666666666643  0.1855765907754768  T  T  T
-0.0000000000000000  -0.0000000000000000  0.2530117717796465  T  T  T
0.3333333333333357  0.6666666666666643  0.0818863735988409  T  T  T
-0.0000000000000000  0.0000000000000000  0.1518004885173307  T  T  T
0.6666666666666643  0.3333333333333357  0.2217146034358130  T  T  T
0.6666666666666643  0.3333333333333357  0.0000000000000000  T  T  T
0.3333333333333357  0.6666666666666643  0.3036009770346614  T  T  T

0.00000000E+00  0.00000000E+00  0.00000000E+00
0.00000000E+00  0.00000000E+00  0.00000000E+00
0.00000000E+00  0.00000000E+00  0.00000000E+00
0.00000000E+00  0.00000000E+00  0.00000000E+00
0.00000000E+00  0.00000000E+00  0.00000000E+00
0.00000000E+00  0.00000000E+00  0.00000000E+00
0.00000000E+00  0.00000000E+00  0.00000000E+00
0.00000000E+00  0.00000000E+00  0.00000000E+00
0.00000000E+00  0.00000000E+00  0.00000000E+00
