Sc2C  (n=1)
1.00000000000000
3.6847274039511535  -0.0000000000000000  -0.0000000000000000
-1.8423637019755770  3.1910675382245230  -0.0000000000000000
-0.0000000000000002  0.0000000000000005  29.9807391639755139
Sc  C  S
2  1  2
Selective  dynamics
Direct
-0.0000000000000000  -0.0000000000000000  0.0423661915818023  T  T  T
0.6666666666666643  0.3333333333333357  0.1237651081414651  T  T  T
0.3333333333333357  0.6666666666666643  0.0830656498616370  T  T  T
0.3333333333333357  0.6666666666666643  0.0000000000000000  T  T  T
0.3333333333333357  0.6666666666666643  0.1661312997232673  T  T  T

0.00000000E+00  0.00000000E+00  0.00000000E+00
0.00000000E+00  0.00000000E+00  0.00000000E+00
0.00000000E+00  0.00000000E+00  0.00000000E+00
0.00000000E+00  0.00000000E+00  0.00000000E+00
0.00000000E+00  0.00000000E+00  0.00000000E+00
