Nb2N  (n=1)
1.00000000000000
3.1700630330126098  0.0000000000000000  0.0000000000000000
-1.5850315165063049  2.7453551184355711  0.0000000000000000
0.0000000000000005  -0.0000000000000002  30.9740373085118712
Nb  N  S
2  1  2
Selective  dynamics
Direct
0.0000000000000000  0.0000000000000000  0.0535997541006577  T  T  T
0.6666666666666643  0.3333333333333357  0.1392726586561439  T  T  T
0.3333333333333357  0.6666666666666643  0.0964362063784008  T  T  T
0.3333333333333357  0.6666666666666643  0.0000000000000000  T  T  T
0.3333333333333357  0.6666666666666643  0.1928724127568015  T  T  T

0.00000000E+00  0.00000000E+00  0.00000000E+00
0.00000000E+00  0.00000000E+00  0.00000000E+00
0.00000000E+00  0.00000000E+00  0.00000000E+00
0.00000000E+00  0.00000000E+00  0.00000000E+00
0.00000000E+00  0.00000000E+00  0.00000000E+00
