Ti2C  (n=1)
1.00000000000000
3.1806821832352603  -0.0000000000000001  -0.0000000000000000
-1.5903410916176302  2.7545515721632201  0.0000000000000000
-0.0000000000000005  0.0000000000000000  30.6630756496172125
Ti  C  S
2  1  2
Selective  dynamics
Direct
-0.0000000000000000  -0.0000000000000000  0.0519892795827145  T  T  T
0.6666666666666643  0.3333333333333357  0.1326978572958038  T  T  T
0.3333333333333357  0.6666666666666643  0.0923435684392591  T  T  T
0.3333333333333357  0.6666666666666643  0.0000000000000000  T  T  T
0.3333333333333357  0.6666666666666643  0.1846871368785183  T  T  T

0.00000000E+00  0.00000000E+00  0.00000000E+00
0.00000000E+00  0.00000000E+00  0.00000000E+00
0.00000000E+00  0.00000000E+00  0.00000000E+00
0.00000000E+00  0.00000000E+00  0.00000000E+00
0.00000000E+00  0.00000000E+00  0.00000000E+00
