Mo2N  (n=1)
1.00000000000000
3.0555533898624914  0.0000000000000005  0.0000000000000004
-1.5277766949312450  2.6461868584855597  -0.0000000000000009
0.0000000000000038  -0.0000000000000105  30.9103664548679262
Mo  N  S
2  1  2
Selective  dynamics
Direct
-0.0000000000000000  -0.0000000000000000  0.0511549016163610  T  T  T
0.6666666666666643  0.3333333333333357  0.1400549458468787  T  T  T
0.3333333333333357  0.6666666666666643  0.0956049237316198  T  T  T
0.3333333333333357  0.6666666666666643  0.0000000000000000  T  T  T
0.3333333333333357  0.6666666666666643  0.1912098474632328  T  T  T

0.00000000E+00  0.00000000E+00  0.00000000E+00
0.00000000E+00  0.00000000E+00  0.00000000E+00
0.00000000E+00  0.00000000E+00  0.00000000E+00
0.00000000E+00  0.00000000E+00  0.00000000E+00
0.00000000E+00  0.00000000E+00  0.00000000E+00
