Zr2C  (n=1)
1.00000000000000
3.4299738609863333  -0.0000000000000011  0.0000000000000004
-1.7149869304931662  2.9704444980782654  -0.0000000000000001
0.0000000000000029  -0.0000000000000016  31.0477178376478200
Zr  C  S
2  1  2
Selective  dynamics
Direct
0.0000000000000000  -0.0000000000000000  0.0528929606087051  T  T  T
0.6666666666666643  0.3333333333333357  0.1418948775593707  T  T  T
0.3333333333333357  0.6666666666666643  0.0973939190840379  T  T  T
0.3333333333333357  0.6666666666666643  0.0000000000000000  T  T  T
0.3333333333333357  0.6666666666666643  0.1947878381680757  T  T  T

0.00000000E+00  0.00000000E+00  0.00000000E+00
0.00000000E+00  0.00000000E+00  0.00000000E+00
0.00000000E+00  0.00000000E+00  0.00000000E+00
0.00000000E+00  0.00000000E+00  0.00000000E+00
0.00000000E+00  0.00000000E+00  0.00000000E+00
