Hf2C  (n=1)
1.00000000000000
3.3823915302326446  0.0000000000000009  0.0000000000000001
-1.6911957651163219  2.9292369909115101  -0.0000000000000002
0.0000000000000002  -0.0000000000000048  30.9776115402340295
Hf  C  S
2  1  2
Selective  dynamics
Direct
-0.0000000000000000  -0.0000000000000000  0.0525691448164435  T  T  T
0.6666666666666643  0.3333333333333357  0.1403963952307763  T  T  T
0.3333333333333357  0.6666666666666643  0.0964827700236099  T  T  T
0.3333333333333357  0.6666666666666643  0.0000000000000000  T  T  T
0.3333333333333357  0.6666666666666643  0.1929655400472128  T  T  T

0.00000000E+00  0.00000000E+00  0.00000000E+00
0.00000000E+00  0.00000000E+00  0.00000000E+00
0.00000000E+00  0.00000000E+00  0.00000000E+00
0.00000000E+00  0.00000000E+00  0.00000000E+00
0.00000000E+00  0.00000000E+00  0.00000000E+00
