Mo2C  (n=1)
1.00000000000000
3.0831559709183058  -0.0000000000000001  0.0000000000000000
-1.5415779854591529  2.6700913948428315  -0.0000000000000001
0.0000000000000000  -0.0000000000000001  30.8512522492284624
Mo  C  S
2  1  2
Selective  dynamics
Direct
-0.0000000000000000  0.0000000000000000  0.0525221315741880  T  T  T
0.6666666666666643  0.3333333333333357  0.1371379899002910  T  T  T
0.3333333333333357  0.6666666666666643  0.0948300607372394  T  T  T
0.3333333333333357  0.6666666666666643  0.0000000000000000  T  T  T
0.3333333333333357  0.6666666666666643  0.1896601214744790  T  T  T

0.00000000E+00  0.00000000E+00  0.00000000E+00
0.00000000E+00  0.00000000E+00  0.00000000E+00
0.00000000E+00  0.00000000E+00  0.00000000E+00
0.00000000E+00  0.00000000E+00  0.00000000E+00
0.00000000E+00  0.00000000E+00  0.00000000E+00
