Hf2N  (n=1)
1.00000000000000
3.3326018138012365  -0.0000000000000015  0.0000000000000000
-1.6663009069006192  2.8861178317392389  0.0000000000000000
0.0000000000000005  0.0000000000000001  30.9132127943743882
Hf  N  S
2  1  2
Selective  dynamics
Direct
0.0000000000000000  0.0000000000000000  0.0523981521075497  T  T  T
0.6666666666666643  0.3333333333333357  0.1388861648512720  T  T  T
0.3333333333333357  0.6666666666666643  0.0956421584794108  T  T  T
0.3333333333333357  0.6666666666666643  0.0000000000000000  T  T  T
0.3333333333333357  0.6666666666666643  0.1912843169588145  T  T  T

0.00000000E+00  0.00000000E+00  0.00000000E+00
0.00000000E+00  0.00000000E+00  0.00000000E+00
0.00000000E+00  0.00000000E+00  0.00000000E+00
0.00000000E+00  0.00000000E+00  0.00000000E+00
0.00000000E+00  0.00000000E+00  0.00000000E+00
