Ta2N  (n=1)
1.00000000000000
3.1476780467684251  -0.0000000000000001  0.0000000000000000
-1.5738390233842126  2.7259691516724724  0.0000000000000000
-0.0000000000000001  -0.0000000000000006  30.9747637742393529
Ta  N  S
2  1  2
Selective  dynamics
Direct
0.0000000000000000  -0.0000000000000000  0.0533345998975039  T  T  T
0.6666666666666643  0.3333333333333357  0.1395567428028514  T  T  T
0.3333333333333357  0.6666666666666643  0.0964456713501776  T  T  T
0.3333333333333357  0.6666666666666643  0.0000000000000000  T  T  T
0.3333333333333357  0.6666666666666643  0.1928913427003553  T  T  T

0.00000000E+00  0.00000000E+00  0.00000000E+00
0.00000000E+00  0.00000000E+00  0.00000000E+00
0.00000000E+00  0.00000000E+00  0.00000000E+00
0.00000000E+00  0.00000000E+00  0.00000000E+00
0.00000000E+00  0.00000000E+00  0.00000000E+00
