Ta2C  (n=1)
1.00000000000000
3.2322854569300832  0.0000000000000001  0.0000000000000007
-1.6161427284650416  2.7992413182418807  -0.0000000000000018
0.0000000000000068  -0.0000000000000143  30.7909832809019051
Ta  C  S
2  1  2
Selective  dynamics
Direct
-0.0000000000000000  -0.0000000000000000  0.0538581039642451  T  T  T
0.6666666666666643  0.3333333333333357  0.1342158925064606  T  T  T
0.3333333333333357  0.6666666666666643  0.0940369982353528  T  T  T
0.3333333333333357  0.6666666666666643  0.0000000000000000  T  T  T
0.3333333333333357  0.6666666666666643  0.1880739964707057  T  T  T

0.00000000E+00  0.00000000E+00  0.00000000E+00
0.00000000E+00  0.00000000E+00  0.00000000E+00
0.00000000E+00  0.00000000E+00  0.00000000E+00
0.00000000E+00  0.00000000E+00  0.00000000E+00
0.00000000E+00  0.00000000E+00  0.00000000E+00
