Sc2N
1.00000000000000
3.4615015283589692  -0.0000000000000003  0.0000000000000006
-1.7307507641794855  2.9977482590748501  0.0000000000000000
0.0000000000000045  0.0000000000000030  30.5976426146861478
Sc  N  S
2  1  2
Selective  dynamics
Direct
0.0000000000000000  0.0000000000000000  0.0480523801204080  T  T  T
0.6666666666666643  0.3333333333333357  0.1348912108345178  T  T  T
0.3333333333333357  0.6666666666666643  0.0914717954774629  T  T  T
0.3333333333333357  0.6666666666666643  0.0000000000000000  T  T  T
0.3333333333333357  0.6666666666666643  0.1829435909549258  T  T  T

0.00000000E+00  0.00000000E+00  0.00000000E+00
0.00000000E+00  0.00000000E+00  0.00000000E+00
0.00000000E+00  0.00000000E+00  0.00000000E+00
0.00000000E+00  0.00000000E+00  0.00000000E+00
0.00000000E+00  0.00000000E+00  0.00000000E+00
