Nb2C  (n=1)
1.00000000000000
3.2480115985848861  -0.0000000000000000  -0.0000000000000000
-1.6240057992924430  2.8128605564706830  0.0000000000000001
-0.0000000000000003  -0.0000000000000005  30.8146985164730687
Nb  C  S
2  1  2
Selective  dynamics
Direct
-0.0000000000000000  -0.0000000000000000  0.0540712670154954  T  T  T
0.6666666666666643  0.3333333333333357  0.1346275941258726  T  T  T
0.3333333333333357  0.6666666666666643  0.0943494305706803  T  T  T
0.3333333333333357  0.6666666666666643  0.0000000000000000  T  T  T
0.3333333333333357  0.6666666666666643  0.1886988611413680  T  T  T

0.00000000E+00  0.00000000E+00  0.00000000E+00
0.00000000E+00  0.00000000E+00  0.00000000E+00
0.00000000E+00  0.00000000E+00  0.00000000E+00
0.00000000E+00  0.00000000E+00  0.00000000E+00
0.00000000E+00  0.00000000E+00  0.00000000E+00
