Ti2N  (n=1)
1.00000000000000
3.1239839090612245  0.0000000000000001  0.0000000000000000
-1.5619919545306122  2.7054494264284590  0.0000000000000000
-0.0000000000000004  -0.0000000000000005  30.6355825004947242
Ti  N  S
2  1  2
Selective  dynamics
Direct
-0.0000000000000000  0.0000000000000000  0.0520019358933428  T  T  T
0.6666666666666643  0.3333333333333357  0.1319535185330165  T  T  T
0.3333333333333357  0.6666666666666643  0.0919777272131797  T  T  T
0.3333333333333357  0.6666666666666643  0.0000000000000000  T  T  T
0.3333333333333357  0.6666666666666643  0.1839554544263592  T  T  T

0.00000000E+00  0.00000000E+00  0.00000000E+00
0.00000000E+00  0.00000000E+00  0.00000000E+00
0.00000000E+00  0.00000000E+00  0.00000000E+00
0.00000000E+00  0.00000000E+00  0.00000000E+00
0.00000000E+00  0.00000000E+00  0.00000000E+00
