Zr2N  (n=1)
1.00000000000000
3.3797157212742510  0.0000000000000007  -0.0000000000000003
-1.6898578606371255  2.9269196725056683  0.0000000000000007
-0.0000000000000025  0.0000000000000056  30.9822845313098689
Zr  N  S
2  1  2
Selective  dynamics
Direct
0.0000000000000000  0.0000000000000000  0.0528897030268959  T  T  T
0.6666666666666643  0.3333333333333357  0.1401975602852898  T  T  T
0.3333333333333357  0.6666666666666643  0.0965436316560893  T  T  T
0.3333333333333357  0.6666666666666643  0.0000000000000000  T  T  T
0.3333333333333357  0.6666666666666643  0.1930872633121787  T  T  T

0.00000000E+00  0.00000000E+00  0.00000000E+00
0.00000000E+00  0.00000000E+00  0.00000000E+00
0.00000000E+00  0.00000000E+00  0.00000000E+00
0.00000000E+00  0.00000000E+00  0.00000000E+00
0.00000000E+00  0.00000000E+00  0.00000000E+00
