Cr2C  (n=1)
1.00000000000000
2.9284770990876363  0.0000000000000000  0.0000000000000000
-1.4642385495438182  2.5361355622402511  -0.0000000000000001
0.0000000000000000  -0.0000000000000008  30.3870725090955176
Cr  C  S
2  1  2
Selective  dynamics
Direct
0.0000000000000000  -0.0000000000000000  0.0504072320168885  T  T  T
0.6666666666666643  0.3333333333333357  0.1268744889347778  T  T  T
0.3333333333333357  0.6666666666666643  0.0886408604758367  T  T  T
0.3333333333333357  0.6666666666666643  0.0000000000000000  T  T  T
0.3333333333333357  0.6666666666666643  0.1772817209516661  T  T  T

0.00000000E+00  0.00000000E+00  0.00000000E+00
0.00000000E+00  0.00000000E+00  0.00000000E+00
0.00000000E+00  0.00000000E+00  0.00000000E+00
0.00000000E+00  0.00000000E+00  0.00000000E+00
0.00000000E+00  0.00000000E+00  0.00000000E+00
