Cr2N  (n=1)
1.00000000000000
2.8875853040183084  0.0000000000000000  0.0000000000000000
-1.4437926520091540  2.5007222290471312  0.0000000000000000
0.0000000000000000  0.0000000000000002  30.4835223990483648
Cr  N  S
2  1  2
Selective  dynamics
Direct
-0.0000000000000000  0.0000000000000000  0.0497412299514854  T  T  T
0.6666666666666643  0.3333333333333357  0.1301435723120336  T  T  T
0.3333333333333357  0.6666666666666643  0.0899424011317558  T  T  T
0.3333333333333357  0.6666666666666643  0.0000000000000000  T  T  T
0.3333333333333357  0.6666666666666643  0.1798848022635189  T  T  T

0.00000000E+00  0.00000000E+00  0.00000000E+00
0.00000000E+00  0.00000000E+00  0.00000000E+00
0.00000000E+00  0.00000000E+00  0.00000000E+00
0.00000000E+00  0.00000000E+00  0.00000000E+00
0.00000000E+00  0.00000000E+00  0.00000000E+00
