Sc2N
   1.00000000000000
     3.2182953527396823    0.0000000000000000    0.0000000000000002
    -1.6091476763698414    2.7871255324091777    0.0000000000000000
     0.0000000000000004    0.0000000000000005   12.4478232475617769
  Sc N 
  2 1 
Selective Dynamics
Direct
  0.0000000000000000  0.0000000000000000  0.0000000000000000   T   T   T
  0.6666666666666643  0.3333333333333357  0.1966466906606539   T   T   T
  0.3333333333333357  0.6666666666666643  0.0983233453303270   T   T   T

  0.00000000E+00  0.00000000E+00  0.00000000E+00
  0.00000000E+00  0.00000000E+00  0.00000000E+00
  0.00000000E+00  0.00000000E+00  0.00000000E+00
