Nb2N (n=1)                              
   1.00000000000000     
     3.1314030402334510    0.0000000000000000    0.0000000000000000
    -1.5657015201167255    2.7118745823888366    0.0000000000000000
     0.0000000000000000    0.0000000000000000   11.4344194860127004
   Nb   N 
     2     1
Selective dynamics
Direct
  0.0000000000000000  0.0000000000000000  0.9990827872639366   T   T   T
  0.6666666666666643  0.3333333333333357  0.2009172127360662   T   T   T
  0.3333333333333357  0.6666666666666643  0.1000000000000014   T   T   T
 
  0.00000000E+00  0.00000000E+00  0.00000000E+00
  0.00000000E+00  0.00000000E+00  0.00000000E+00
  0.00000000E+00  0.00000000E+00  0.00000000E+00
