Zr2C (n=1)                              
   1.00000000000000     
     3.2743854972073825   -0.0000000000000006    0.0000000000000002
    -1.6371927486036912    2.8357010224247374    0.0000000000000000
     0.0000000000000003   -0.0000000000000016   10.9534851885305446
   Zr   C 
     2     1
Selective dynamics
Direct
  0.0000000000000000  0.0000000000000000 -0.0161051737551050   T   T   T
  0.6666666666666643  0.3333333333333357  0.2161051737551078   T   T   T
  0.3333333333333357  0.6666666666666643  0.1000000000000014   T   T   T
 
  0.00000000E+00  0.00000000E+00  0.00000000E+00
  0.00000000E+00  0.00000000E+00  0.00000000E+00
  0.00000000E+00  0.00000000E+00  0.00000000E+00
