Ti2C (n=1)                              
   1.00000000000000     
     3.0746229897982098    0.0000000000000000    0.0000000000000000
    -1.5373114948991049    2.6627016162736585    0.0000000000000000
     0.0000000000000000   -0.0000000000000001   11.9005979177905417
   Ti   C 
     2     1
Selective dynamics
Direct
  0.0000000000000000  0.0000000000000000  0.0054720778409996   T   T   T
  0.6666666666666643  0.3333333333333357  0.1945279221590032   T   T   T
  0.3333333333333357  0.6666666666666643  0.1000000000000014   T   T   T
 
  0.00000000E+00  0.00000000E+00  0.00000000E+00
  0.00000000E+00  0.00000000E+00  0.00000000E+00
  0.00000000E+00  0.00000000E+00  0.00000000E+00
