Mo2C (n=1)                              
   1.00000000000000     
     2.9249197101421029    0.0000000000000000    0.0000000000000000
    -1.4624598550710515    2.5330547730477555    0.0000000000000000
     0.0000000000000000    0.0000000000000000   12.9993382563400051
   Mo   C 
     2     1
Selective dynamics
Direct
  0.0000000000000000  0.0000000000000000  0.0033779925161213   T   T   T
  0.6666666666666643  0.3333333333333357  0.1966220074838816   T   T   T
  0.3333333333333357  0.6666666666666643  0.1000000000000014   T   T   T
 
  0.00000000E+00  0.00000000E+00  0.00000000E+00
  0.00000000E+00  0.00000000E+00  0.00000000E+00
  0.00000000E+00  0.00000000E+00  0.00000000E+00
