Zr2N (n=1)                              
   1.00000000000000     
     3.2296700371498699    0.0000000000000003   -0.0000000000000001
    -1.6148350185749349    2.7969762980706951    0.0000000000000002
    -0.0000000000000002    0.0000000000000005   10.1866118967949291
   Zr   N 
     2     1
Selective dynamics
Direct
  0.0000000000000000  0.0000000000000000 -0.0236422983852587   T   T   T
  0.6666666666666643  0.3333333333333357  0.2236422983852615   T   T   T
  0.3333333333333357  0.6666666666666643  0.1000000000000014   T   T   T
 
  0.00000000E+00  0.00000000E+00  0.00000000E+00
  0.00000000E+00  0.00000000E+00  0.00000000E+00
  0.00000000E+00  0.00000000E+00  0.00000000E+00
