Cr2N (n=1)                              
   1.00000000000000     
     2.8207226385784696    0.0000000000000000    0.0000000000000000
    -1.4103613192892348    2.4428174620827208    0.0000000000000000
     0.0000000000000000    0.0000000000000000   11.7530109940769609
   Cr   N 
     2     1
Selective dynamics
Direct
  0.0000000000000000  0.0000000000000000  0.0121195677474886   T   T   T
  0.6666666666666643  0.3333333333333357  0.1878804322525142   T   T   T
  0.3333333333333357  0.6666666666666643  0.1000000000000014   T   T   T
 
  0.00000000E+00  0.00000000E+00  0.00000000E+00
  0.00000000E+00  0.00000000E+00  0.00000000E+00
  0.00000000E+00  0.00000000E+00  0.00000000E+00
