Nb2C (n=1)                              
   1.00000000000000     
     3.1301490760979984    0.0000000000000000    0.0000000000000000
    -1.5650745380489992    2.7107886175976708    0.0000000000000000
     0.0000000000000000    0.0000000000000000   11.4821305139355339
   Nb   C 
     2     1
Selective dynamics
Direct
  0.0000000000000000  0.0000000000000000 -0.0040021042194115   T   T   T
  0.6666666666666643  0.3333333333333357  0.2040021042194143   T   T   T
  0.3333333333333357  0.6666666666666643  0.1000000000000014   T   T   T
 
  0.00000000E+00  0.00000000E+00  0.00000000E+00
  0.00000000E+00  0.00000000E+00  0.00000000E+00
  0.00000000E+00  0.00000000E+00  0.00000000E+00
