Ti2N (n=1)                              
   1.00000000000000     
     2.9781443091026958    0.0000000000000000    0.0000000000000000
    -1.4890721545513479    2.5791486278541491    0.0000000000000000
     0.0000000000000000    0.0000000000000000   12.5156775529138624
   Ti   N 
     2     1
Selective dynamics
Direct
  0.0000000000000000  0.0000000000000000  0.0086427367133360   T   T   T
  0.6666666666666643  0.3333333333333357  0.1913572632866669   T   T   T
  0.3333333333333357  0.6666666666666643  0.1000000000000014   T   T   T
 
  0.00000000E+00  0.00000000E+00  0.00000000E+00
  0.00000000E+00  0.00000000E+00  0.00000000E+00
  0.00000000E+00  0.00000000E+00  0.00000000E+00
