Ta2C (n=1)                              
   1.00000000000000     
     3.0844505544978578    0.0000000000000000    0.0000000000000002
    -1.5422252772489289    2.6712125369626665   -0.0000000000000006
     0.0000000000000008   -0.0000000000000009    9.7180840715031511
   Ta   C 
     2     1
Selective dynamics
Direct
  0.0000000000000000  0.0000000000000000 -0.0253244274259617   T   T   T
  0.6666666666666643  0.3333333333333357  0.2253244274259645   T   T   T
  0.3333333333333357  0.6666666666666643  0.1000000000000014   T   T   T
 
  0.00000000E+00  0.00000000E+00  0.00000000E+00
  0.00000000E+00  0.00000000E+00  0.00000000E+00
  0.00000000E+00  0.00000000E+00  0.00000000E+00
