Sc2C (n=1)                              
   1.00000000000000     
     3.3275809957400750    0.0000000000000000    0.0000000000000000
    -1.6637904978700375    2.8817696755493425    0.0000000000000000
     0.0000000000000000    0.0000000000000001   10.2567536565789155
   Sc   C 
     2     1
Selective dynamics
Direct
  0.0000000000000000  0.0000000000000000  0.9825416452157761   T   T   T
  0.6666666666666643  0.3333333333333357  0.2174583547842267   T   T   T
  0.3333333333333357  0.6666666666666643  0.1000000000000014   T   T   T
 
  0.00000000E+00  0.00000000E+00  0.00000000E+00
  0.00000000E+00  0.00000000E+00  0.00000000E+00
  0.00000000E+00  0.00000000E+00  0.00000000E+00
