Mo2N (n=1)                              
   1.00000000000000     
     2.8040792425904510   -0.0000000000000001    0.0000000000000001
    -1.4020396212952253    2.4284038583454839   -0.0000000000000002
     0.0000000000000000   -0.0000000000000015   10.9449608743155622
   Mo   N 
     2     1
Selective dynamics
Direct
  0.0000000000000000  0.0000000000000000 -0.0285792671332871   T   T   T
  0.6666666666666643  0.3333333333333357  0.2285792671332901   T   T   T
  0.3333333333333357  0.6666666666666643  0.1000000000000014   T   T   T
 
  0.00000000E+00  0.00000000E+00  0.00000000E+00
  0.00000000E+00  0.00000000E+00  0.00000000E+00
  0.00000000E+00  0.00000000E+00  0.00000000E+00
