Hf2N (n=1)                              
   1.00000000000000     
     3.1628465124668739   -0.0000000000000003    0.0000000000000000
    -1.5814232562334372    2.7391054281216296    0.0000000000000000
     0.0000000000000000    0.0000000000000000   10.4282221095743299
   Hf   N 
     2     1
Selective dynamics
Direct
  0.0000000000000000  0.0000000000000000 -0.0209636907199897   T   T   T
  0.6666666666666643  0.3333333333333357  0.2209636907199925   T   T   T
  0.3333333333333357  0.6666666666666643  0.1000000000000014   T   T   T
 
  0.00000000E+00  0.00000000E+00  0.00000000E+00
  0.00000000E+00  0.00000000E+00  0.00000000E+00
  0.00000000E+00  0.00000000E+00  0.00000000E+00
