Hf2C (n=1)                              
   1.00000000000000     
     3.2118794265880708    0.0000000000000004    0.0000000000000000
    -1.6059397132940354    2.7815691773745947    0.0000000000000000
    -0.0000000000000001   -0.0000000000000025   11.3091233979961121
   Hf   C 
     2     1
Selective dynamics
Direct
  0.0000000000000000  0.0000000000000000 -0.0124658222020490   T   T   T
  0.6666666666666643  0.3333333333333357  0.2124658222020518   T   T   T
  0.3333333333333357  0.6666666666666643  0.1000000000000014   T   T   T
 
  0.00000000E+00  0.00000000E+00  0.00000000E+00
  0.00000000E+00  0.00000000E+00  0.00000000E+00
  0.00000000E+00  0.00000000E+00  0.00000000E+00
