Ta2N (n=1)                              
   1.00000000000000     
     3.0816236357203333    0.0000000000000000    0.0000000000000000
    -1.5408118178601666    2.6687643534901082    0.0000000000000000
     0.0000000000000000    0.0000000000000000   11.7631044540313034
   Ta   N 
     2     1
Selective dynamics
Direct
  0.0000000000000000  0.0000000000000000  0.9995797226956853   T   T   T
  0.6666666666666643  0.3333333333333357  0.2004202773043176   T   T   T
  0.3333333333333357  0.6666666666666643  0.1000000000000014   T   T   T
 
  0.00000000E+00  0.00000000E+00  0.00000000E+00
  0.00000000E+00  0.00000000E+00  0.00000000E+00
  0.00000000E+00  0.00000000E+00  0.00000000E+00
