Cr2C (n=1)                              
   1.00000000000000     
     2.8073018038618689    0.0000000000000000    0.0000000000000000
    -1.4036509019309344    2.4311946782413516    0.0000000000000000
     0.0000000000000000   -0.0000000000000001   13.8447036315735588
   Cr   C 
     2     1
Selective dynamics
Direct
  0.0000000000000000  0.0000000000000000  0.0237393567522086   T   T   T
  0.6666666666666643  0.3333333333333357  0.1762606432477943   T   T   T
  0.3333333333333357  0.6666666666666643  0.1000000000000014   T   T   T
 
  0.00000000E+00  0.00000000E+00  0.00000000E+00
  0.00000000E+00  0.00000000E+00  0.00000000E+00
  0.00000000E+00  0.00000000E+00  0.00000000E+00
