Hf4N3  (n=3)
1.00000000000000
3.1870431698826298  0.0000000000000000  0.0000000000000000
-1.5935215849413149  2.7600603482172459  0.0000000000000000
0.0000000000000000  -0.0000000000000006  34.9561434891660525
Hf  N  O
4  3  2
Selective  dynamics
Direct
0.0000000000000000  0.0000000000000000  0.0284594448954314  T  T  T
0.6666666666666643  0.3333333333333357  0.1043239421507895  T  T  T
0.3333333333333357  0.6666666666666643  0.1804941898108222  T  T  T
0.0000000000000000  0.0000000000000000  0.2563586870661803  T  T  T
0.3333333333333357  0.6666666666666643  0.0657324389986805  T  T  T
0.0000000000000000  0.0000000000000000  0.1424090659808059  T  T  T
0.6666666666666643  0.3333333333333357  0.2190856929629154  T  T  T
0.6666666666666643  0.3333333333333357  0.0000000000000000  T  T  T
0.3333333333333357  0.6666666666666643  0.2848181319616038  T  T  T

0.00000000E+00  0.00000000E+00  0.00000000E+00
0.00000000E+00  0.00000000E+00  0.00000000E+00
0.00000000E+00  0.00000000E+00  0.00000000E+00
0.00000000E+00  0.00000000E+00  0.00000000E+00
0.00000000E+00  0.00000000E+00  0.00000000E+00
0.00000000E+00  0.00000000E+00  0.00000000E+00
0.00000000E+00  0.00000000E+00  0.00000000E+00
0.00000000E+00  0.00000000E+00  0.00000000E+00
0.00000000E+00  0.00000000E+00  0.00000000E+00
