Cr4N3  (n=3)
1.00000000000000
2.8883192367937611  0.0000000000000000  0.0000000000000000
-1.4441596183968806  2.5013578333276110  0.0000000000000000
0.0000000000000000  0.0000000000000010  34.2401316601066270
Cr  N  O
4  3  2
Selective  dynamics
Direct
0.0000000000000000  0.0000000000000000  0.0262879598598708  T  T  T
0.6666666666666643  0.3333333333333357  0.1003667383941414  T  T  T
0.3333333333333357  0.6666666666666643  0.1694958822240094  T  T  T
0.0000000000000000  0.0000000000000000  0.2435746607582722  T  T  T
0.3333333333333357  0.6666666666666643  0.0655832533350714  T  T  T
0.0000000000000000  0.0000000000000000  0.1349313103090793  T  T  T
0.6666666666666643  0.3333333333333357  0.2042793672830715  T  T  T
0.6666666666666643  0.3333333333333357  0.0000000000000000  T  T  T
0.3333333333333357  0.6666666666666643  0.2698626206181433  T  T  T

0.00000000E+00  0.00000000E+00  0.00000000E+00
0.00000000E+00  0.00000000E+00  0.00000000E+00
0.00000000E+00  0.00000000E+00  0.00000000E+00
0.00000000E+00  0.00000000E+00  0.00000000E+00
0.00000000E+00  0.00000000E+00  0.00000000E+00
0.00000000E+00  0.00000000E+00  0.00000000E+00
0.00000000E+00  0.00000000E+00  0.00000000E+00
0.00000000E+00  0.00000000E+00  0.00000000E+00
0.00000000E+00  0.00000000E+00  0.00000000E+00
