Ta4N3  (n=3)
1.00000000000000
3.1346689404496622  0.0000000000000002  0.0000000000000000
-1.5673344702248311  2.7147029350022693  0.0000000000000000
0.0000000000000000  0.0000000000000002  34.6139476872966085
Ta  N  O
4  3  2
Selective  dynamics
Direct
0.0000000000000000  0.0000000000000000  0.0310688210390277  T  T  T
0.6666666666666643  0.3333333333333357  0.0989003466757448  T  T  T
0.3333333333333357  0.6666666666666643  0.1788474495060008  T  T  T
0.0000000000000000  0.0000000000000000  0.2466789751427104  T  T  T
0.3333333333333357  0.6666666666666643  0.0648043159956824  T  T  T
0.0000000000000000  0.0000000000000000  0.1388738980908691  T  T  T
0.6666666666666643  0.3333333333333357  0.2129434801860483  T  T  T
0.6666666666666643  0.3333333333333357  0.0000000000000000  T  T  T
0.3333333333333357  0.6666666666666643  0.2777477961817382  T  T  T

0.00000000E+00  0.00000000E+00  0.00000000E+00
0.00000000E+00  0.00000000E+00  0.00000000E+00
0.00000000E+00  0.00000000E+00  0.00000000E+00
0.00000000E+00  0.00000000E+00  0.00000000E+00
0.00000000E+00  0.00000000E+00  0.00000000E+00
0.00000000E+00  0.00000000E+00  0.00000000E+00
0.00000000E+00  0.00000000E+00  0.00000000E+00
0.00000000E+00  0.00000000E+00  0.00000000E+00
0.00000000E+00  0.00000000E+00  0.00000000E+00
