Mo4N3  (n=3)
1.00000000000000
2.8266032878529974  0.0000000000000001  0.0000000000000000
-1.4133016439264987  2.4479102537668997  0.0000000000000000
0.0000000000000001  0.0000000000000004  36.3223226694856010
Mo  N  O
4  3  2
Selective  dynamics
Direct
0.0000000000000000  0.0000000000000000  0.0343414753775145  T  T  T
0.6666666666666643  0.3333333333333357  0.1154913572845661  T  T  T
0.3333333333333357  0.6666666666666643  0.1962266672622917  T  T  T
0.0000000000000000  0.0000000000000000  0.2773765491693433  T  T  T
0.3333333333333357  0.6666666666666643  0.0759479982240222  T  T  T
0.0000000000000000  0.0000000000000000  0.1558590122734290  T  T  T
0.6666666666666643  0.3333333333333357  0.2357700263228204  T  T  T
0.6666666666666643  0.3333333333333357  0.0000000000000000  T  T  T
0.3333333333333357  0.6666666666666643  0.3117180245468579  T  T  T

0.00000000E+00  0.00000000E+00  0.00000000E+00
0.00000000E+00  0.00000000E+00  0.00000000E+00
0.00000000E+00  0.00000000E+00  0.00000000E+00
0.00000000E+00  0.00000000E+00  0.00000000E+00
0.00000000E+00  0.00000000E+00  0.00000000E+00
0.00000000E+00  0.00000000E+00  0.00000000E+00
0.00000000E+00  0.00000000E+00  0.00000000E+00
0.00000000E+00  0.00000000E+00  0.00000000E+00
0.00000000E+00  0.00000000E+00  0.00000000E+00
