Zr4N3  (n=3)
1.00000000000000
3.2446195501804569  0.0000000000000000  0.0000000000000000
-1.6223097750902284  2.8099229563194443  0.0000000000000000
-0.0000000000000001  -0.0000000000000001  35.1116751415552812
Zr  N  O
4  3  2
Selective  dynamics
Direct
0.0000000000000000  0.0000000000000000  0.0285424652813078  T  T  T
0.6666666666666643  0.3333333333333357  0.1055131920398879  T  T  T
0.3333333333333357  0.6666666666666643  0.1824729294080161  T  T  T
0.0000000000000000  0.0000000000000000  0.2594436561666120  T  T  T
0.3333333333333357  0.6666666666666643  0.0664046894905558  T  T  T
0.0000000000000000  0.0000000000000000  0.1439930607239520  T  T  T
0.6666666666666643  0.3333333333333357  0.2215814319573323  T  T  T
0.6666666666666643  0.3333333333333357  0.0000000000000000  T  T  T
0.3333333333333357  0.6666666666666643  0.2879861214479038  T  T  T

0.00000000E+00  0.00000000E+00  0.00000000E+00
0.00000000E+00  0.00000000E+00  0.00000000E+00
0.00000000E+00  0.00000000E+00  0.00000000E+00
0.00000000E+00  0.00000000E+00  0.00000000E+00
0.00000000E+00  0.00000000E+00  0.00000000E+00
0.00000000E+00  0.00000000E+00  0.00000000E+00
0.00000000E+00  0.00000000E+00  0.00000000E+00
0.00000000E+00  0.00000000E+00  0.00000000E+00
0.00000000E+00  0.00000000E+00  0.00000000E+00
