Hf4C3  (n=3)
1.00000000000000
3.2639763607541994  0.0000000000000000  0.0000000000000000
-1.6319881803770997  2.8266864460483259  -0.0000000000000003
-0.0000000000000007  0.0000000000000047  35.0327672291833352
Hf  C  O
4  3  2
Selective  dynamics
Direct
0.0000000000000000  0.0000000000000000  0.0266535899899829  T  T  T
0.6666666666666643  0.3333333333333357  0.1046108661832526  T  T  T
0.3333333333333357  0.6666666666666643  0.1817715130204588  T  T  T
0.0000000000000000  0.0000000000000000  0.2597287892137287  T  T  T
0.3333333333333357  0.6666666666666643  0.0660084869334214  T  T  T
0.0000000000000000  0.0000000000000000  0.1431911896018596  T  T  T
0.6666666666666643  0.3333333333333357  0.2203738922702820  T  T  T
0.6666666666666643  0.3333333333333357  0.0000000000000000  T  T  T
0.3333333333333357  0.6666666666666643  0.2863823792037114  T  T  T

0.00000000E+00  0.00000000E+00  0.00000000E+00
0.00000000E+00  0.00000000E+00  0.00000000E+00
0.00000000E+00  0.00000000E+00  0.00000000E+00
0.00000000E+00  0.00000000E+00  0.00000000E+00
0.00000000E+00  0.00000000E+00  0.00000000E+00
0.00000000E+00  0.00000000E+00  0.00000000E+00
0.00000000E+00  0.00000000E+00  0.00000000E+00
0.00000000E+00  0.00000000E+00  0.00000000E+00
0.00000000E+00  0.00000000E+00  0.00000000E+00
