Cr4C3  (n=3)
1.00000000000000
2.8588230128345264  0.0000000000000000  0.0000000000000000
-1.4294115064172632  2.4758133540337584  0.0000000000000001
-0.0000000000000002  0.0000000000000012  34.2887886392402663
Cr  C  O
4  3  2
Selective  dynamics
Direct
0.0000000000000000  0.0000000000000000  0.0283339793225094  T  T  T
0.6666666666666643  0.3333333333333357  0.1001558698514763  T  T  T
0.3333333333333357  0.6666666666666643  0.1707428410061632  T  T  T
0.0000000000000000  0.0000000000000000  0.2425647315351303  T  T  T
0.3333333333333357  0.6666666666666643  0.0656085091562468  T  T  T
0.0000000000000000  0.0000000000000000  0.1354493554288199  T  T  T
0.6666666666666643  0.3333333333333357  0.2052902017013850  T  T  T
0.6666666666666643  0.3333333333333357  0.0000000000000000  T  T  T
0.3333333333333357  0.6666666666666643  0.2708987108576396  T  T  T

0.00000000E+00  0.00000000E+00  0.00000000E+00
0.00000000E+00  0.00000000E+00  0.00000000E+00
0.00000000E+00  0.00000000E+00  0.00000000E+00
0.00000000E+00  0.00000000E+00  0.00000000E+00
0.00000000E+00  0.00000000E+00  0.00000000E+00
0.00000000E+00  0.00000000E+00  0.00000000E+00
0.00000000E+00  0.00000000E+00  0.00000000E+00
0.00000000E+00  0.00000000E+00  0.00000000E+00
0.00000000E+00  0.00000000E+00  0.00000000E+00
