Ti4N3  (n=3)
1.00000000000000
2.9822263697573130  0.0000000000000000  0.0000000000000000
-1.4911131848786565  2.5826837960999116  0.0000000000000000
0.0000000000000000  -0.0000000000000001  34.3751464287823865
Ti  N  O
4  3  2
Selective  dynamics
Direct
0.0000000000000000  0.0000000000000000  0.0277178471354526  T  T  T
0.6666666666666643  0.3333333333333357  0.1005189741222115  T  T  T
0.3333333333333357  0.6666666666666643  0.1722113965892441  T  T  T
0.0000000000000000  0.0000000000000000  0.2450125235760028  T  T  T
0.3333333333333357  0.6666666666666643  0.0642091702860313  T  T  T
0.0000000000000000  0.0000000000000000  0.1363651853557238  T  T  T
0.6666666666666643  0.3333333333333357  0.2085212004254163  T  T  T
0.6666666666666643  0.3333333333333357  0.0000000000000000  T  T  T
0.3333333333333357  0.6666666666666643  0.2727303707114554  T  T  T

0.00000000E+00  0.00000000E+00  0.00000000E+00
0.00000000E+00  0.00000000E+00  0.00000000E+00
0.00000000E+00  0.00000000E+00  0.00000000E+00
0.00000000E+00  0.00000000E+00  0.00000000E+00
0.00000000E+00  0.00000000E+00  0.00000000E+00
0.00000000E+00  0.00000000E+00  0.00000000E+00
0.00000000E+00  0.00000000E+00  0.00000000E+00
0.00000000E+00  0.00000000E+00  0.00000000E+00
0.00000000E+00  0.00000000E+00  0.00000000E+00
