Ta4C3  (n=3)
1.00000000000000
3.1383636174933800  0.0000000000000000  0.0000000000000000
-1.5691818087466900  2.7179026192642066  0.0000000000000000
0.0000000000000000  -0.0000000000000002  34.8765215997550158
Ta  C  O
4  3  2
Selective  dynamics
Direct
0.0000000000000000  0.0000000000000000  0.0310262289098919  T  T  T
0.6666666666666643  0.3333333333333357  0.1029434267451570  T  T  T
0.3333333333333357  0.6666666666666643  0.1802419698118398  T  T  T
0.0000000000000000  0.0000000000000000  0.2521591676470970  T  T  T
0.3333333333333357  0.6666666666666643  0.0665684971377563  T  T  T
0.0000000000000000  0.0000000000000000  0.1415926982784985  T  T  T
0.6666666666666643  0.3333333333333357  0.2166168994192326  T  T  T
0.6666666666666643  0.3333333333333357  0.0000000000000000  T  T  T
0.3333333333333357  0.6666666666666643  0.2831853965569890  T  T  T

0.00000000E+00  0.00000000E+00  0.00000000E+00
0.00000000E+00  0.00000000E+00  0.00000000E+00
0.00000000E+00  0.00000000E+00  0.00000000E+00
0.00000000E+00  0.00000000E+00  0.00000000E+00
0.00000000E+00  0.00000000E+00  0.00000000E+00
0.00000000E+00  0.00000000E+00  0.00000000E+00
0.00000000E+00  0.00000000E+00  0.00000000E+00
0.00000000E+00  0.00000000E+00  0.00000000E+00
0.00000000E+00  0.00000000E+00  0.00000000E+00
