Nb4N3  (n=3)
1.00000000000000
3.1571283437400552  0.0000000000000000  0.0000000000000000
-1.5785641718700276  2.7341533488291789  0.0000000000000000
0.0000000000000001  0.0000000000000003  34.6467477545595628
Nb  N  O
4  3  2
Selective  dynamics
Direct
0.0000000000000000  0.0000000000000000  0.0309248271466204  T  T  T
0.6666666666666643  0.3333333333333357  0.0993539084714095  T  T  T
0.3333333333333357  0.6666666666666643  0.1790776436874806  T  T  T
0.0000000000000000  0.0000000000000000  0.2475067250122698  T  T  T
0.3333333333333357  0.6666666666666643  0.0652738927868572  T  T  T
0.0000000000000000  0.0000000000000000  0.1392157760794490  T  T  T
0.6666666666666643  0.3333333333333357  0.2131576593720328  T  T  T
0.6666666666666643  0.3333333333333357  0.0000000000000000  T  T  T
0.3333333333333357  0.6666666666666643  0.2784315521588901  T  T  T

0.00000000E+00  0.00000000E+00  0.00000000E+00
0.00000000E+00  0.00000000E+00  0.00000000E+00
0.00000000E+00  0.00000000E+00  0.00000000E+00
0.00000000E+00  0.00000000E+00  0.00000000E+00
0.00000000E+00  0.00000000E+00  0.00000000E+00
0.00000000E+00  0.00000000E+00  0.00000000E+00
0.00000000E+00  0.00000000E+00  0.00000000E+00
0.00000000E+00  0.00000000E+00  0.00000000E+00
0.00000000E+00  0.00000000E+00  0.00000000E+00
