Ti4C3  (n=3)
1.00000000000000
3.0356995615549485  0.0000000000000000  0.0000000000000000
-1.5178497807774742  2.6289929386233259  -0.0000000000000002
0.0000000000000003  -0.0000000000000009  34.4742033587643988
Ti  C  O
4  3  2
Selective  dynamics
Direct
0.0000000000000000  0.0000000000000000  0.0264476679784303  T  T  T
0.6666666666666643  0.3333333333333357  0.1008218120107116  T  T  T
0.3333333333333357  0.6666666666666643  0.1739982689689258  T  T  T
0.0000000000000000  0.0000000000000000  0.2483724130012072  T  T  T
0.3333333333333357  0.6666666666666643  0.0646008827663344  T  T  T
0.0000000000000000  0.0000000000000000  0.1374100404898188  T  T  T
0.6666666666666643  0.3333333333333357  0.2102191982132948  T  T  T
0.6666666666666643  0.3333333333333357  0.0000000000000000  T  T  T
0.3333333333333357  0.6666666666666643  0.2748200809796456  T  T  T

0.00000000E+00  0.00000000E+00  0.00000000E+00
0.00000000E+00  0.00000000E+00  0.00000000E+00
0.00000000E+00  0.00000000E+00  0.00000000E+00
0.00000000E+00  0.00000000E+00  0.00000000E+00
0.00000000E+00  0.00000000E+00  0.00000000E+00
0.00000000E+00  0.00000000E+00  0.00000000E+00
0.00000000E+00  0.00000000E+00  0.00000000E+00
0.00000000E+00  0.00000000E+00  0.00000000E+00
0.00000000E+00  0.00000000E+00  0.00000000E+00
