Sc4N3  (n=3)
1.00000000000000
3.2082404202020607  0.0000000000000000  0.0000000000000000
-1.6041202101010303  2.7784177055863064  -0.0000000000000002
-0.0000000000000003  0.0000000000000019  34.6730886203173512
Sc  N  O
4  3  2
Selective  dynamics
Direct
0.0000000000000000  0.0000000000000000  0.0220945474179485  T  T  T
0.6666666666666643  0.3333333333333357  0.1006434098726370  T  T  T
0.3333333333333357  0.6666666666666643  0.1783363120160412  T  T  T
0.0000000000000000  0.0000000000000000  0.2568851744707297  T  T  T
0.3333333333333357  0.6666666666666643  0.0671841196646307  T  T  T
0.0000000000000000  0.0000000000000000  0.1394898609443391  T  T  T
0.6666666666666643  0.3333333333333357  0.2117956022240398  T  T  T
0.6666666666666643  0.3333333333333357  0.0000000000000000  T  T  T
0.3333333333333357  0.6666666666666643  0.2789797218886703  T  T  T

0.00000000E+00  0.00000000E+00  0.00000000E+00
0.00000000E+00  0.00000000E+00  0.00000000E+00
0.00000000E+00  0.00000000E+00  0.00000000E+00
0.00000000E+00  0.00000000E+00  0.00000000E+00
0.00000000E+00  0.00000000E+00  0.00000000E+00
0.00000000E+00  0.00000000E+00  0.00000000E+00
0.00000000E+00  0.00000000E+00  0.00000000E+00
0.00000000E+00  0.00000000E+00  0.00000000E+00
0.00000000E+00  0.00000000E+00  0.00000000E+00
