Mo4C3  (n=3)
1.00000000000000
3.0508812083495922  0.0000000000000000  0.0000000000000000
-1.5254406041747961  2.6421406304391750  0.0000000000000000
-0.0000000000000002  -0.0000000000000006  34.8595879805652586
Mo  C  O
4  3  2
Selective  dynamics
Direct
0.0000000000000000  0.0000000000000000  0.0322851729020114  T  T  T
0.6666666666666643  0.3333333333333357  0.1048090153034367  T  T  T
0.3333333333333357  0.6666666666666643  0.1780281767500784  T  T  T
0.0000000000000000  0.0000000000000000  0.2505520191514957  T  T  T
0.3333333333333357  0.6666666666666643  0.0681526246607174  T  T  T
0.0000000000000000  0.0000000000000000  0.1414185960267535  T  T  T
0.6666666666666643  0.3333333333333357  0.2146845673927897  T  T  T
0.6666666666666643  0.3333333333333357  0.0000000000000000  T  T  T
0.3333333333333357  0.6666666666666643  0.2828371920535069  T  T  T

0.00000000E+00  0.00000000E+00  0.00000000E+00
0.00000000E+00  0.00000000E+00  0.00000000E+00
0.00000000E+00  0.00000000E+00  0.00000000E+00
0.00000000E+00  0.00000000E+00  0.00000000E+00
0.00000000E+00  0.00000000E+00  0.00000000E+00
0.00000000E+00  0.00000000E+00  0.00000000E+00
0.00000000E+00  0.00000000E+00  0.00000000E+00
0.00000000E+00  0.00000000E+00  0.00000000E+00
0.00000000E+00  0.00000000E+00  0.00000000E+00
