Sc4C3  (n=3)
1.00000000000000
3.2656727707307227  0.0000000000000001  -0.0000000000000001
-1.6328363853653614  2.8281555799804861  0.0000000000000002
-0.0000000000000009  0.0000000000000011  35.1191822136667895
Sc  C  O
4  3  2
Selective  dynamics
Direct
0.0000000000000000  0.0000000000000000  0.0209133739377380  T  T  T
0.6666666666666643  0.3333333333333357  0.1047785487596082  T  T  T
0.3333333333333357  0.6666666666666643  0.1833597726882403  T  T  T
0.0000000000000000  0.0000000000000000  0.2672249475101022  T  T  T
0.3333333333333357  0.6666666666666643  0.0688680186799370  T  T  T
0.0000000000000000  0.0000000000000000  0.1440691607239242  T  T  T
0.6666666666666643  0.3333333333333357  0.2192703027679032  T  T  T
0.6666666666666643  0.3333333333333357  0.0000000000000000  T  T  T
0.3333333333333357  0.6666666666666643  0.2881383214478401  T  T  T

0.00000000E+00  0.00000000E+00  0.00000000E+00
0.00000000E+00  0.00000000E+00  0.00000000E+00
0.00000000E+00  0.00000000E+00  0.00000000E+00
0.00000000E+00  0.00000000E+00  0.00000000E+00
0.00000000E+00  0.00000000E+00  0.00000000E+00
0.00000000E+00  0.00000000E+00  0.00000000E+00
0.00000000E+00  0.00000000E+00  0.00000000E+00
0.00000000E+00  0.00000000E+00  0.00000000E+00
0.00000000E+00  0.00000000E+00  0.00000000E+00
