Nb4C3  (n=3)
1.00000000000000
3.1540391408258563  0.0000000000000000  0.0000000000000000
-1.5770195704129282  2.7314780207156728  0.0000000000000000
0.0000000000000000  -0.0000000000000003  34.9453464213802647
Nb  C  O
4  3  2
Selective  dynamics
Direct
0.0000000000000000  0.0000000000000000  0.0310018550204879  T  T  T
0.6666666666666643  0.3333333333333357  0.1034675458388124  T  T  T
0.3333333333333357  0.6666666666666643  0.1811296162970737  T  T  T
0.0000000000000000  0.0000000000000000  0.2535953071153984  T  T  T
0.3333333333333357  0.6666666666666643  0.0670238378553569  T  T  T
0.0000000000000000  0.0000000000000000  0.1422985810679470  T  T  T
0.6666666666666643  0.3333333333333357  0.2175733242805215  T  T  T
0.6666666666666643  0.3333333333333357  0.0000000000000000  T  T  T
0.3333333333333357  0.6666666666666643  0.2845971621358861  T  T  T

0.00000000E+00  0.00000000E+00  0.00000000E+00
0.00000000E+00  0.00000000E+00  0.00000000E+00
0.00000000E+00  0.00000000E+00  0.00000000E+00
0.00000000E+00  0.00000000E+00  0.00000000E+00
0.00000000E+00  0.00000000E+00  0.00000000E+00
0.00000000E+00  0.00000000E+00  0.00000000E+00
0.00000000E+00  0.00000000E+00  0.00000000E+00
0.00000000E+00  0.00000000E+00  0.00000000E+00
0.00000000E+00  0.00000000E+00  0.00000000E+00
