Zr4C3  (n=3)
1.00000000000000
3.3161522085999651  0.0000000000000000  0.0000000000000000
-1.6580761042999825  2.8718720557560782  0.0000000000000000
0.0000000000000002  0.0000000000000004  35.1881756576903797
Zr  C  O
4  3  2
Selective  dynamics
Direct
0.0000000000000000  0.0000000000000000  0.0267736593527348  T  T  T
0.6666666666666643  0.3333333333333357  0.1057280888811506  T  T  T
0.3333333333333357  0.6666666666666643  0.1838059795172909  T  T  T
0.0000000000000000  0.0000000000000000  0.2627604090457145  T  T  T
0.3333333333333357  0.6666666666666643  0.0668020738773209  T  T  T
0.0000000000000000  0.0000000000000000  0.1447670341992247  T  T  T
0.6666666666666643  0.3333333333333357  0.2227319945211204  T  T  T
0.6666666666666643  0.3333333333333357  0.0000000000000000  T  T  T
0.3333333333333357  0.6666666666666643  0.2895340683984494  T  T  T

0.00000000E+00  0.00000000E+00  0.00000000E+00
0.00000000E+00  0.00000000E+00  0.00000000E+00
0.00000000E+00  0.00000000E+00  0.00000000E+00
0.00000000E+00  0.00000000E+00  0.00000000E+00
0.00000000E+00  0.00000000E+00  0.00000000E+00
0.00000000E+00  0.00000000E+00  0.00000000E+00
0.00000000E+00  0.00000000E+00  0.00000000E+00
0.00000000E+00  0.00000000E+00  0.00000000E+00
0.00000000E+00  0.00000000E+00  0.00000000E+00
