Sc3C2 (n=2)                             
   1.00000000000000     
     3.3613272011329101    0.0000000000000000    0.0000000000000000
    -1.6806636005664550    2.9109947467948372    0.0000000000000000
    -0.0000000000000001    0.0000000000000004   27.8797563367885388
   Sc   C 
     3     2
Selective dynamics
Direct
  0.0000000000000000  0.0000000000000000 -0.0171407683175889   T   T   T
  0.6666666666666643  0.3333333333333357  0.0714285714285694   T   T   T
  0.3333333333333357  0.6666666666666643  0.1599979111747349   T   T   T
  0.3333333333333357  0.6666666666666643  0.0186690453946588   T   T   T
  0.0000000000000000  0.0000000000000000  0.1241880974624800   T   T   T
 
  0.00000000E+00  0.00000000E+00  0.00000000E+00
  0.00000000E+00  0.00000000E+00  0.00000000E+00
  0.00000000E+00  0.00000000E+00  0.00000000E+00
  0.00000000E+00  0.00000000E+00  0.00000000E+00
  0.00000000E+00  0.00000000E+00  0.00000000E+00
