Sc3N2 (n=2)                             
   1.00000000000000     
     3.2047273201547322    0.0000000000000000    0.0000000000000000
    -1.6023636600773661    2.7753752715667805    0.0000000000000000
     0.0000000000000000    0.0000000000000000   30.6710319463454120
   Sc   N 
     3     2
Selective dynamics
Direct
  0.0000000000000000  0.0000000000000000  0.9904496011001669   T   T   T
  0.6666666666666643  0.3333333333333357  0.0714285714285694   T   T   T
  0.3333333333333357  0.6666666666666643  0.1524075417569790   T   T   T
  0.3333333333333357  0.6666666666666643  0.0269403310597482   T   T   T
  0.0000000000000000  0.0000000000000000  0.1159168117973906   T   T   T
 
  0.00000000E+00  0.00000000E+00  0.00000000E+00
  0.00000000E+00  0.00000000E+00  0.00000000E+00
  0.00000000E+00  0.00000000E+00  0.00000000E+00
  0.00000000E+00  0.00000000E+00  0.00000000E+00
  0.00000000E+00  0.00000000E+00  0.00000000E+00
