Ti3N2 (n=2)                             
   1.00000000000000     
     2.9726987390495392    0.0000000000000000    0.0000000000000000
    -1.4863493695247696    2.5744326258436638    0.0000000000000000
    -0.0000000000000001   -0.0000000000000006   34.6061380308953233
   Ti   N 
     3     2
Selective dynamics
Direct
  0.0000000000000000  0.0000000000000000  0.0022563550712746   T   T   T
  0.6666666666666643  0.3333333333333357  0.0714285714285694   T   T   T
  0.3333333333333357  0.6666666666666643  0.1406007877858713   T   T   T
  0.3333333333333357  0.6666666666666643  0.0346470209129279   T   T   T
  0.0000000000000000  0.0000000000000000  0.1082101219442109   T   T   T
 
  0.00000000E+00  0.00000000E+00  0.00000000E+00
  0.00000000E+00  0.00000000E+00  0.00000000E+00
  0.00000000E+00  0.00000000E+00  0.00000000E+00
  0.00000000E+00  0.00000000E+00  0.00000000E+00
  0.00000000E+00  0.00000000E+00  0.00000000E+00
