Hf3N2 (n=2)                             
   1.00000000000000     
     3.1458232772755728    0.0000000000000000    0.0000000000000000
    -1.5729116386377864    2.7243628740541315    0.0000000000000000
     0.0000000000000000    0.0000000000000000   31.7951133766368699
   Hf   N 
     3     2
Selective dynamics
Direct
  0.0000000000000000  0.0000000000000000  0.9878114962844631   T   T   T
  0.6666666666666643  0.3333333333333357  0.0714285714285694   T   T   T
  0.3333333333333357  0.6666666666666643  0.1550456465726829   T   T   T
  0.3333333333333357  0.6666666666666643  0.0305241306402032   T   T   T
  0.0000000000000000  0.0000000000000000  0.1123330122169356   T   T   T
 
  0.00000000E+00  0.00000000E+00  0.00000000E+00
  0.00000000E+00  0.00000000E+00  0.00000000E+00
  0.00000000E+00  0.00000000E+00  0.00000000E+00
  0.00000000E+00  0.00000000E+00  0.00000000E+00
  0.00000000E+00  0.00000000E+00  0.00000000E+00
