Zr3C2 (n=2)                             
   1.00000000000000     
     3.3460364225393922    0.0000000000000000    0.0000000000000000
    -1.6730182112696961    2.8977525440690779    0.0000000000000000
    -0.0000000000000001   -0.0000000000000012   28.2089216913978547
   Zr   C 
     3     2
Selective dynamics
Direct
  0.0000000000000000  0.0000000000000000  0.9803961562675070   T   T   T
  0.6666666666666643  0.3333333333333357  0.0714285714285694   T   T   T
  0.3333333333333357  0.6666666666666643  0.1624609865896390   T   T   T
  0.3333333333333357  0.6666666666666643  0.0204980302036871   T   T   T
  0.0000000000000000  0.0000000000000000  0.1223591126534517   T   T   T
 
  0.00000000E+00  0.00000000E+00  0.00000000E+00
  0.00000000E+00  0.00000000E+00  0.00000000E+00
  0.00000000E+00  0.00000000E+00  0.00000000E+00
  0.00000000E+00  0.00000000E+00  0.00000000E+00
  0.00000000E+00  0.00000000E+00  0.00000000E+00
