Mo3N2 (n=2)                             
   1.00000000000000     
     2.7881573866675966    0.0000000000000000    0.0000000000000000
    -1.3940786933337983    2.4146151266442084    0.0000000000000000
     0.0000000000000000    0.0000000000000007   38.1485462403426894
   Mo   N 
     3     2
Selective dynamics
Direct
  0.0000000000000000  0.0000000000000000  0.9941374576221332   T   T   T
  0.6666666666666643  0.3333333333333357  0.0714264015882264   T   T   T
  0.3333333333333357  0.6666666666666643  0.1487218957832869   T   T   T
  0.3333333333333357  0.6666666666666643  0.0309266513657110   T   T   T
  0.0000000000000000  0.0000000000000000  0.1119285295806446   T   T   T
 
  0.00000000E+00  0.00000000E+00  0.00000000E+00
  0.00000000E+00  0.00000000E+00  0.00000000E+00
  0.00000000E+00  0.00000000E+00  0.00000000E+00
  0.00000000E+00  0.00000000E+00  0.00000000E+00
  0.00000000E+00  0.00000000E+00  0.00000000E+00
