Nb3C2 (n=2)                             
   1.00000000000000     
     3.1807332820380694    0.0000000000000000    0.0000000000000000
    -1.5903666410190347    2.7545958250232774   -0.0000000000000001
     0.0000000000000001    0.0000000000000002   31.1355145532708875
   Nb   C 
     3     2
Selective dynamics
Direct
  0.0000000000000000  0.0000000000000000 -0.0070458595254923   T   T   T
  0.6666666666666643  0.3333333333333357  0.0714285714285694   T   T   T
  0.3333333333333357  0.6666666666666643  0.1499030023826382   T   T   T
  0.3333333333333357  0.6666666666666643  0.0272571868796847   T   T   T
  0.0000000000000000  0.0000000000000000  0.1155999559774541   T   T   T
 
  0.00000000E+00  0.00000000E+00  0.00000000E+00
  0.00000000E+00  0.00000000E+00  0.00000000E+00
  0.00000000E+00  0.00000000E+00  0.00000000E+00
  0.00000000E+00  0.00000000E+00  0.00000000E+00
  0.00000000E+00  0.00000000E+00  0.00000000E+00
