Cr3N2 (n=2)                             
   1.00000000000000     
     2.9926144965890904    0.0000000000000000    0.0000000000000000
    -1.4963072482945452    2.5916801777883420    0.0000000000000000
     0.0000000000000000    0.0000000000000000   35.1729668747612294
   Cr   N 
     3     2
Selective dynamics
Direct
  0.0000000000000000  0.0000000000000000  0.0149626552576061   T   T   T
  0.6666666666666643  0.3333333333333357  0.0714285714285694   T   T   T
  0.3333333333333357  0.6666666666666643  0.1278944875995398   T   T   T
  0.3333333333333357  0.6666666666666643  0.0361435199332365   T   T   T
  0.0000000000000000  0.0000000000000000  0.1067136229239023   T   T   T
 
  0.00000000E+00  0.00000000E+00  0.00000000E+00
  0.00000000E+00  0.00000000E+00  0.00000000E+00
  0.00000000E+00  0.00000000E+00  0.00000000E+00
  0.00000000E+00  0.00000000E+00  0.00000000E+00
  0.00000000E+00  0.00000000E+00  0.00000000E+00
