Nb3N2 (n=2)                             
   1.00000000000000     
     3.0766006405384401    0.0000000000000000    0.0000000000000000
    -1.5383003202692200    2.6644143120832213    0.0000000000000000
     0.0000000000000000    0.0000000000000001   32.9156780193358856
   Nb   N 
     3     2
Selective dynamics
Direct
  0.0000000000000000  0.0000000000000000  0.9941437427153351   T   T   T
  0.6666666666666643  0.3333333333333357  0.0714285714285694   T   T   T
  0.3333333333333357  0.6666666666666643  0.1487134001418108   T   T   T
  0.3333333333333357  0.6666666666666643  0.0309415028775751   T   T   T
  0.0000000000000000  0.0000000000000000  0.1119156399795637   T   T   T
 
  0.00000000E+00  0.00000000E+00  0.00000000E+00
  0.00000000E+00  0.00000000E+00  0.00000000E+00
  0.00000000E+00  0.00000000E+00  0.00000000E+00
  0.00000000E+00  0.00000000E+00  0.00000000E+00
  0.00000000E+00  0.00000000E+00  0.00000000E+00
