Cr3C2 (n=2)                             
   1.00000000000000     
     3.0084922698189951    0.0000000000000000    0.0000000000000000
    -1.5042461349094975    2.6054307327649409   -0.0000000000000001
    -0.0000000000000001   -0.0000000000000008   34.3633085882802689
   Cr   C 
     3     2
Selective dynamics
Direct
  0.0000000000000000  0.0000000000000000  0.0115996001000506   T   T   T
  0.6666666666666643  0.3333333333333357  0.0714285714285694   T   T   T
  0.3333333333333357  0.6666666666666643  0.1312575427570953   T   T   T
  0.3333333333333357  0.6666666666666643  0.0358760436082811   T   T   T
  0.0000000000000000  0.0000000000000000  0.1069810992488577   T   T   T
 
  0.00000000E+00  0.00000000E+00  0.00000000E+00
  0.00000000E+00  0.00000000E+00  0.00000000E+00
  0.00000000E+00  0.00000000E+00  0.00000000E+00
  0.00000000E+00  0.00000000E+00  0.00000000E+00
  0.00000000E+00  0.00000000E+00  0.00000000E+00
