Ta3C2 (n=2)                             
   1.00000000000000     
     3.0937606936345130    0.0000000000000000    0.0000000000000000
    -1.5468803468172565    2.6792753540041989    0.0000000000000000
     0.0000000000000000    0.0000000000000001   32.9106999419789403
   Ta   C 
     3     2
Selective dynamics
Direct
  0.0000000000000000  0.0000000000000000 -0.0060211893644129   T   T   T
  0.6666666666666643  0.3333333333333357  0.0714285714285694   T   T   T
  0.3333333333333357  0.6666666666666643  0.1488783322215588   T   T   T
  0.3333333333333357  0.6666666666666643  0.0305486451164142   T   T   T
  0.0000000000000000  0.0000000000000000  0.1123084977407246   T   T   T
 
  0.00000000E+00  0.00000000E+00  0.00000000E+00
  0.00000000E+00  0.00000000E+00  0.00000000E+00
  0.00000000E+00  0.00000000E+00  0.00000000E+00
  0.00000000E+00  0.00000000E+00  0.00000000E+00
  0.00000000E+00  0.00000000E+00  0.00000000E+00
