Mo3C2 (n=2)                             
   1.00000000000000     
     3.0452577418670010    0.0000000000000000    0.0000000000000000
    -1.5226288709335005    2.6372705655801143    0.0000000000000000
     0.0000000000000000    0.0000000000000003   33.9674106644191909
   Mo   C 
     3     2
Selective dynamics
Direct
  0.0000000000000000  0.0000000000000000  0.0001260615055777   T   T   T
  0.6666666666666643  0.3333333333333357  0.0714285714285694   T   T   T
  0.3333333333333357  0.6666666666666643  0.1427310813515682   T   T   T
  0.3333333333333357  0.6666666666666643  0.0320170439378681   T   T   T
  0.0000000000000000  0.0000000000000000  0.1108400989192706   T   T   T
 
  0.00000000E+00  0.00000000E+00  0.00000000E+00
  0.00000000E+00  0.00000000E+00  0.00000000E+00
  0.00000000E+00  0.00000000E+00  0.00000000E+00
  0.00000000E+00  0.00000000E+00  0.00000000E+00
  0.00000000E+00  0.00000000E+00  0.00000000E+00
