Ta3N2 (n=2)                             
   1.00000000000000     
     3.0484725088462232    0.0000000000000000    0.0000000000000000
    -1.5242362544231116    2.6400546354664183    0.0000000000000000
     0.0000000000000000    0.0000000000000000   33.7462087740398715
   Ta   N 
     3     2
Selective dynamics
Direct
  0.0000000000000000  0.0000000000000000  0.9956447129711847   T   T   T
  0.6666666666666643  0.3333333333333357  0.0714285714285694   T   T   T
  0.3333333333333357  0.6666666666666643  0.1472124298859612   T   T   T
  0.3333333333333357  0.6666666666666643  0.0328422583432086   T   T   T
  0.0000000000000000  0.0000000000000000  0.1100148845139302   T   T   T
 
  0.00000000E+00  0.00000000E+00  0.00000000E+00
  0.00000000E+00  0.00000000E+00  0.00000000E+00
  0.00000000E+00  0.00000000E+00  0.00000000E+00
  0.00000000E+00  0.00000000E+00  0.00000000E+00
  0.00000000E+00  0.00000000E+00  0.00000000E+00
