Zr3N2 (n=2)                             
   1.00000000000000     
     3.2021437515710911    0.0000000000000000    0.0000000000000000
    -1.6010718757855456    2.7731378355687499    0.0000000000000000
     0.0000000000000000    0.0000000000000000   30.7205442024471935
   Zr   N 
     3     2
Selective dynamics
Direct
  0.0000000000000000  0.0000000000000000  0.9841396004735969   T   T   T
  0.6666666666666643  0.3333333333333357  0.0714285714285694   T   T   T
  0.3333333333333357  0.6666666666666643  0.1587175423835490   T   T   T
  0.3333333333333357  0.6666666666666643  0.0276863818981283   T   T   T
  0.0000000000000000  0.0000000000000000  0.1151707609590105   T   T   T
 
  0.00000000E+00  0.00000000E+00  0.00000000E+00
  0.00000000E+00  0.00000000E+00  0.00000000E+00
  0.00000000E+00  0.00000000E+00  0.00000000E+00
  0.00000000E+00  0.00000000E+00  0.00000000E+00
  0.00000000E+00  0.00000000E+00  0.00000000E+00
