Ti3C2 (n=2)                             
   1.00000000000000     
     3.0967567858754141    0.0000000000000000    0.0000000000000000
    -1.5483783929377071    2.6818700459710652    0.0000000000000000
     0.0000000000000001    0.0000000000000002   32.8470489677889361
   Ti   C 
     3     2
Selective dynamics
Direct
  0.0000000000000000  0.0000000000000000  0.0005138389527217   T   T   T
  0.6666666666666643  0.3333333333333357  0.0714285714285694   T   T   T
  0.3333333333333357  0.6666666666666643  0.1423433039044242   T   T   T
  0.3333333333333357  0.6666666666666643  0.0315266594895637   T   T   T
  0.0000000000000000  0.0000000000000000  0.1113304833675751   T   T   T
 
  0.00000000E+00  0.00000000E+00  0.00000000E+00
  0.00000000E+00  0.00000000E+00  0.00000000E+00
  0.00000000E+00  0.00000000E+00  0.00000000E+00
  0.00000000E+00  0.00000000E+00  0.00000000E+00
  0.00000000E+00  0.00000000E+00  0.00000000E+00
