Hf3C2 (n=2)                             
   1.00000000000000     
     3.2805937096068898    0.0000000000000000    0.0000000000000000
    -1.6402968548034449    2.8410774921529081    0.0000000000000000
     0.0000000000000000   -0.0000000000000010   29.2688499459441474
   Hf   C 
     3     2
Selective dynamics
Direct
  0.0000000000000000  0.0000000000000000 -0.0156335730204544   T   T   T
  0.6666666666666643  0.3333333333333357  0.0714285714285694   T   T   T
  0.3333333333333357  0.6666666666666643  0.1584907158776003   T   T   T
  0.3333333333333357  0.6666666666666643  0.0233101385255911   T   T   T
  0.0000000000000000  0.0000000000000000  0.1195470043315477   T   T   T
 
  0.00000000E+00  0.00000000E+00  0.00000000E+00
  0.00000000E+00  0.00000000E+00  0.00000000E+00
  0.00000000E+00  0.00000000E+00  0.00000000E+00
  0.00000000E+00  0.00000000E+00  0.00000000E+00
  0.00000000E+00  0.00000000E+00  0.00000000E+00
