Ta2N  (n=1)
1.00000000000000
3.1350745277872822  0.0000000000000003  0.0000000000000000
-1.5675372638936413  2.7150541837846345  -0.0000000000000000
-0.0000000000000000  0.0000000000000000  31.7855111100143830
Ta  N  Br
2  1  2
Selective  dynamics
Direct
0.0000000000000000  0.0000000000000000  0.0628423408744152  T  T  T
0.0000000000000000  0.0000000000000000  0.1506357777101411  T  T  T
0.3333333333333357  0.6666666666666643  0.1067390592922782  T  T  T
0.6666666666666643  0.3333333333333357  0.0000000000000000  T  T  T
0.6666666666666643  0.3333333333333357  0.2134781185845563  T  T  T

0.00000000E+00  0.00000000E+00  0.00000000E+00
0.00000000E+00  0.00000000E+00  0.00000000E+00
0.00000000E+00  0.00000000E+00  0.00000000E+00
0.00000000E+00  0.00000000E+00  0.00000000E+00
0.00000000E+00  0.00000000E+00  0.00000000E+00
