Cr2C  (n=1)
1.00000000000000
3.2416015307077894  0.0000000000000001  0.0000000000000000
-1.6208007653538947  2.8073092745493931  0.0000000000000000
0.0000000000000000  0.0000000000000000  30.7102793232310987
Cr  C  Br
2  1  2
Selective  dynamics
Direct
0.0000000000000000  0.0000000000000000  0.0563569827650541  T  T  T
0.0000000000000000  0.0000000000000000  0.1295833423986933  T  T  T
0.3333333333333357  0.6666666666666643  0.0929701625818737  T  T  T
0.6666666666666643  0.3333333333333357  0.0000000000000000  T  T  T
0.6666666666666643  0.3333333333333357  0.1859403251637474  T  T  T

0.00000000E+00  0.00000000E+00  0.00000000E+00
0.00000000E+00  0.00000000E+00  0.00000000E+00
0.00000000E+00  0.00000000E+00  0.00000000E+00
0.00000000E+00  0.00000000E+00  0.00000000E+00
0.00000000E+00  0.00000000E+00  0.00000000E+00
