Mo2C  (n=1)
1.00000000000000
3.1632770805159569  -0.0000000000000000  -0.0000000000000000
-1.5816385402579780  2.7394783104576970  0.0000000000000000
-0.0000000000000000  0.0000000000000000  31.5133270264208498
Mo  C  Br
2  1  2
Selective  dynamics
Direct
0.0000000000000000  0.0000000000000000  0.0625119718971073  T  T  T
0.0000000000000000  0.0000000000000000  0.1441728703907306  T  T  T
0.3333333333333357  0.6666666666666643  0.1033424211439189  T  T  T
0.6666666666666643  0.3333333333333357  0.0000000000000000  T  T  T
0.6666666666666643  0.3333333333333357  0.2066848422878378  T  T  T

0.00000000E+00  0.00000000E+00  0.00000000E+00
0.00000000E+00  0.00000000E+00  0.00000000E+00
0.00000000E+00  0.00000000E+00  0.00000000E+00
0.00000000E+00  0.00000000E+00  0.00000000E+00
0.00000000E+00  0.00000000E+00  0.00000000E+00
