Sc2N  (n=1)
1.00000000000000
3.4163036411560701  -0.0000000000000000  -0.0000000000000000
-1.7081518205780351  2.9586057409850661  0.0000000000000000
0.0000000000000000  0.0000000000000000  31.3151295367316784
Sc  N  Br
2  1  2
Selective  dynamics
Direct
-0.0000000000000000  0.0000000000000000  0.0588788771206376  T  T  T
-0.0000000000000000  0.0000000000000000  0.1427849713179974  T  T  T
0.3333333333333357  0.6666666666666643  0.1008319242193141  T  T  T
0.6666666666666643  0.3333333333333357  0.0000000000000000  T  T  T
0.6666666666666643  0.3333333333333357  0.2016638484386349  T  T  T

0.00000000E+00  0.00000000E+00  0.00000000E+00
0.00000000E+00  0.00000000E+00  0.00000000E+00
0.00000000E+00  0.00000000E+00  0.00000000E+00
0.00000000E+00  0.00000000E+00  0.00000000E+00
0.00000000E+00  0.00000000E+00  0.00000000E+00
