Zr2C  (n=1)
1.00000000000000
3.4714887626205697  0.0000000000000003  -0.0000000000000000
-1.7357443813102840  3.0063974584233679  -0.0000000000000000
-0.0000000000000000  -0.0000000000000000  31.6355648638841771
Zr  C  Br
2  1  2
Selective  dynamics
Direct
-0.0000000000000000  -0.0000000000000000  0.0613580609302191  T  T  T
0.0000000000000000  -0.0000000000000000  0.1483921013455138  T  T  T
0.3333333333333357  0.6666666666666643  0.1048750811378664  T  T  T
0.6666666666666643  0.3333333333333357  0.0000000000000000  T  T  T
0.6666666666666643  0.3333333333333357  0.2097501622757328  T  T  T

0.00000000E+00  0.00000000E+00  0.00000000E+00
0.00000000E+00  0.00000000E+00  0.00000000E+00
0.00000000E+00  0.00000000E+00  0.00000000E+00
0.00000000E+00  0.00000000E+00  0.00000000E+00
0.00000000E+00  0.00000000E+00  0.00000000E+00
