Ti2N  (n=1)
1.00000000000000
3.2851335369266059  0.0000000000000001  -0.0000000000000000
-1.6425667684633032  2.8450090979919853  -0.0000000000000000
0.0000000000000000  0.0000000000000000  30.9807618095439992
Ti  N  Br
2  1  2
Selective  dynamics
Direct
-0.0000000000000000  0.0000000000000000  0.0585319544379523  T  T  T
-0.0000000000000000  0.0000000000000000  0.1345156486620380  T  T  T
0.3333333333333357  0.6666666666666643  0.0965238015499951  T  T  T
0.6666666666666643  0.3333333333333357  0.0000000000000000  T  T  T
0.6666666666666643  0.3333333333333357  0.1930476030999842  T  T  T

0.00000000E+00  0.00000000E+00  0.00000000E+00
0.00000000E+00  0.00000000E+00  0.00000000E+00
0.00000000E+00  0.00000000E+00  0.00000000E+00
0.00000000E+00  0.00000000E+00  0.00000000E+00
0.00000000E+00  0.00000000E+00  0.00000000E+00
