Zr2N  (n=1)
1.00000000000000
3.3185986580085909  -0.0000000000000005  0.0000000000000000
-1.6592993290042957  2.8739907437336281  0.0000000000000000
0.0000000000000000  0.0000000000000000  31.8656771567204267
Zr  N  Br
2  1  2
Selective  dynamics
Direct
0.0000000000000000  0.0000000000000000  0.0617448820322940  T  T  T
0.0000000000000000  0.0000000000000000  0.1537119282201273  T  T  T
0.3333333333333357  0.6666666666666643  0.1077284051262140  T  T  T
0.6666666666666643  0.3333333333333357  0.0000000000000000  T  T  T
0.6666666666666643  0.3333333333333357  0.2154568102524212  T  T  T

0.00000000E+00  0.00000000E+00  0.00000000E+00
0.00000000E+00  0.00000000E+00  0.00000000E+00
0.00000000E+00  0.00000000E+00  0.00000000E+00
0.00000000E+00  0.00000000E+00  0.00000000E+00
0.00000000E+00  0.00000000E+00  0.00000000E+00
