Sc2C  (n=1)
1.00000000000000
3.4888523981603989  -0.0000000000000002  -0.0000000000000000
-1.7444261990801995  3.0214348076805475  0.0000000000000000
-0.0000000000000000  0.0000000000000000  31.3856927538596011
Sc  C  Br
2  1  2
Selective  dynamics
Direct
-0.0000000000000000  0.0000000000000000  0.0590009506114261  T  T  T
0.0000000000000000  -0.0000000000000000  0.1444577655602775  T  T  T
0.3333333333333357  0.6666666666666643  0.1017293580858484  T  T  T
0.6666666666666643  0.3333333333333357  0.0000000000000000  T  T  T
0.6666666666666643  0.3333333333333357  0.2034587161716967  T  T  T

0.00000000E+00  0.00000000E+00  0.00000000E+00
0.00000000E+00  0.00000000E+00  0.00000000E+00
0.00000000E+00  0.00000000E+00  0.00000000E+00
0.00000000E+00  0.00000000E+00  0.00000000E+00
0.00000000E+00  0.00000000E+00  0.00000000E+00
