Hf2N  (n=1)
1.00000000000000
3.2600339509008465  0.0000000000000001  0.0000000000000000
-1.6300169754504230  2.8232722194473032  -0.0000000000000000
0.0000000000000000  -0.0000000000000000  31.8172261839461008
Hf  N  Br
2  1  2
Selective  dynamics
Direct
-0.0000000000000000  -0.0000000000000000  0.0614917651296874  T  T  T
0.0000000000000000  0.0000000000000000  0.1527703501324481  T  T  T
0.3333333333333357  0.6666666666666643  0.1071310576310644  T  T  T
0.6666666666666643  0.3333333333333357  0.0000000000000000  T  T  T
0.6666666666666643  0.3333333333333357  0.2142621152621357  T  T  T

0.00000000E+00  0.00000000E+00  0.00000000E+00
0.00000000E+00  0.00000000E+00  0.00000000E+00
0.00000000E+00  0.00000000E+00  0.00000000E+00
0.00000000E+00  0.00000000E+00  0.00000000E+00
0.00000000E+00  0.00000000E+00  0.00000000E+00
