Ta2C  (n=1)
1.00000000000000
3.1910241307520630  -0.0000000000000038  -0.0000000000000000
-1.5955120653760344  2.7635079617972100  -0.0000000000000000
-0.0000000000000000  0.0000000000000000  31.7413640170155098
Ta  C  Br
2  1  2
Selective  dynamics
Direct
-0.0000000000000000  -0.0000000000000000  0.0622930230951074  T  T  T
0.0000000000000000  0.0000000000000000  0.1500911710246438  T  T  T
0.3333333333333357  0.6666666666666643  0.1061920970598756  T  T  T
0.6666666666666643  0.3333333333333357  0.0000000000000000  T  T  T
0.6666666666666643  0.3333333333333357  0.2123841941197513  T  T  T

0.00000000E+00  0.00000000E+00  0.00000000E+00
0.00000000E+00  0.00000000E+00  0.00000000E+00
0.00000000E+00  0.00000000E+00  0.00000000E+00
0.00000000E+00  0.00000000E+00  0.00000000E+00
0.00000000E+00  0.00000000E+00  0.00000000E+00
