Hf2C  (n=1)
1.00000000000000
3.4111975360362234  -0.0000000000000003  -0.0000000000000000
-1.7055987680181117  2.9541837244462283  -0.0000000000000000
-0.0000000000000000  0.0000000000000000  31.5796003129911185
Hf  C  Br
2  1  2
Selective  dynamics
Direct
-0.0000000000000000  0.0000000000000000  0.0609233858490456  T  T  T
0.0000000000000000  0.0000000000000000  0.1474263161034651  T  T  T
0.3333333333333357  0.6666666666666643  0.1041748509762588  T  T  T
0.6666666666666643  0.3333333333333357  0.0000000000000000  T  T  T
0.6666666666666643  0.3333333333333357  0.2083497019525109  T  T  T

0.00000000E+00  0.00000000E+00  0.00000000E+00
0.00000000E+00  0.00000000E+00  0.00000000E+00
0.00000000E+00  0.00000000E+00  0.00000000E+00
0.00000000E+00  0.00000000E+00  0.00000000E+00
0.00000000E+00  0.00000000E+00  0.00000000E+00
