Ti2C  (n=1)
1.00000000000000
3.3215476814292790  0.0000000000000001  -0.0000000000000000
-1.6607738407146395  2.8765446724070722  0.0000000000000000
0.0000000000000000  -0.0000000000000000  31.0277580957766190
Ti  C  Br
2  1  2
Selective  dynamics
Direct
0.0000000000000000  -0.0000000000000000  0.0578001311321730  T  T  T
-0.0000000000000000  0.0000000000000000  0.1364697248197172  T  T  T
0.3333333333333357  0.6666666666666643  0.0971349279759417  T  T  T
0.6666666666666643  0.3333333333333357  0.0000000000000000  T  T  T
0.6666666666666643  0.3333333333333357  0.1942698559518901  T  T  T

0.00000000E+00  0.00000000E+00  0.00000000E+00
0.00000000E+00  0.00000000E+00  0.00000000E+00
0.00000000E+00  0.00000000E+00  0.00000000E+00
0.00000000E+00  0.00000000E+00  0.00000000E+00
0.00000000E+00  0.00000000E+00  0.00000000E+00
