Mo2N  (n=1)
1.00000000000000
3.1770651477795746  -0.0000000000000002  0.0000000000000000
-1.5885325738897869  2.7514191269163546  0.0000000000000000
0.0000000000000000  0.0000000000000000  31.3947085147552087
Mo  N  Br
2  1  2
Selective  dynamics
Direct
0.0000000000000000  -0.0000000000000000  0.0617834566632818  T  T  T
0.0000000000000000  0.0000000000000000  0.1419040058831457  T  T  T
0.3333333333333357  0.6666666666666643  0.1018437312732169  T  T  T
0.6666666666666643  0.3333333333333357  0.0000000000000000  T  T  T
0.6666666666666643  0.3333333333333357  0.2036874625464275  T  T  T

0.00000000E+00  0.00000000E+00  0.00000000E+00
0.00000000E+00  0.00000000E+00  0.00000000E+00
0.00000000E+00  0.00000000E+00  0.00000000E+00
0.00000000E+00  0.00000000E+00  0.00000000E+00
0.00000000E+00  0.00000000E+00  0.00000000E+00
