Nb2C  (n=1)
1.00000000000000
3.2250213845024391  0.0000000000000002  -0.0000000000000000
-1.6125106922512196  2.7929504472976712  -0.0000000000000000
0.0000000000000000  0.0000000000000000  31.7205494468861033
Nb  C  Br
2  1  2
Selective  dynamics
Direct
-0.0000000000000000  0.0000000000000000  0.0618938029026232  T  T  T
-0.0000000000000000  0.0000000000000000  0.1499735690084216  T  T  T
0.3333333333333357  0.6666666666666643  0.1059336859555224  T  T  T
0.6666666666666643  0.3333333333333357  0.0000000000000000  T  T  T
0.6666666666666643  0.3333333333333357  0.2118673719110447  T  T  T

0.00000000E+00  0.00000000E+00  0.00000000E+00
0.00000000E+00  0.00000000E+00  0.00000000E+00
0.00000000E+00  0.00000000E+00  0.00000000E+00
0.00000000E+00  0.00000000E+00  0.00000000E+00
0.00000000E+00  0.00000000E+00  0.00000000E+00
