Cr2N  (n=1)
1.00000000000000
3.2375194044070934  0.0000000000000000  0.0000000000000000
-1.6187597022035465  2.8037740494793026  0.0000000000000000
0.0000000000000000  0.0000000000000000  30.5730051110641341
Cr  N  Br
2  1  2
Selective  dynamics
Direct
0.0000000000000000  0.0000000000000000  0.0571998316991417  T  T  T
0.0000000000000000  0.0000000000000000  0.1250853277354245  T  T  T
0.3333333333333357  0.6666666666666643  0.0911425797172831  T  T  T
0.6666666666666643  0.3333333333333357  0.0000000000000000  T  T  T
0.6666666666666643  0.3333333333333357  0.1822851594345662  T  T  T

0.00000000E+00  0.00000000E+00  0.00000000E+00
0.00000000E+00  0.00000000E+00  0.00000000E+00
0.00000000E+00  0.00000000E+00  0.00000000E+00
0.00000000E+00  0.00000000E+00  0.00000000E+00
0.00000000E+00  0.00000000E+00  0.00000000E+00
