Nb2N  (n=1)
1.00000000000000
3.2010434430579551  0.0000000000000019  0.0000000000000000
-1.6005217215289762  2.7721849384075337  0.0000000000000000
0.0000000000000000  0.0000000000000000  31.6629047455192207
Nb  N  Br
2  1  2
Selective  dynamics
Direct
-0.0000000000000000  -0.0000000000000000  0.0623918586515213  T  T  T
-0.0000000000000000  -0.0000000000000000  0.1480406584870751  T  T  T
0.3333333333333357  0.6666666666666643  0.1052162585693015  T  T  T
0.6666666666666643  0.3333333333333357  0.0000000000000000  T  T  T
0.6666666666666643  0.3333333333333357  0.2104325171385964  T  T  T

0.00000000E+00  0.00000000E+00  0.00000000E+00
0.00000000E+00  0.00000000E+00  0.00000000E+00
0.00000000E+00  0.00000000E+00  0.00000000E+00
0.00000000E+00  0.00000000E+00  0.00000000E+00
0.00000000E+00  0.00000000E+00  0.00000000E+00
