Zr4N3  (n=3)
1.00000000000000
3.2233325706581235  0.0000000000000000  0.0000000000000000
-1.6116662853290615  2.7914878914895427  0.0000000000000000
-0.0000000000000001  -0.0000000000000006  37.6939073995359948
Zr  N  O  H
4  3  2  2
Selective  dynamics
Direct
-0.0000000000000000  -0.0000000000000000  0.0626480235966276  T  T  T
0.6666666666666643  0.3333333333333357  0.1323644172228731  T  T  T
0.3333333333333357  0.6666666666666643  0.2061021509091911  T  T  T
-0.0000000000000000  -0.0000000000000000  0.2737578917094221  T  T  T
0.3333333333333357  0.6666666666666643  0.0975931950763881  T  T  T
-0.0000000000000000  -0.0000000000000000  0.1682191650386374  T  T  T
0.6666666666666643  0.3333333333333357  0.2405917331699413  T  T  T
0.3333333333333357  0.6666666666666643  0.0259885073032464  T  T  T
0.3333333333333357  0.6666666666666643  0.3107281646549794  T  T  T
0.3333333333333357  0.6666666666666643  0.0000000000000000  T  T  T
0.3333333333333357  0.6666666666666643  0.3367628424664792  T  T  T

0.00000000E+00  0.00000000E+00  0.00000000E+00
0.00000000E+00  0.00000000E+00  0.00000000E+00
0.00000000E+00  0.00000000E+00  0.00000000E+00
0.00000000E+00  0.00000000E+00  0.00000000E+00
0.00000000E+00  0.00000000E+00  0.00000000E+00
0.00000000E+00  0.00000000E+00  0.00000000E+00
0.00000000E+00  0.00000000E+00  0.00000000E+00
0.00000000E+00  0.00000000E+00  0.00000000E+00
0.00000000E+00  0.00000000E+00  0.00000000E+00
0.00000000E+00  0.00000000E+00  0.00000000E+00
0.00000000E+00  0.00000000E+00  0.00000000E+00
