Cr4N3  (n=3)
1.00000000000000
2.8948631882050315  -0.0000000000000001  0.0000000000000000
-1.4474315941025158  2.5070250614866705  0.0000000000000000
-0.0000000000000001  0.0000000000000005  36.6417101162669994
Cr  N  O  H
4  3  2  2
Selective  dynamics
Direct
-0.0000000000000000  -0.0000000000000000  0.0623575051097267  T  T  T
0.6666666666666643  0.3333333333333357  0.1272812883535141  T  T  T
0.3333333333333357  0.6666666666666643  0.1921903829186437  T  T  T
-0.0000000000000000  -0.0000000000000000  0.2576139157444673  T  T  T
0.3333333333333357  0.6666666666666643  0.0927293753867224  T  T  T
-0.0000000000000000  -0.0000000000000000  0.1598834809008755  T  T  T
0.6666666666666643  0.3333333333333357  0.2281315881476167  T  T  T
0.3333333333333357  0.6666666666666643  0.0266773449159714  T  T  T
0.3333333333333357  0.6666666666666643  0.2911376857984986  T  T  T
0.3333333333333357  0.6666666666666643  0.0000000000000000  T  T  T
0.3333333333333357  0.6666666666666643  0.3177174340205997  T  T  T

0.00000000E+00  0.00000000E+00  0.00000000E+00
0.00000000E+00  0.00000000E+00  0.00000000E+00
0.00000000E+00  0.00000000E+00  0.00000000E+00
0.00000000E+00  0.00000000E+00  0.00000000E+00
0.00000000E+00  0.00000000E+00  0.00000000E+00
0.00000000E+00  0.00000000E+00  0.00000000E+00
0.00000000E+00  0.00000000E+00  0.00000000E+00
0.00000000E+00  0.00000000E+00  0.00000000E+00
0.00000000E+00  0.00000000E+00  0.00000000E+00
0.00000000E+00  0.00000000E+00  0.00000000E+00
0.00000000E+00  0.00000000E+00  0.00000000E+00
