Ta4C3  (n=3)
1.00000000000000
3.1246853802481138  -0.0000000000000001  0.0000000000000000
-1.5623426901240569  2.7060569183788115  0.0000000000000000
-0.0000000000000002  -0.0000000000000015  37.4497131649826898
Ta  C  O  H
4  3  2  2
Selective  dynamics
Direct
-0.0000000000000000  -0.0000000000000000  0.0637885467099558  T  T  T
0.6666666666666643  0.3333333333333357  0.1320054593165813  T  T  T
0.3333333333333357  0.6666666666666643  0.2032446082268386  T  T  T
-0.0000000000000000  -0.0000000000000000  0.2680718356878842  T  T  T
0.3333333333333357  0.6666666666666643  0.0963048455571445  T  T  T
-0.0000000000000000  -0.0000000000000000  0.1668049271831666  T  T  T
0.6666666666666643  0.3333333333333357  0.2373202743437801  T  T  T
0.3333333333333357  0.6666666666666643  0.0263226473682414  T  T  T
0.3333333333333357  0.6666666666666643  0.3061591698767345  T  T  T
0.3333333333333357  0.6666666666666643  0.0000000000000000  T  T  T
0.3333333333333357  0.6666666666666643  0.3324381447231959  T  T  T

0.00000000E+00  0.00000000E+00  0.00000000E+00
0.00000000E+00  0.00000000E+00  0.00000000E+00
0.00000000E+00  0.00000000E+00  0.00000000E+00
0.00000000E+00  0.00000000E+00  0.00000000E+00
0.00000000E+00  0.00000000E+00  0.00000000E+00
0.00000000E+00  0.00000000E+00  0.00000000E+00
0.00000000E+00  0.00000000E+00  0.00000000E+00
0.00000000E+00  0.00000000E+00  0.00000000E+00
0.00000000E+00  0.00000000E+00  0.00000000E+00
0.00000000E+00  0.00000000E+00  0.00000000E+00
0.00000000E+00  0.00000000E+00  0.00000000E+00
