Nb4N3  (n=3)
1.00000000000000
3.0662258106200277  0.0000000000000000  0.0000000000000000
-1.5331129053100139  2.6554294459231960  0.0000000000000000
-0.0000000000000001  0.0000000000000000  37.6717901756755751
Nb  N  O  H
4  3  2  2
Selective  dynamics
Direct
0.0000000000000000  0.0000000000000000  0.0626756094719911  T  T  T
0.6666666666666643  0.3333333333333357  0.1353664052898417  T  T  T
0.3333333333333357  0.6666666666666643  0.2038496510925105  T  T  T
0.0000000000000000  0.0000000000000000  0.2722119388707121  T  T  T
0.3333333333333357  0.6666666666666643  0.0965370747358641  T  T  T
0.0000000000000000  0.0000000000000000  0.1697482219767137  T  T  T
0.6666666666666643  0.3333333333333357  0.2387096798528390  T  T  T
0.3333333333333357  0.6666666666666643  0.0261008789509852  T  T  T
0.3333333333333357  0.6666666666666643  0.3103100179365833  T  T  T
0.3333333333333357  0.6666666666666643  0.0000000000000000  T  T  T
0.3333333333333357  0.6666666666666643  0.3363734538917045  T  T  T

0.00000000E+00  0.00000000E+00  0.00000000E+00
0.00000000E+00  0.00000000E+00  0.00000000E+00
0.00000000E+00  0.00000000E+00  0.00000000E+00
0.00000000E+00  0.00000000E+00  0.00000000E+00
0.00000000E+00  0.00000000E+00  0.00000000E+00
0.00000000E+00  0.00000000E+00  0.00000000E+00
0.00000000E+00  0.00000000E+00  0.00000000E+00
0.00000000E+00  0.00000000E+00  0.00000000E+00
0.00000000E+00  0.00000000E+00  0.00000000E+00
0.00000000E+00  0.00000000E+00  0.00000000E+00
0.00000000E+00  0.00000000E+00  0.00000000E+00
