Mo4C3  (n=3)
1.00000000000000
3.0961877250554894  -0.0000000000000002  0.0000000000000000
-1.5480938625277452  2.6813772249957109  0.0000000000000001
0.0000000000000003  -0.0000000000000003  37.1844111921641201
Mo  C  O  H
4  3  2  2
Selective  dynamics
Direct
-0.0000000000000000  -0.0000000000000000  0.0661409837041252  T  T  T
0.6666666666666643  0.3333333333333357  0.1296310741323879  T  T  T
0.3333333333333357  0.6666666666666643  0.2004525653539233  T  T  T
-0.0000000000000000  -0.0000000000000000  0.2611218677913373  T  T  T
0.3333333333333357  0.6666666666666643  0.0942547613633083  T  T  T
-0.0000000000000000  -0.0000000000000000  0.1649079779386415  T  T  T
0.6666666666666643  0.3333333333333357  0.2348080992885132  T  T  T
0.3333333333333357  0.6666666666666643  0.0263234936659183  T  T  T
0.3333333333333357  0.6666666666666643  0.3014596024236034  T  T  T
0.3333333333333357  0.6666666666666643  0.0000000000000000  T  T  T
0.3333333333333357  0.6666666666666643  0.3276752488884843  T  T  T

0.00000000E+00  0.00000000E+00  0.00000000E+00
0.00000000E+00  0.00000000E+00  0.00000000E+00
0.00000000E+00  0.00000000E+00  0.00000000E+00
0.00000000E+00  0.00000000E+00  0.00000000E+00
0.00000000E+00  0.00000000E+00  0.00000000E+00
0.00000000E+00  0.00000000E+00  0.00000000E+00
0.00000000E+00  0.00000000E+00  0.00000000E+00
0.00000000E+00  0.00000000E+00  0.00000000E+00
0.00000000E+00  0.00000000E+00  0.00000000E+00
0.00000000E+00  0.00000000E+00  0.00000000E+00
0.00000000E+00  0.00000000E+00  0.00000000E+00
