Sc4N3  (n=3)
1.00000000000000
3.1712991537100383  -0.0000000000000001  0.0000000000000000
-1.5856495768550189  2.7464256302881265  -0.0000000000000001
-0.0000000000000007  0.0000000000000003  37.2453914451184929
Sc  N  O  H
4  3  2  2
Selective  dynamics
Direct
0.0000000000000000  0.0000000000000000  0.0618562245981383  T  T  T
0.6666666666666643  0.3333333333333357  0.1312036170171218  T  T  T
0.3333333333333357  0.6666666666666643  0.1995529988152602  T  T  T
0.0000000000000000  0.0000000000000000  0.2686883107326020  T  T  T
0.3333333333333357  0.6666666666666643  0.0945898848074351  T  T  T
0.0000000000000000  0.0000000000000000  0.1660601280416992  T  T  T
0.6666666666666643  0.3333333333333357  0.2378825138832429  T  T  T
0.3333333333333357  0.6666666666666643  0.0261243948392534  T  T  T
0.3333333333333357  0.6666666666666643  0.3027070133558679  T  T  T
0.3333333333333357  0.6666666666666643  0.0000000000000000  T  T  T
0.3333333333333357  0.6666666666666643  0.3287760168439152  T  T  T

0.00000000E+00  0.00000000E+00  0.00000000E+00
0.00000000E+00  0.00000000E+00  0.00000000E+00
0.00000000E+00  0.00000000E+00  0.00000000E+00
0.00000000E+00  0.00000000E+00  0.00000000E+00
0.00000000E+00  0.00000000E+00  0.00000000E+00
0.00000000E+00  0.00000000E+00  0.00000000E+00
0.00000000E+00  0.00000000E+00  0.00000000E+00
0.00000000E+00  0.00000000E+00  0.00000000E+00
0.00000000E+00  0.00000000E+00  0.00000000E+00
0.00000000E+00  0.00000000E+00  0.00000000E+00
0.00000000E+00  0.00000000E+00  0.00000000E+00
