Hf4C3  (n=3)
1.00000000000000
3.2669142484223390  0.0000000000000000  0.0000000000000001
-1.6334571242111695  2.8292307316307972  0.0000000000000000
-0.0000000000000012  0.0000000000000013  37.5181842202754297
Hf  C  O  H
4  3  2  2
Selective  dynamics
Direct
0.0000000000000000  -0.0000000000000000  0.0636560754757712  T  T  T
0.6666666666666643  0.3333333333333357  0.1335221342052928  T  T  T
0.3333333333333357  0.6666666666666643  0.2026192290195712  T  T  T
0.0000000000000000  -0.0000000000000000  0.2720160134211047  T  T  T
0.3333333333333357  0.6666666666666643  0.0958604911687318  T  T  T
0.0000000000000000  -0.0000000000000000  0.1686034039728870  T  T  T
0.6666666666666643  0.3333333333333357  0.2417139590040192  T  T  T
0.3333333333333357  0.6666666666666643  0.0260501490221877  T  T  T
0.3333333333333357  0.6666666666666643  0.3075162970451060  T  T  T
0.3333333333333357  0.6666666666666643  0.0000000000000000  T  T  T
0.3333333333333357  0.6666666666666643  0.3336564516763155  T  T  T

0.00000000E+00  0.00000000E+00  0.00000000E+00
0.00000000E+00  0.00000000E+00  0.00000000E+00
0.00000000E+00  0.00000000E+00  0.00000000E+00
0.00000000E+00  0.00000000E+00  0.00000000E+00
0.00000000E+00  0.00000000E+00  0.00000000E+00
0.00000000E+00  0.00000000E+00  0.00000000E+00
0.00000000E+00  0.00000000E+00  0.00000000E+00
0.00000000E+00  0.00000000E+00  0.00000000E+00
0.00000000E+00  0.00000000E+00  0.00000000E+00
0.00000000E+00  0.00000000E+00  0.00000000E+00
0.00000000E+00  0.00000000E+00  0.00000000E+00
