Hf4N3  (n=3)
1.00000000000000
3.1717646326525060  -0.0000000000000001  0.0000000000000000
-1.5858823163262530  2.7468287470973980  0.0000000000000000
0.0000000000000000  -0.0000000000000008  37.4825646055304418
Hf  N  O  H
4  3  2  2
Selective  dynamics
Direct
-0.0000000000000000  -0.0000000000000000  0.0622341351337161  T  T  T
0.6666666666666643  0.3333333333333357  0.1312012799377990  T  T  T
0.3333333333333357  0.6666666666666643  0.2039929466833622  T  T  T
-0.0000000000000000  -0.0000000000000000  0.2705234247813194  T  T  T
0.3333333333333357  0.6666666666666643  0.0974186107018997  T  T  T
-0.0000000000000000  -0.0000000000000000  0.1664287919800997  T  T  T
0.6666666666666643  0.3333333333333357  0.2380450254719154  T  T  T
0.3333333333333357  0.6666666666666643  0.0262618023209246  T  T  T
0.3333333333333357  0.6666666666666643  0.3066235824118786  T  T  T
0.3333333333333357  0.6666666666666643  0.0000000000000000  T  T  T
0.3333333333333357  0.6666666666666643  0.3330232265827583  T  T  T

0.00000000E+00  0.00000000E+00  0.00000000E+00
0.00000000E+00  0.00000000E+00  0.00000000E+00
0.00000000E+00  0.00000000E+00  0.00000000E+00
0.00000000E+00  0.00000000E+00  0.00000000E+00
0.00000000E+00  0.00000000E+00  0.00000000E+00
0.00000000E+00  0.00000000E+00  0.00000000E+00
0.00000000E+00  0.00000000E+00  0.00000000E+00
0.00000000E+00  0.00000000E+00  0.00000000E+00
0.00000000E+00  0.00000000E+00  0.00000000E+00
0.00000000E+00  0.00000000E+00  0.00000000E+00
0.00000000E+00  0.00000000E+00  0.00000000E+00
