Ta4N3  (n=3)
1.00000000000000
3.0043690358543991  0.0000000000000002  0.0000000000000000
-1.5021845179271995  2.6018599075517530  0.0000000000000000
0.0000000000000008  -0.0000000000000002  37.9077510643885134
Ta  N  O  H
4  3  2  2
Selective  dynamics
Direct
-0.0000000000000000  -0.0000000000000000  0.0622205202610658  T  T  T
0.6666666666666643  0.3333333333333357  0.1362796241937524  T  T  T
0.3333333333333357  0.6666666666666643  0.2060514770649874  T  T  T
-0.0000000000000000  -0.0000000000000000  0.2764944121689456  T  T  T
0.3333333333333357  0.6666666666666643  0.0967214443753153  T  T  T
-0.0000000000000000  -0.0000000000000000  0.1714777197725174  T  T  T
0.6666666666666643  0.3333333333333357  0.2412327963143429  T  T  T
0.3333333333333357  0.6666666666666643  0.0261637429159011  T  T  T
0.3333333333333357  0.6666666666666643  0.3143909636819231  T  T  T
0.3333333333333357  0.6666666666666643  0.0000000000000000  T  T  T
0.3333333333333357  0.6666666666666643  0.3405042689676829  T  T  T

0.00000000E+00  0.00000000E+00  0.00000000E+00
0.00000000E+00  0.00000000E+00  0.00000000E+00
0.00000000E+00  0.00000000E+00  0.00000000E+00
0.00000000E+00  0.00000000E+00  0.00000000E+00
0.00000000E+00  0.00000000E+00  0.00000000E+00
0.00000000E+00  0.00000000E+00  0.00000000E+00
0.00000000E+00  0.00000000E+00  0.00000000E+00
0.00000000E+00  0.00000000E+00  0.00000000E+00
0.00000000E+00  0.00000000E+00  0.00000000E+00
0.00000000E+00  0.00000000E+00  0.00000000E+00
0.00000000E+00  0.00000000E+00  0.00000000E+00
