Ti4C3  (n=3)
1.00000000000000
3.0540607748288040  0.0000000000000001  0.0000000000000000
-1.5270303874144020  2.6448942157773754  0.0000000000000001
0.0000000000000000  0.0000000000000021  36.8657786440614572
Ti  C  O  H
4  3  2  2
Selective  dynamics
Direct
-0.0000000000000000  -0.0000000000000000  0.0626184113243548  T  T  T
0.6666666666666643  0.3333333333333357  0.1292520182823149  T  T  T
0.3333333333333357  0.6666666666666643  0.1948317761423730  T  T  T
-0.0000000000000000  0.0000000000000000  0.2605035468306828  T  T  T
0.3333333333333357  0.6666666666666643  0.0936868792716289  T  T  T
-0.0000000000000000  0.0000000000000000  0.1622094220066699  T  T  T
0.6666666666666643  0.3333333333333357  0.2310414553490007  T  T  T
0.3333333333333357  0.6666666666666643  0.0264697923417260  T  T  T
0.3333333333333357  0.6666666666666643  0.2954293530802746  T  T  T
0.3333333333333357  0.6666666666666643  0.0000000000000000  T  T  T
0.3333333333333357  0.6666666666666643  0.3218643164606768  T  T  T

0.00000000E+00  0.00000000E+00  0.00000000E+00
0.00000000E+00  0.00000000E+00  0.00000000E+00
0.00000000E+00  0.00000000E+00  0.00000000E+00
0.00000000E+00  0.00000000E+00  0.00000000E+00
0.00000000E+00  0.00000000E+00  0.00000000E+00
0.00000000E+00  0.00000000E+00  0.00000000E+00
0.00000000E+00  0.00000000E+00  0.00000000E+00
0.00000000E+00  0.00000000E+00  0.00000000E+00
0.00000000E+00  0.00000000E+00  0.00000000E+00
0.00000000E+00  0.00000000E+00  0.00000000E+00
0.00000000E+00  0.00000000E+00  0.00000000E+00
