Mo4N3  (n=3)
1.00000000000000
2.8236616277591762  0.0000000000000001  0.0000000000000000
-1.4118308138795881  2.4453627013214478  -0.0000000000000001
0.0000000000000029  -0.0000000000000007  38.7337271213402801
Mo  N  O  H
4  3  2  2
Selective  dynamics
Direct
0.0000000000000000  0.0000000000000000  0.0637938109079489  T  T  T
0.6666666666666643  0.3333333333333357  0.1411030520631906  T  T  T
0.3333333333333357  0.6666666666666643  0.2165202631337518  T  T  T
0.0000000000000000  0.0000000000000000  0.2915429313222422  T  T  T
0.3333333333333357  0.6666666666666643  0.0982478735769422  T  T  T
0.0000000000000000  0.0000000000000000  0.1773527373513617  T  T  T
0.6666666666666643  0.3333333333333357  0.2547536887842745  T  T  T
0.3333333333333357  0.6666666666666643  0.0257179458285528  T  T  T
0.3333333333333357  0.6666666666666643  0.3292413577579326  T  T  T
0.3333333333333357  0.6666666666666643  0.0000000000000000  T  T  T
0.3333333333333357  0.6666666666666643  0.3545676634297790  T  T  T

0.00000000E+00  0.00000000E+00  0.00000000E+00
0.00000000E+00  0.00000000E+00  0.00000000E+00
0.00000000E+00  0.00000000E+00  0.00000000E+00
0.00000000E+00  0.00000000E+00  0.00000000E+00
0.00000000E+00  0.00000000E+00  0.00000000E+00
0.00000000E+00  0.00000000E+00  0.00000000E+00
0.00000000E+00  0.00000000E+00  0.00000000E+00
0.00000000E+00  0.00000000E+00  0.00000000E+00
0.00000000E+00  0.00000000E+00  0.00000000E+00
0.00000000E+00  0.00000000E+00  0.00000000E+00
0.00000000E+00  0.00000000E+00  0.00000000E+00
