Cr4C3  (n=3)
1.00000000000000
2.8946860854984093  0.0000000000000000  0.0000000000000000
-1.4473430427492047  2.5068716860137350  0.0000000000000001
0.0000000000000000  0.0000000000000021  36.4480810773502455
Cr  C  O  H
4  3  2  2
Selective  dynamics
Direct
0.0000000000000000  0.0000000000000000  0.0619471526473649  T  T  T
0.6666666666666643  0.3333333333333357  0.1257251908607154  T  T  T
0.3333333333333357  0.6666666666666643  0.1907494528769072  T  T  T
0.0000000000000000  0.0000000000000000  0.2522987154643907  T  T  T
0.3333333333333357  0.6666666666666643  0.0922440113290608  T  T  T
0.0000000000000000  0.0000000000000000  0.1579308237537780  T  T  T
0.6666666666666643  0.3333333333333357  0.2236582167287446  T  T  T
0.3333333333333357  0.6666666666666643  0.0269515564170223  T  T  T
0.3333333333333357  0.6666666666666643  0.2873598757417929  T  T  T
0.3333333333333357  0.6666666666666643  0.0000000000000000  T  T  T
0.3333333333333357  0.6666666666666643  0.3140928339424807  T  T  T

0.00000000E+00  0.00000000E+00  0.00000000E+00
0.00000000E+00  0.00000000E+00  0.00000000E+00
0.00000000E+00  0.00000000E+00  0.00000000E+00
0.00000000E+00  0.00000000E+00  0.00000000E+00
0.00000000E+00  0.00000000E+00  0.00000000E+00
0.00000000E+00  0.00000000E+00  0.00000000E+00
0.00000000E+00  0.00000000E+00  0.00000000E+00
0.00000000E+00  0.00000000E+00  0.00000000E+00
0.00000000E+00  0.00000000E+00  0.00000000E+00
0.00000000E+00  0.00000000E+00  0.00000000E+00
0.00000000E+00  0.00000000E+00  0.00000000E+00
