Zr4C3  (n=3)
1.00000000000000
3.3174049537814834  0.0000000000000000  0.0000000000000000
-1.6587024768907415  2.8729569650111673  0.0000000000000001
-0.0000000000000004  -0.0000000000000007  37.7117846598010686
Zr  C  O  H
4  3  2  2
Selective  dynamics
Direct
-0.0000000000000000  0.0000000000000000  0.0637108199823770  T  T  T
0.6666666666666643  0.3333333333333357  0.1346004936900530  T  T  T
0.3333333333333357  0.6666666666666643  0.2045255641918896  T  T  T
-0.0000000000000000  0.0000000000000000  0.2745886729688884  T  T  T
0.3333333333333357  0.6666666666666643  0.0961603085955637  T  T  T
-0.0000000000000000  0.0000000000000000  0.1697856979473158  T  T  T
0.6666666666666643  0.3333333333333357  0.2438746001551851  T  T  T
0.3333333333333357  0.6666666666666643  0.0258616264568832  T  T  T
0.3333333333333357  0.6666666666666643  0.3112131469199824  T  T  T
0.3333333333333357  0.6666666666666643  0.0000000000000000  T  T  T
0.3333333333333357  0.6666666666666643  0.3370772498431031  T  T  T

0.00000000E+00  0.00000000E+00  0.00000000E+00
0.00000000E+00  0.00000000E+00  0.00000000E+00
0.00000000E+00  0.00000000E+00  0.00000000E+00
0.00000000E+00  0.00000000E+00  0.00000000E+00
0.00000000E+00  0.00000000E+00  0.00000000E+00
0.00000000E+00  0.00000000E+00  0.00000000E+00
0.00000000E+00  0.00000000E+00  0.00000000E+00
0.00000000E+00  0.00000000E+00  0.00000000E+00
0.00000000E+00  0.00000000E+00  0.00000000E+00
0.00000000E+00  0.00000000E+00  0.00000000E+00
0.00000000E+00  0.00000000E+00  0.00000000E+00
