Nb4C3  (n=3)
1.00000000000000
3.1455379701205484  0.0000000000000000  0.0000000000000001
-1.5727689850602742  2.7241157910530234  -0.0000000000000001
0.0000000000000005  0.0000000000000002  37.4996504381294926
Nb  C  O  H
4  3  2  2
Selective  dynamics
Direct
-0.0000000000000000  -0.0000000000000000  0.0638036213660536  T  T  T
0.6666666666666643  0.3333333333333357  0.1319040014386699  T  T  T
0.3333333333333357  0.6666666666666643  0.2035709447055828  T  T  T
-0.0000000000000000  -0.0000000000000000  0.2687001128486938  T  T  T
0.3333333333333357  0.6666666666666643  0.0961757927231518  T  T  T
-0.0000000000000000  -0.0000000000000000  0.1670476117524251  T  T  T
0.6666666666666643  0.3333333333333357  0.2378128515998778  T  T  T
0.3333333333333357  0.6666666666666643  0.0261513992386753  T  T  T
0.3333333333333357  0.6666666666666643  0.3072299621128897  T  T  T
0.3333333333333357  0.6666666666666643  0.0000000000000000  T  T  T
0.3333333333333357  0.6666666666666643  0.3333271188421504  T  T  T

0.00000000E+00  0.00000000E+00  0.00000000E+00
0.00000000E+00  0.00000000E+00  0.00000000E+00
0.00000000E+00  0.00000000E+00  0.00000000E+00
0.00000000E+00  0.00000000E+00  0.00000000E+00
0.00000000E+00  0.00000000E+00  0.00000000E+00
0.00000000E+00  0.00000000E+00  0.00000000E+00
0.00000000E+00  0.00000000E+00  0.00000000E+00
0.00000000E+00  0.00000000E+00  0.00000000E+00
0.00000000E+00  0.00000000E+00  0.00000000E+00
0.00000000E+00  0.00000000E+00  0.00000000E+00
0.00000000E+00  0.00000000E+00  0.00000000E+00
