Sc4C3  (n=3)
1.00000000000000
3.2505630018306211  0.0000000000000000  -0.0000000000000001
-1.6252815009153108  2.8150701363684831  -0.0000000000000001
-0.0000000000000012  -0.0000000000000005  37.6967326756876702
Sc  C  O  H
4  3  2  2
Selective  dynamics
Direct
0.0000000000000000  0.0000000000000000  0.0609532467179754  T  T  T
0.6666666666666643  0.3333333333333357  0.1321059776471047  T  T  T
0.3333333333333357  0.6666666666666643  0.2071296128565546  T  T  T
0.0000000000000000  0.0000000000000000  0.2778429100489938  T  T  T
0.3333333333333357  0.6666666666666643  0.0960639707509498  T  T  T
0.0000000000000000  0.0000000000000000  0.1696259398672808  T  T  T
0.6666666666666643  0.3333333333333357  0.2440098463704081  T  T  T
0.3333333333333357  0.6666666666666643  0.0258602263110132  T  T  T
0.3333333333333357  0.6666666666666643  0.3110672436530272  T  T  T
0.3333333333333357  0.6666666666666643  0.0000000000000000  T  T  T
0.3333333333333357  0.6666666666666643  0.3368125504382604  T  T  T

0.00000000E+00  0.00000000E+00  0.00000000E+00
0.00000000E+00  0.00000000E+00  0.00000000E+00
0.00000000E+00  0.00000000E+00  0.00000000E+00
0.00000000E+00  0.00000000E+00  0.00000000E+00
0.00000000E+00  0.00000000E+00  0.00000000E+00
0.00000000E+00  0.00000000E+00  0.00000000E+00
0.00000000E+00  0.00000000E+00  0.00000000E+00
0.00000000E+00  0.00000000E+00  0.00000000E+00
0.00000000E+00  0.00000000E+00  0.00000000E+00
0.00000000E+00  0.00000000E+00  0.00000000E+00
0.00000000E+00  0.00000000E+00  0.00000000E+00
