Ti4N3  (n=3)
1.00000000000000
2.9801255137369043  0.0000000000000000  0.0000000000000000
-1.4900627568684526  2.5808644014557696  0.0000000000000000
0.0000000000000000  0.0000000000000002  36.7950313664758895
Ti  N  O  H
4  3  2  2
Selective  dynamics
Direct
-0.0000000000000000  -0.0000000000000000  0.0617517879001909  T  T  T
0.6666666666666643  0.3333333333333357  0.1271840467207705  T  T  T
0.3333333333333357  0.6666666666666643  0.1961049172502796  T  T  T
-0.0000000000000000  -0.0000000000000000  0.2590170734693694  T  T  T
0.3333333333333357  0.6666666666666643  0.0943033478128392  T  T  T
-0.0000000000000000  -0.0000000000000000  0.1609791289707144  T  T  T
0.6666666666666643  0.3333333333333357  0.2285303033031506  T  T  T
0.3333333333333357  0.6666666666666643  0.0265451141508054  T  T  T
0.3333333333333357  0.6666666666666643  0.2939619419844691  T  T  T
0.3333333333333357  0.6666666666666643  0.0000000000000000  T  T  T
0.3333333333333357  0.6666666666666643  0.3205604378753810  T  T  T

0.00000000E+00  0.00000000E+00  0.00000000E+00
0.00000000E+00  0.00000000E+00  0.00000000E+00
0.00000000E+00  0.00000000E+00  0.00000000E+00
0.00000000E+00  0.00000000E+00  0.00000000E+00
0.00000000E+00  0.00000000E+00  0.00000000E+00
0.00000000E+00  0.00000000E+00  0.00000000E+00
0.00000000E+00  0.00000000E+00  0.00000000E+00
0.00000000E+00  0.00000000E+00  0.00000000E+00
0.00000000E+00  0.00000000E+00  0.00000000E+00
0.00000000E+00  0.00000000E+00  0.00000000E+00
0.00000000E+00  0.00000000E+00  0.00000000E+00
