Zr3N2  (n=2)
1.00000000000000
3.1255948606286790  0.0000000000000000  0.0000000000000000
-1.5627974303143393  2.7068445515435040  0.0000000000000000
-0.0000000000000002  -0.0000000000000001  35.6468415011804041
Zr  N  O  H
3  2  2  2
Selective  dynamics
Direct
0.0000000000000000  -0.0000000000000000  0.0667893702683977  T  T  T
0.0000000000000000  -0.0000000000000000  0.1490167407519621  T  T  T
0.0000000000000000  -0.0000000000000000  0.2316201116944682  T  T  T
0.3333333333333357  0.6666666666666643  0.1069634406570244  T  T  T
0.3333333333333357  0.6666666666666643  0.1908173678595945  T  T  T
0.3333333333333357  0.6666666666666643  0.0272978462683438  T  T  T
0.6666666666666643  0.3333333333333357  0.2711877312518638  T  T  T
0.3333333333333357  0.6666666666666643  0.0000000000000000  T  T  T
0.6666666666666643  0.3333333333333357  0.2986755923614676  T  T  T

0.00000000E+00  0.00000000E+00  0.00000000E+00
0.00000000E+00  0.00000000E+00  0.00000000E+00
0.00000000E+00  0.00000000E+00  0.00000000E+00
0.00000000E+00  0.00000000E+00  0.00000000E+00
0.00000000E+00  0.00000000E+00  0.00000000E+00
0.00000000E+00  0.00000000E+00  0.00000000E+00
0.00000000E+00  0.00000000E+00  0.00000000E+00
0.00000000E+00  0.00000000E+00  0.00000000E+00
0.00000000E+00  0.00000000E+00  0.00000000E+00
