Cr3C2  (n=2)
1.00000000000000
2.7243044206424409  0.0000000000000000  0.0000000000000000
-1.3621522103212205  2.3593168358874586  0.0000000000000000
0.0000000000000002  0.0000000000000002  34.6655151053860209
Cr  C  O  H
3  2  2  2
Selective  dynamics
Direct
-0.0000000000000000  -0.0000000000000000  0.0648865895162948  T  T  T
-0.0000000000000000  -0.0000000000000000  0.1398816799342830  T  T  T
-0.0000000000000000  -0.0000000000000000  0.2140713305983863  T  T  T
0.3333333333333357  0.6666666666666643  0.1012171529428727  T  T  T
0.3333333333333357  0.6666666666666643  0.1766522664866893  T  T  T
0.3333333333333357  0.6666666666666643  0.0284548267345278  T  T  T
0.6666666666666643  0.3333333333333357  0.2505074113033153  T  T  T
0.3333333333333357  0.6666666666666643  0.0000000000000000  T  T  T
0.6666666666666643  0.3333333333333357  0.2788221976797997  T  T  T

0.00000000E+00  0.00000000E+00  0.00000000E+00
0.00000000E+00  0.00000000E+00  0.00000000E+00
0.00000000E+00  0.00000000E+00  0.00000000E+00
0.00000000E+00  0.00000000E+00  0.00000000E+00
0.00000000E+00  0.00000000E+00  0.00000000E+00
0.00000000E+00  0.00000000E+00  0.00000000E+00
0.00000000E+00  0.00000000E+00  0.00000000E+00
0.00000000E+00  0.00000000E+00  0.00000000E+00
0.00000000E+00  0.00000000E+00  0.00000000E+00
