Sc3N2  (n=2)
1.00000000000000
3.1294046454395574  0.0000000000000000  0.0000000000000000
-1.5647023227197787  2.7101439218666514  0.0000000000000000
0.0000000000000001  0.0000000000000002  35.0130302538951170
Sc  N  O  H
3  2  2  2
Selective  dynamics
Direct
0.0000000000000000  0.0000000000000000  0.0655242061065496  T  T  T
0.0000000000000000  0.0000000000000000  0.1439890020691864  T  T  T
0.0000000000000000  0.0000000000000000  0.2220276822565710  T  T  T
0.3333333333333357  0.6666666666666643  0.1027831412482478  T  T  T
0.3333333333333357  0.6666666666666643  0.1868068653895288  T  T  T
0.3333333333333357  0.6666666666666643  0.0278531912255185  T  T  T
0.6666666666666643  0.3333333333333357  0.2581870420149183  T  T  T
0.3333333333333357  0.6666666666666643  0.0000000000000000  T  T  T
0.6666666666666643  0.3333333333333357  0.2859801102985420  T  T  T

0.00000000E+00  0.00000000E+00  0.00000000E+00
0.00000000E+00  0.00000000E+00  0.00000000E+00
0.00000000E+00  0.00000000E+00  0.00000000E+00
0.00000000E+00  0.00000000E+00  0.00000000E+00
0.00000000E+00  0.00000000E+00  0.00000000E+00
0.00000000E+00  0.00000000E+00  0.00000000E+00
0.00000000E+00  0.00000000E+00  0.00000000E+00
0.00000000E+00  0.00000000E+00  0.00000000E+00
0.00000000E+00  0.00000000E+00  0.00000000E+00
