Sc3C2  (n=2)
1.00000000000000
3.2021730826009249  0.0000000000000000  0.0000000000000000
-1.6010865413004625  2.7731632370177115  0.0000000000000000
-0.0000000000000001  0.0000000000000000  35.3596948706330778
Sc  C  O  H
3  2  2  2
Selective  dynamics
Direct
-0.0000000000000000  0.0000000000000000  0.0650243607848469  T  T  T
-0.0000000000000000  0.0000000000000000  0.1472775057435996  T  T  T
-0.0000000000000000  0.0000000000000000  0.2301102598885281  T  T  T
0.3333333333333357  0.6666666666666643  0.1041852623909418  T  T  T
0.3333333333333357  0.6666666666666643  0.1919595574386875  T  T  T
0.3333333333333357  0.6666666666666643  0.0275885664687201  T  T  T
0.6666666666666643  0.3333333333333357  0.2654949315825569  T  T  T
0.3333333333333357  0.6666666666666643  0.0000000000000000  T  T  T
0.6666666666666643  0.3333333333333357  0.2929803243080868  T  T  T

0.00000000E+00  0.00000000E+00  0.00000000E+00
0.00000000E+00  0.00000000E+00  0.00000000E+00
0.00000000E+00  0.00000000E+00  0.00000000E+00
0.00000000E+00  0.00000000E+00  0.00000000E+00
0.00000000E+00  0.00000000E+00  0.00000000E+00
0.00000000E+00  0.00000000E+00  0.00000000E+00
0.00000000E+00  0.00000000E+00  0.00000000E+00
0.00000000E+00  0.00000000E+00  0.00000000E+00
0.00000000E+00  0.00000000E+00  0.00000000E+00
