Nb3N2  (n=2)
1.00000000000000
2.9498174797686976  0.0000000000000000  0.0000000000000000
-1.4749087398843488  2.5546168741991058  -0.0000000000000001
-0.0000000000000001  -0.0000000000000003  35.6215616437887306
Nb  N  O  H
3  2  2  2
Selective  dynamics
Direct
-0.0000000000000000  -0.0000000000000000  0.0667158001373067  T  T  T
-0.0000000000000000  -0.0000000000000000  0.1483009314899750  T  T  T
-0.0000000000000000  -0.0000000000000000  0.2303297962187487  T  T  T
0.3333333333333357  0.6666666666666643  0.1065173187652373  T  T  T
0.3333333333333357  0.6666666666666643  0.1876544083613291  T  T  T
0.3333333333333357  0.6666666666666643  0.0277384632336736  T  T  T
0.6666666666666643  0.3333333333333357  0.2706155290596397  T  T  T
0.3333333333333357  0.6666666666666643  0.0000000000000000  T  T  T
0.6666666666666643  0.3333333333333357  0.2981778774890066  T  T  T

0.00000000E+00  0.00000000E+00  0.00000000E+00
0.00000000E+00  0.00000000E+00  0.00000000E+00
0.00000000E+00  0.00000000E+00  0.00000000E+00
0.00000000E+00  0.00000000E+00  0.00000000E+00
0.00000000E+00  0.00000000E+00  0.00000000E+00
0.00000000E+00  0.00000000E+00  0.00000000E+00
0.00000000E+00  0.00000000E+00  0.00000000E+00
0.00000000E+00  0.00000000E+00  0.00000000E+00
0.00000000E+00  0.00000000E+00  0.00000000E+00
