Cr3N2  (n=2)
1.00000000000000
2.7000603444304283  0.0000000000000000  0.0000000000000000
-1.3500301722152142  2.3383208500098744  0.0000000000000000
0.0000000000000001  0.0000000000000001  34.6693212249822551
Cr  N  O  H
3  2  2  2
Selective  dynamics
Direct
-0.0000000000000000  0.0000000000000000  0.0665790201564718  T  T  T
-0.0000000000000000  0.0000000000000000  0.1403936293183577  T  T  T
-0.0000000000000000  0.0000000000000000  0.2139837902220817  T  T  T
0.3333333333333357  0.6666666666666643  0.1019856097220360  T  T  T
0.3333333333333357  0.6666666666666643  0.1770964345747716  T  T  T
0.3333333333333357  0.6666666666666643  0.0284747957362316  T  T  T
0.6666666666666643  0.3333333333333357  0.2504818374948674  T  T  T
0.3333333333333357  0.6666666666666643  0.0000000000000000  T  T  T
0.6666666666666643  0.3333333333333357  0.2789013711065872  T  T  T

0.00000000E+00  0.00000000E+00  0.00000000E+00
0.00000000E+00  0.00000000E+00  0.00000000E+00
0.00000000E+00  0.00000000E+00  0.00000000E+00
0.00000000E+00  0.00000000E+00  0.00000000E+00
0.00000000E+00  0.00000000E+00  0.00000000E+00
0.00000000E+00  0.00000000E+00  0.00000000E+00
0.00000000E+00  0.00000000E+00  0.00000000E+00
0.00000000E+00  0.00000000E+00  0.00000000E+00
0.00000000E+00  0.00000000E+00  0.00000000E+00
