Ti3C2  (n=2)
1.00000000000000
3.0297720195781088  0.0000000000000000  0.0000000000000000
-1.5148860097890544  2.6238595367592779  0.0000000000000000
0.0000000000000001  0.0000000000000001  34.7524134829691036
Ti  C  O  H
3  2  2  2
Selective  dynamics
Direct
0.0000000000000000  0.0000000000000000  0.0659890392510154  T  T  T
0.0000000000000000  0.0000000000000000  0.1415571559425524  T  T  T
0.0000000000000000  0.0000000000000000  0.2162065344089754  T  T  T
0.3333333333333357  0.6666666666666643  0.1013015488893285  T  T  T
0.3333333333333357  0.6666666666666643  0.1825472092905704  T  T  T
0.3333333333333357  0.6666666666666643  0.0280771207474278  T  T  T
0.6666666666666643  0.3333333333333357  0.2526002226493122  T  T  T
0.3333333333333357  0.6666666666666643  0.0000000000000000  T  T  T
0.6666666666666643  0.3333333333333357  0.2806255021035706  T  T  T

0.00000000E+00  0.00000000E+00  0.00000000E+00
0.00000000E+00  0.00000000E+00  0.00000000E+00
0.00000000E+00  0.00000000E+00  0.00000000E+00
0.00000000E+00  0.00000000E+00  0.00000000E+00
0.00000000E+00  0.00000000E+00  0.00000000E+00
0.00000000E+00  0.00000000E+00  0.00000000E+00
0.00000000E+00  0.00000000E+00  0.00000000E+00
0.00000000E+00  0.00000000E+00  0.00000000E+00
0.00000000E+00  0.00000000E+00  0.00000000E+00
