Zr3C2  (n=2)
1.00000000000000
3.2743695239984336  0.0000000000000001  0.0000000000000000
-1.6371847619992170  2.8356871894848772  0.0000000000000000
-0.0000000000000002  0.0000000000000001  35.4239036498845294
Zr  C  O  H
3  2  2  2
Selective  dynamics
Direct
0.0000000000000000  -0.0000000000000000  0.0674115041297033  T  T  T
0.0000000000000000  -0.0000000000000000  0.1481020421219613  T  T  T
0.0000000000000000  -0.0000000000000000  0.2280734111315315  T  T  T
0.3333333333333357  0.6666666666666643  0.1044865696068600  T  T  T
0.3333333333333357  0.6666666666666643  0.1927183385471619  T  T  T
0.3333333333333357  0.6666666666666643  0.0275107818623604  T  T  T
0.6666666666666643  0.3333333333333357  0.2667197805303267  T  T  T
0.3333333333333357  0.6666666666666643  0.0000000000000000  T  T  T
0.6666666666666643  0.3333333333333357  0.2942618564263882  T  T  T

0.00000000E+00  0.00000000E+00  0.00000000E+00
0.00000000E+00  0.00000000E+00  0.00000000E+00
0.00000000E+00  0.00000000E+00  0.00000000E+00
0.00000000E+00  0.00000000E+00  0.00000000E+00
0.00000000E+00  0.00000000E+00  0.00000000E+00
0.00000000E+00  0.00000000E+00  0.00000000E+00
0.00000000E+00  0.00000000E+00  0.00000000E+00
0.00000000E+00  0.00000000E+00  0.00000000E+00
0.00000000E+00  0.00000000E+00  0.00000000E+00
