Hf3N2  (n=2)
1.00000000000000
3.0759041546370338  -0.0000000000000001  0.0000000000000000
-1.5379520773185169  2.6638111378413138  0.0000000000000000
0.0000000000000000  0.0000000000000002  35.5359315083692877
Hf  N  O  H
3  2  2  2
Selective  dynamics
Direct
-0.0000000000000000  -0.0000000000000000  0.0664138240608333  T  T  T
-0.0000000000000000  -0.0000000000000000  0.1480472385815458  T  T  T
-0.0000000000000000  -0.0000000000000000  0.2296561266103117  T  T  T
0.3333333333333357  0.6666666666666643  0.1058562457154925  T  T  T
0.3333333333333357  0.6666666666666643  0.1898770094836741  T  T  T
0.3333333333333357  0.6666666666666643  0.0274993033882830  T  T  T
0.6666666666666643  0.3333333333333357  0.2686572688257087  T  T  T
0.3333333333333357  0.6666666666666643  0.0000000000000000  T  T  T
0.6666666666666643  0.3333333333333357  0.2964867124951517  T  T  T

0.00000000E+00  0.00000000E+00  0.00000000E+00
0.00000000E+00  0.00000000E+00  0.00000000E+00
0.00000000E+00  0.00000000E+00  0.00000000E+00
0.00000000E+00  0.00000000E+00  0.00000000E+00
0.00000000E+00  0.00000000E+00  0.00000000E+00
0.00000000E+00  0.00000000E+00  0.00000000E+00
0.00000000E+00  0.00000000E+00  0.00000000E+00
0.00000000E+00  0.00000000E+00  0.00000000E+00
0.00000000E+00  0.00000000E+00  0.00000000E+00
