Ta3N2  (n=2)
1.00000000000000
2.9260040438572901  -0.0000000000000002  0.0000000000000000
-1.4630020219286450  2.5339938337587884  0.0000000000000000
0.0000000000000005  -0.0000000000000001  35.6391870398646375
Ta  N  O  H
3  2  2  2
Selective  dynamics
Direct
0.0000000000000000  -0.0000000000000000  0.0665691966909169  T  T  T
-0.0000000000000000  -0.0000000000000000  0.1481489339327515  T  T  T
-0.0000000000000000  -0.0000000000000000  0.2304520251054538  T  T  T
0.3333333333333357  0.6666666666666643  0.1062067752540207  T  T  T
0.3333333333333357  0.6666666666666643  0.1874886371014988  T  T  T
0.3333333333333357  0.6666666666666643  0.0279955528289991  T  T  T
0.6666666666666643  0.3333333333333357  0.2708261651701888  T  T  T
0.3333333333333357  0.6666666666666643  0.0000000000000000  T  T  T
0.6666666666666643  0.3333333333333357  0.2985249643310902  T  T  T

0.00000000E+00  0.00000000E+00  0.00000000E+00
0.00000000E+00  0.00000000E+00  0.00000000E+00
0.00000000E+00  0.00000000E+00  0.00000000E+00
0.00000000E+00  0.00000000E+00  0.00000000E+00
0.00000000E+00  0.00000000E+00  0.00000000E+00
0.00000000E+00  0.00000000E+00  0.00000000E+00
0.00000000E+00  0.00000000E+00  0.00000000E+00
0.00000000E+00  0.00000000E+00  0.00000000E+00
0.00000000E+00  0.00000000E+00  0.00000000E+00
