Ti3N2  (n=2)
1.00000000000000
2.9052946723114603  -0.0000000000000002  0.0000000000000000
-1.4526473361557302  2.5160589917629963  0.0000000000000000
0.0000000000000002  -0.0000000000000003  34.8760368382591395
Ti  N  O  H
3  2  2  2
Selective  dynamics
Direct
0.0000000000000000  0.0000000000000000  0.0651873184749736  T  T  T
0.0000000000000000  0.0000000000000000  0.1418631293674535  T  T  T
0.0000000000000000  0.0000000000000000  0.2182639506508420  T  T  T
0.3333333333333357  0.6666666666666643  0.1021181792442922  T  T  T
0.3333333333333357  0.6666666666666643  0.1818282310968852  T  T  T
0.3333333333333357  0.6666666666666643  0.0278837201272738  T  T  T
0.6666666666666643  0.3333333333333357  0.2550443066862847  T  T  T
0.3333333333333357  0.6666666666666643  0.0000000000000000  T  T  T
0.6666666666666643  0.3333333333333357  0.2831754331508530  T  T  T

0.00000000E+00  0.00000000E+00  0.00000000E+00
0.00000000E+00  0.00000000E+00  0.00000000E+00
0.00000000E+00  0.00000000E+00  0.00000000E+00
0.00000000E+00  0.00000000E+00  0.00000000E+00
0.00000000E+00  0.00000000E+00  0.00000000E+00
0.00000000E+00  0.00000000E+00  0.00000000E+00
0.00000000E+00  0.00000000E+00  0.00000000E+00
0.00000000E+00  0.00000000E+00  0.00000000E+00
0.00000000E+00  0.00000000E+00  0.00000000E+00
