Nb3C2  (n=2)
1.00000000000000
3.0410560439172354  0.0000000000000000  0.0000000000000000
-1.5205280219586177  2.6336317887192533  0.0000000000000000
-0.0000000000000001  -0.0000000000000003  35.4694668393775103
Nb  C  O  H
3  2  2  2
Selective  dynamics
Direct
-0.0000000000000000  -0.0000000000000000  0.0664983128324298  T  T  T
-0.0000000000000000  -0.0000000000000000  0.1467139775098070  T  T  T
-0.0000000000000000  -0.0000000000000000  0.2274609873516833  T  T  T
0.3333333333333357  0.6666666666666643  0.1049855223968810  T  T  T
0.3333333333333357  0.6666666666666643  0.1884288286154513  T  T  T
0.3333333333333357  0.6666666666666643  0.0273988196149493  T  T  T
0.6666666666666643  0.3333333333333357  0.2675342628902090  T  T  T
0.3333333333333357  0.6666666666666643  0.0000000000000000  T  T  T
0.6666666666666643  0.3333333333333357  0.2951684299848149  T  T  T

0.00000000E+00  0.00000000E+00  0.00000000E+00
0.00000000E+00  0.00000000E+00  0.00000000E+00
0.00000000E+00  0.00000000E+00  0.00000000E+00
0.00000000E+00  0.00000000E+00  0.00000000E+00
0.00000000E+00  0.00000000E+00  0.00000000E+00
0.00000000E+00  0.00000000E+00  0.00000000E+00
0.00000000E+00  0.00000000E+00  0.00000000E+00
0.00000000E+00  0.00000000E+00  0.00000000E+00
0.00000000E+00  0.00000000E+00  0.00000000E+00
