Hf3C2  (n=2)
1.00000000000000
3.2253633694261756  0.0000000000000000  0.0000000000000000
-1.6126816847130878  2.7932466147954700  0.0000000000000000
0.0000000000000000  0.0000000000000000  35.2891170226280977
Hf  C  O  H
3  2  2  2
Selective  dynamics
Direct
-0.0000000000000000  -0.0000000000000000  0.0674197545805132  T  T  T
-0.0000000000000000  -0.0000000000000000  0.1471273372028755  T  T  T
-0.0000000000000000  -0.0000000000000000  0.2260357440667894  T  T  T
0.3333333333333357  0.6666666666666643  0.1040285966803802  T  T  T
0.3333333333333357  0.6666666666666643  0.1911635807339638  T  T  T
0.3333333333333357  0.6666666666666643  0.0276667017597249  T  T  T
0.6666666666666643  0.3333333333333357  0.2638116401922878  T  T  T
0.3333333333333357  0.6666666666666643  0.0000000000000000  T  T  T
0.6666666666666643  0.3333333333333357  0.2915662926910443  T  T  T

0.00000000E+00  0.00000000E+00  0.00000000E+00
0.00000000E+00  0.00000000E+00  0.00000000E+00
0.00000000E+00  0.00000000E+00  0.00000000E+00
0.00000000E+00  0.00000000E+00  0.00000000E+00
0.00000000E+00  0.00000000E+00  0.00000000E+00
0.00000000E+00  0.00000000E+00  0.00000000E+00
0.00000000E+00  0.00000000E+00  0.00000000E+00
0.00000000E+00  0.00000000E+00  0.00000000E+00
0.00000000E+00  0.00000000E+00  0.00000000E+00
