Mo3N2  (n=2)
1.00000000000000
2.8594959310158976  0.0000000000000000  0.0000000000000000
-1.4297479655079488  2.4763961184026138  0.0000000000000000
0.0000000000000000  0.0000000000000001  35.5791567573575236
Mo  N  O  H
3  2  2  2
Selective  dynamics
Direct
-0.0000000000000000  0.0000000000000000  0.0704319921884407  T  T  T
-0.0000000000000000  0.0000000000000000  0.1495696138922157  T  T  T
-0.0000000000000000  0.0000000000000000  0.2293160143927128  T  T  T
0.3333333333333357  0.6666666666666643  0.1088789218017711  T  T  T
0.3333333333333357  0.6666666666666643  0.1884740501501902  T  T  T
0.3333333333333357  0.6666666666666643  0.0279301999148054  T  T  T
0.6666666666666643  0.3333333333333357  0.2696919560654166  T  T  T
0.3333333333333357  0.6666666666666643  0.0000000000000000  T  T  T
0.6666666666666643  0.3333333333333357  0.2973414133872026  T  T  T

0.00000000E+00  0.00000000E+00  0.00000000E+00
0.00000000E+00  0.00000000E+00  0.00000000E+00
0.00000000E+00  0.00000000E+00  0.00000000E+00
0.00000000E+00  0.00000000E+00  0.00000000E+00
0.00000000E+00  0.00000000E+00  0.00000000E+00
0.00000000E+00  0.00000000E+00  0.00000000E+00
0.00000000E+00  0.00000000E+00  0.00000000E+00
0.00000000E+00  0.00000000E+00  0.00000000E+00
0.00000000E+00  0.00000000E+00  0.00000000E+00
