Ta3C2  (n=2)
1.00000000000000
3.0218724174135971  0.0000000000000000  0.0000000000000000
-1.5109362087067986  2.6170182807749556  0.0000000000000000
-0.0000000000000004  0.0000000000000003  35.4536833619212004
Ta  C  O  H
3  2  2  2
Selective  dynamics
Direct
-0.0000000000000000  -0.0000000000000000  0.0666141223155812  T  T  T
-0.0000000000000000  -0.0000000000000000  0.1465041396143225  T  T  T
-0.0000000000000000  -0.0000000000000000  0.2270009768505975  T  T  T
0.3333333333333357  0.6666666666666643  0.1047698273478919  T  T  T
0.3333333333333357  0.6666666666666643  0.1883749464792492  T  T  T
0.3333333333333357  0.6666666666666643  0.0274664920127591  T  T  T
0.6666666666666643  0.3333333333333357  0.2670088601477790  T  T  T
0.3333333333333357  0.6666666666666643  0.0000000000000000  T  T  T
0.6666666666666643  0.3333333333333357  0.2948546489572621  T  T  T

0.00000000E+00  0.00000000E+00  0.00000000E+00
0.00000000E+00  0.00000000E+00  0.00000000E+00
0.00000000E+00  0.00000000E+00  0.00000000E+00
0.00000000E+00  0.00000000E+00  0.00000000E+00
0.00000000E+00  0.00000000E+00  0.00000000E+00
0.00000000E+00  0.00000000E+00  0.00000000E+00
0.00000000E+00  0.00000000E+00  0.00000000E+00
0.00000000E+00  0.00000000E+00  0.00000000E+00
0.00000000E+00  0.00000000E+00  0.00000000E+00
