Mo3C2  (n=2)
1.00000000000000
2.9103565635700153  -0.0000000000000001  0.0000000000000000
-1.4551782817850076  2.5204427182648592  0.0000000000000000
-0.0000000000000003  -0.0000000000000001  35.4176657720111336
Mo  C  O  H
3  2  2  2
Selective  dynamics
Direct
0.0000000000000000  0.0000000000000000  0.0674896485150178  T  T  T
0.0000000000000000  0.0000000000000000  0.1471342287121210  T  T  T
0.0000000000000000  0.0000000000000000  0.2262319140107390  T  T  T
0.3333333333333357  0.6666666666666643  0.1056579992989372  T  T  T
0.3333333333333357  0.6666666666666643  0.1861952256295402  T  T  T
0.3333333333333357  0.6666666666666643  0.0279687147682127  T  T  T
0.6666666666666643  0.3333333333333357  0.2664832482029995  T  T  T
0.3333333333333357  0.6666666666666643  0.0000000000000000  T  T  T
0.6666666666666643  0.3333333333333357  0.2941375594617449  T  T  T

0.00000000E+00  0.00000000E+00  0.00000000E+00
0.00000000E+00  0.00000000E+00  0.00000000E+00
0.00000000E+00  0.00000000E+00  0.00000000E+00
0.00000000E+00  0.00000000E+00  0.00000000E+00
0.00000000E+00  0.00000000E+00  0.00000000E+00
0.00000000E+00  0.00000000E+00  0.00000000E+00
0.00000000E+00  0.00000000E+00  0.00000000E+00
0.00000000E+00  0.00000000E+00  0.00000000E+00
0.00000000E+00  0.00000000E+00  0.00000000E+00
