Nb2N  (n=1)
1.00000000000000
3.1990518908648546  0.0000000000000008  0.0000000000000000
-1.5995259454324260  2.7704602049076819  0.0000000000000000
0.0000000000000000  0.0000000000000000  31.6555542654430191
Nb  N  Br
2  1  2
Selective  dynamics
Direct
0.0000000000000000  0.0000000000000000  0.0620803347811988  T  T  T
0.0000000000000000  0.0000000000000000  0.1481688432819570  T  T  T
0.3333333333333357  0.6666666666666643  0.1051245890315812  T  T  T
0.3333333333333357  0.6666666666666643  0.0000000000000000  T  T  T
0.3333333333333357  0.6666666666666643  0.2102491780631558  T  T  T

0.00000000E+00  0.00000000E+00  0.00000000E+00
0.00000000E+00  0.00000000E+00  0.00000000E+00
0.00000000E+00  0.00000000E+00  0.00000000E+00
0.00000000E+00  0.00000000E+00  0.00000000E+00
0.00000000E+00  0.00000000E+00  0.00000000E+00
