Zr2N  (n=1)
1.00000000000000
3.3532877092462998  0.0000000000000000  0.0000000000000000
-1.6766438546231499  2.9040323424931360  0.0000000000000000
0.0000000000000000  0.0000000000000000  31.7663610839724022
Zr  N  Br
2  1  2
Selective  dynamics
Direct
0.0000000000000000  0.0000000000000000  0.0612049655172724  T  T  T
0.0000000000000000  0.0000000000000000  0.1517990063914377  T  T  T
0.3333333333333357  0.6666666666666643  0.1065019859543593  T  T  T
0.3333333333333357  0.6666666666666643  0.0000000000000000  T  T  T
0.3333333333333357  0.6666666666666643  0.2130039719087102  T  T  T

0.00000000E+00  0.00000000E+00  0.00000000E+00
0.00000000E+00  0.00000000E+00  0.00000000E+00
0.00000000E+00  0.00000000E+00  0.00000000E+00
0.00000000E+00  0.00000000E+00  0.00000000E+00
0.00000000E+00  0.00000000E+00  0.00000000E+00
