Hf2C  (n=1)
1.00000000000000
3.3732711730585376  0.0000000000000003  0.0000000000000000
-1.6866355865292688  2.9213385304622470  0.0000000000000000
0.0000000000000000  -0.0000000000000000  31.6902646008463833
Hf  C  Br
2  1  2
Selective  dynamics
Direct
-0.0000000000000000  0.0000000000000000  0.0616486684820718  T  T  T
-0.0000000000000000  0.0000000000000000  0.1494655233719054  T  T  T
0.3333333333333357  0.6666666666666643  0.1055570959269920  T  T  T
0.3333333333333357  0.6666666666666643  0.0000000000000000  T  T  T
0.3333333333333357  0.6666666666666643  0.2111141918539771  T  T  T

0.00000000E+00  0.00000000E+00  0.00000000E+00
0.00000000E+00  0.00000000E+00  0.00000000E+00
0.00000000E+00  0.00000000E+00  0.00000000E+00
0.00000000E+00  0.00000000E+00  0.00000000E+00
0.00000000E+00  0.00000000E+00  0.00000000E+00
