Ta2C  (n=1)
1.00000000000000
3.2126760159957071  -0.0000000000000005  -0.0000000000000000
-1.6063380079978535  2.7822590440066617  -0.0000000000000000
0.0000000000000000  -0.0000000000000000  31.5991481368990748
Ta  C  Br
2  1  2
Selective  dynamics
Direct
0.0000000000000000  0.0000000000000000  0.0604491287687594  T  T  T
0.0000000000000000  0.0000000000000000  0.1483903028611424  T  T  T
0.3333333333333357  0.6666666666666643  0.1044197158149509  T  T  T
0.3333333333333357  0.6666666666666643  0.0000000000000000  T  T  T
0.3333333333333357  0.6666666666666643  0.2088394316299019  T  T  T

0.00000000E+00  0.00000000E+00  0.00000000E+00
0.00000000E+00  0.00000000E+00  0.00000000E+00
0.00000000E+00  0.00000000E+00  0.00000000E+00
0.00000000E+00  0.00000000E+00  0.00000000E+00
0.00000000E+00  0.00000000E+00  0.00000000E+00
