Nb2C  (n=1)
1.00000000000000
3.2388633552255000  0.0000000000000000  0.0000000000000000
-1.6194316776127500  2.8049379455758352  0.0000000000000000
0.0000000000000000  0.0000000000000000  31.5846133061370651
Nb  C  Br
2  1  2
Selective  dynamics
Direct
-0.0000000000000000  0.0000000000000000  0.0599655341493959  T  T  T
-0.0000000000000000  0.0000000000000000  0.1485098156139536  T  T  T
0.3333333333333357  0.6666666666666643  0.1042376748816747  T  T  T
0.3333333333333357  0.6666666666666643  0.0000000000000000  T  T  T
0.3333333333333357  0.6666666666666643  0.2084753497633494  T  T  T

0.00000000E+00  0.00000000E+00  0.00000000E+00
0.00000000E+00  0.00000000E+00  0.00000000E+00
0.00000000E+00  0.00000000E+00  0.00000000E+00
0.00000000E+00  0.00000000E+00  0.00000000E+00
0.00000000E+00  0.00000000E+00  0.00000000E+00
