Zr2C  (n=1)
1.00000000000000
3.4193667299736097  0.0000000000000002  0.0000000000000000
-1.7096833649868044  2.9612584538892550  -0.0000000000000000
-0.0000000000000000  -0.0000000000000000  31.7568135932900866
Zr  C  Br
2  1  2
Selective  dynamics
Direct
-0.0000000000000000  -0.0000000000000000  0.0618975655017119  T  T  T
0.0000000000000000  0.0000000000000000  0.1508698008916765  T  T  T
0.3333333333333357  0.6666666666666643  0.1063836831966941  T  T  T
0.3333333333333357  0.6666666666666643  0.0000000000000000  T  T  T
0.3333333333333357  0.6666666666666643  0.2127673663933883  T  T  T

0.00000000E+00  0.00000000E+00  0.00000000E+00
0.00000000E+00  0.00000000E+00  0.00000000E+00
0.00000000E+00  0.00000000E+00  0.00000000E+00
0.00000000E+00  0.00000000E+00  0.00000000E+00
0.00000000E+00  0.00000000E+00  0.00000000E+00
