Ta2N  (n=1)
1.00000000000000
3.1646477831844133  0.0000000000000000  0.0000000000000000
-1.5823238915922064  2.7406653741376288  0.0000000000000000
0.0000000000000000  0.0000000000000000  31.6849468570672279
Ta  N  Br
2  1  2
Selective  dynamics
Direct
0.0000000000000000  0.0000000000000000  0.0624479249771772  T  T  T
0.0000000000000000  0.0000000000000000  0.1485338666989531  T  T  T
0.3333333333333357  0.6666666666666643  0.1054908958380652  T  T  T
0.3333333333333357  0.6666666666666643  0.0000000000000000  T  T  T
0.3333333333333357  0.6666666666666643  0.2109817916761370  T  T  T

0.00000000E+00  0.00000000E+00  0.00000000E+00
0.00000000E+00  0.00000000E+00  0.00000000E+00
0.00000000E+00  0.00000000E+00  0.00000000E+00
0.00000000E+00  0.00000000E+00  0.00000000E+00
0.00000000E+00  0.00000000E+00  0.00000000E+00
