Ti2C  (n=1)
1.00000000000000
3.2505783471874410  0.0000000000000002  0.0000000000000000
-1.6252891735937205  2.8150834260692479  -0.0000000000000000
-0.0000000000000000  0.0000000000000000  31.2419365044098924
Ti  C  Br
2  1  2
Selective  dynamics
Direct
0.0000000000000000  0.0000000000000000  0.0591662461303523  T  T  T
-0.0000000000000000  -0.0000000000000000  0.1406272751044414  T  T  T
0.3333333333333357  0.6666666666666643  0.0998967606173934  T  T  T
0.3333333333333357  0.6666666666666643  0.0000000000000000  T  T  T
0.3333333333333357  0.6666666666666643  0.1997935212347936  T  T  T

0.00000000E+00  0.00000000E+00  0.00000000E+00
0.00000000E+00  0.00000000E+00  0.00000000E+00
0.00000000E+00  0.00000000E+00  0.00000000E+00
0.00000000E+00  0.00000000E+00  0.00000000E+00
0.00000000E+00  0.00000000E+00  0.00000000E+00
