Sc2C  (n=1)
1.00000000000000
3.4460812205410467  0.0000000000000004  -0.0000000000000000
-1.7230406102705231  2.9843938813259823  0.0000000000000000
-0.0000000000000000  -0.0000000000000000  31.5788146258145872
Sc  C  Br
2  1  2
Selective  dynamics
Direct
-0.0000000000000000  0.0000000000000000  0.0610318630790891  T  T  T
-0.0000000000000000  0.0000000000000000  0.1472981424568645  T  T  T
0.3333333333333357  0.6666666666666643  0.1041650027679733  T  T  T
0.3333333333333357  0.6666666666666643  0.0000000000000000  T  T  T
0.3333333333333357  0.6666666666666643  0.2083300055359467  T  T  T

0.00000000E+00  0.00000000E+00  0.00000000E+00
0.00000000E+00  0.00000000E+00  0.00000000E+00
0.00000000E+00  0.00000000E+00  0.00000000E+00
0.00000000E+00  0.00000000E+00  0.00000000E+00
0.00000000E+00  0.00000000E+00  0.00000000E+00
