Sc2N  (n=1)
1.00000000000000
3.3705020145861995  -0.0000000000000001  0.0000000000000000
-1.6852510072931000  2.9189403687620730  -0.0000000000000000
-0.0000000000000000  0.0000000000000000  31.4880830046823270
Sc  N  Br
2  1  2
Selective  dynamics
Direct
-0.0000000000000000  0.0000000000000000  0.0603579798350197  T  T  T
-0.0000000000000000  0.0000000000000000  0.1456908610460697  T  T  T
0.3333333333333357  0.6666666666666643  0.1030244204405413  T  T  T
0.3333333333333357  0.6666666666666643  0.0000000000000000  T  T  T
0.3333333333333357  0.6666666666666643  0.2060488408810895  T  T  T

0.00000000E+00  0.00000000E+00  0.00000000E+00
0.00000000E+00  0.00000000E+00  0.00000000E+00
0.00000000E+00  0.00000000E+00  0.00000000E+00
0.00000000E+00  0.00000000E+00  0.00000000E+00
0.00000000E+00  0.00000000E+00  0.00000000E+00
