Cr2C  (n=1)
1.00000000000000
3.0616979785389233  -0.0000000000000003  -0.0000000000000000
-1.5308489892694623  2.6515082279684341  0.0000000000000000
0.0000000000000000  -0.0000000000000000  30.9777105576672369
Cr  C  Br
2  1  2
Selective  dynamics
Direct
0.0000000000000000  0.0000000000000000  0.0589327724473387  T  T  T
0.0000000000000000  0.0000000000000000  0.1340353472120950  T  T  T
0.3333333333333357  0.6666666666666643  0.0964840598297168  T  T  T
0.3333333333333357  0.6666666666666643  0.0000000000000000  T  T  T
0.3333333333333357  0.6666666666666643  0.1929681196594338  T  T  T

0.00000000E+00  0.00000000E+00  0.00000000E+00
0.00000000E+00  0.00000000E+00  0.00000000E+00
0.00000000E+00  0.00000000E+00  0.00000000E+00
0.00000000E+00  0.00000000E+00  0.00000000E+00
0.00000000E+00  0.00000000E+00  0.00000000E+00
