Ti2N  (n=1)
1.00000000000000
3.1895065377605785  -0.0000000000000001  0.0000000000000000
-1.5947532688802892  2.7621936874760400  0.0000000000000000
0.0000000000000000  0.0000000000000000  31.2317204063311777
Ti  N  Br
2  1  2
Selective  dynamics
Direct
0.0000000000000000  0.0000000000000000  0.0583517162603068  T  T  T
0.0000000000000000  0.0000000000000000  0.1411800522511745  T  T  T
0.3333333333333357  0.6666666666666643  0.0997658842557406  T  T  T
0.3333333333333357  0.6666666666666643  0.0000000000000000  T  T  T
0.3333333333333357  0.6666666666666643  0.1995317685114749  T  T  T

0.00000000E+00  0.00000000E+00  0.00000000E+00
0.00000000E+00  0.00000000E+00  0.00000000E+00
0.00000000E+00  0.00000000E+00  0.00000000E+00
0.00000000E+00  0.00000000E+00  0.00000000E+00
0.00000000E+00  0.00000000E+00  0.00000000E+00
