Mo2N  (n=1)
1.00000000000000
3.1984965226992954  0.0000000000000006  0.0000000000000000
-1.5992482613496468  2.7699792426947067  0.0000000000000000
0.0000000000000000  0.0000000000000000  31.4164567821755973
Mo  N  Br
2  1  2
Selective  dynamics
Direct
-0.0000000000000000  0.0000000000000000  0.0630196084295497  T  T  T
-0.0000000000000000  0.0000000000000000  0.1412191071793993  T  T  T
0.3333333333333357  0.6666666666666643  0.1021193578044775  T  T  T
0.3333333333333357  0.6666666666666643  0.0000000000000000  T  T  T
0.3333333333333357  0.6666666666666643  0.2042387156089489  T  T  T

0.00000000E+00  0.00000000E+00  0.00000000E+00
0.00000000E+00  0.00000000E+00  0.00000000E+00
0.00000000E+00  0.00000000E+00  0.00000000E+00
0.00000000E+00  0.00000000E+00  0.00000000E+00
0.00000000E+00  0.00000000E+00  0.00000000E+00
