Cr2N  (n=1)
1.00000000000000
3.0819707832595369  0.0000000000000000  0.0000000000000000
-1.5409853916297684  2.6690649918880758  0.0000000000000000
0.0000000000000000  0.0000000000000000  30.9300787074779286
Cr  N  Br
2  1  2
Selective  dynamics
Direct
0.0000000000000000  0.0000000000000000  0.0598547482207708  T  T  T
0.0000000000000000  0.0000000000000000  0.1318705546328630  T  T  T
0.3333333333333357  0.6666666666666643  0.0958626514268168  T  T  T
0.3333333333333357  0.6666666666666643  0.0000000000000000  T  T  T
0.3333333333333357  0.6666666666666643  0.1917253028536336  T  T  T

0.00000000E+00  0.00000000E+00  0.00000000E+00
0.00000000E+00  0.00000000E+00  0.00000000E+00
0.00000000E+00  0.00000000E+00  0.00000000E+00
0.00000000E+00  0.00000000E+00  0.00000000E+00
0.00000000E+00  0.00000000E+00  0.00000000E+00
