Hf2N  (n=1)
1.00000000000000
3.2856143967970737  0.0000000000000001  0.0000000000000000
-1.6428071983985368  2.8454255353529589  0.0000000000000000
0.0000000000000000  0.0000000000000000  31.7297194033469978
Hf  N  Br
2  1  2
Selective  dynamics
Direct
0.0000000000000000  0.0000000000000000  0.0608716343763135  T  T  T
0.0000000000000000  0.0000000000000000  0.1512235095422021  T  T  T
0.3333333333333357  0.6666666666666643  0.1060475719592545  T  T  T
0.3333333333333357  0.6666666666666643  0.0000000000000000  T  T  T
0.3333333333333357  0.6666666666666643  0.2120951439185156  T  T  T

0.00000000E+00  0.00000000E+00  0.00000000E+00
0.00000000E+00  0.00000000E+00  0.00000000E+00
0.00000000E+00  0.00000000E+00  0.00000000E+00
0.00000000E+00  0.00000000E+00  0.00000000E+00
0.00000000E+00  0.00000000E+00  0.00000000E+00
