Mo2N  (n=1)
1.00000000000000
3.1932996245722789  0.0000000000000000  0.0000000000000000
-1.5966498122861394  2.7654785968033035  0.0000000000000000
0.0000000000000000  0.0000000000000000  31.7353139557212529
Mo  N  Te
2  1  2
Selective  dynamics
Direct
-0.0000000000000000  0.0000000000000000  0.0642135625764149  T  T  T
-0.0000000000000000  0.0000000000000000  0.1478365830914654  T  T  T
0.3333333333333357  0.6666666666666643  0.1029803951509284  T  T  T
0.3333333333333357  0.6666666666666643  0.0000000000000000  T  T  T
0.6666666666666643  0.3333333333333357  0.2122340420239330  T  T  T

0.00000000E+00  0.00000000E+00  0.00000000E+00
0.00000000E+00  0.00000000E+00  0.00000000E+00
0.00000000E+00  0.00000000E+00  0.00000000E+00
0.00000000E+00  0.00000000E+00  0.00000000E+00
0.00000000E+00  0.00000000E+00  0.00000000E+00
