Ta2N  (n=1)
1.00000000000000
3.3062110178884621  0.0000000000000000  0.0000000000000000
-1.6531055089442310  2.8632627318077501  0.0000000000000000
0.0000000000000000  0.0000000000000000  31.7715705033448828
Ta  N  Te
2  1  2
Selective  dynamics
Direct
0.0000000000000000  -0.0000000000000000  0.0626425426730484  T  T  T
0.0000000000000000  -0.0000000000000000  0.1499422906774766  T  T  T
0.3333333333333357  0.6666666666666643  0.1055866335858936  T  T  T
0.3333333333333357  0.6666666666666643  0.0000000000000000  T  T  T
0.6666666666666643  0.3333333333333357  0.2131330115592485  T  T  T

0.00000000E+00  0.00000000E+00  0.00000000E+00
0.00000000E+00  0.00000000E+00  0.00000000E+00
0.00000000E+00  0.00000000E+00  0.00000000E+00
0.00000000E+00  0.00000000E+00  0.00000000E+00
0.00000000E+00  0.00000000E+00  0.00000000E+00
