Ti2C  (n=1)
1.00000000000000
3.2602628978171801  0.0000000000000000  0.0000000000000000
-1.6301314489085901  2.8234704925827270  0.0000000000000000
0.0000000000000000  0.0000000000000000  31.8276338430117889
Ti  C  Te
2  1  2
Selective  dynamics
Direct
0.0000000000000000  -0.0000000000000000  0.0684007068746665  T  T  T
0.0000000000000000  -0.0000000000000000  0.1479156091011076  T  T  T
0.3333333333333357  0.6666666666666643  0.1094407911865062  T  T  T
0.3333333333333357  0.6666666666666643  0.0000000000000000  T  T  T
0.6666666666666643  0.3333333333333357  0.2145190521132909  T  T  T

0.00000000E+00  0.00000000E+00  0.00000000E+00
0.00000000E+00  0.00000000E+00  0.00000000E+00
0.00000000E+00  0.00000000E+00  0.00000000E+00
0.00000000E+00  0.00000000E+00  0.00000000E+00
0.00000000E+00  0.00000000E+00  0.00000000E+00
