Cr2C  (n=1)
1.00000000000000
3.1765195546692473  0.0000000000000001  0.0000000000000000
-1.5882597773346236  2.7509466299980301  0.0000000000000000
0.0000000000000000  0.0000000000000000  31.2502448148424321
Cr  C  Te
2  1  2
Selective  dynamics
Direct
0.0000000000000000  0.0000000000000000  0.0607588567946278  T  T  T
-0.0000000000000000  0.0000000000000000  0.1360508099873902  T  T  T
0.3333333333333357  0.6666666666666643  0.0966191988765171  T  T  T
0.3333333333333357  0.6666666666666643  0.0000000000000000  T  T  T
0.6666666666666643  0.3333333333333357  0.2000062672108684  T  T  T

0.00000000E+00  0.00000000E+00  0.00000000E+00
0.00000000E+00  0.00000000E+00  0.00000000E+00
0.00000000E+00  0.00000000E+00  0.00000000E+00
0.00000000E+00  0.00000000E+00  0.00000000E+00
0.00000000E+00  0.00000000E+00  0.00000000E+00
