Ta2C  (n=1)
1.00000000000000
3.3942959122762870  -0.0000000000000007  0.0000000000000001
-1.6971479561381433  2.9395464880662918  -0.0000000000000001
0.0000000000000009  -0.0000000000000002  31.6593915157161021
Ta  C  Te
2  1  2
Selective  dynamics
Direct
0.0000000000000000  -0.0000000000000000  0.0630543384940911  T  T  T
0.0000000000000000  0.0000000000000000  0.1474519199094242  T  T  T
0.3333333333333357  0.6666666666666643  0.1063977703930734  T  T  T
0.3333333333333357  0.6666666666666643  0.0000000000000000  T  T  T
0.6666666666666643  0.3333333333333357  0.2103448991560782  T  T  T

0.00000000E+00  0.00000000E+00  0.00000000E+00
0.00000000E+00  0.00000000E+00  0.00000000E+00
0.00000000E+00  0.00000000E+00  0.00000000E+00
0.00000000E+00  0.00000000E+00  0.00000000E+00
0.00000000E+00  0.00000000E+00  0.00000000E+00
