Sc2C  (n=1)
1.00000000000000
3.3685307591632303  0.0000000000000000  0.0000000000000000
-1.6842653795816152  2.9172332109694219  0.0000000000000000
0.0000000000000000  0.0000000000000000  32.3939408663713024
Sc  C  Te
2  1  2
Selective  dynamics
Direct
-0.0000000000000000  0.0000000000000000  0.0737505149141357  T  T  T
-0.0000000000000000  0.0000000000000000  0.1560306099088739  T  T  T
0.3333333333333357  0.6666666666666643  0.1153748162514091  T  T  T
0.3333333333333357  0.6666666666666643  0.0000000000000000  T  T  T
0.6666666666666643  0.3333333333333357  0.2282507366693096  T  T  T

0.00000000E+00  0.00000000E+00  0.00000000E+00
0.00000000E+00  0.00000000E+00  0.00000000E+00
0.00000000E+00  0.00000000E+00  0.00000000E+00
0.00000000E+00  0.00000000E+00  0.00000000E+00
0.00000000E+00  0.00000000E+00  0.00000000E+00
