Hf2N  (n=1)
1.00000000000000
3.4096613405431802  0.0000000000000000  0.0000000000000000
-1.7048306702715901  2.9528533392916438  0.0000000000000000
0.0000000000000000  0.0000000000000000  32.0088414044309388
Hf  N  Te
2  1  2
Selective  dynamics
Direct
0.0000000000000000  -0.0000000000000000  0.0659010967342478  T  T  T
0.0000000000000000  -0.0000000000000000  0.1536823697571026  T  T  T
0.3333333333333357  0.6666666666666643  0.1135311556084505  T  T  T
0.3333333333333357  0.6666666666666643  0.0000000000000000  T  T  T
0.6666666666666643  0.3333333333333357  0.2189657949775312  T  T  T

0.00000000E+00  0.00000000E+00  0.00000000E+00
0.00000000E+00  0.00000000E+00  0.00000000E+00
0.00000000E+00  0.00000000E+00  0.00000000E+00
0.00000000E+00  0.00000000E+00  0.00000000E+00
0.00000000E+00  0.00000000E+00  0.00000000E+00
