Zr2C  (n=1)
1.00000000000000
3.4576868636666442  0.0000000000000000  0.0000000000000000
-1.7288434318333221  2.9944446623836192  0.0000000000000000
0.0000000000000000  0.0000000000000000  32.2117616418138297
Zr  C  Te
2  1  2
Selective  dynamics
Direct
-0.0000000000000000  -0.0000000000000000  0.0685576861750922  T  T  T
-0.0000000000000000  -0.0000000000000000  0.1566926159223657  T  T  T
0.3333333333333357  0.6666666666666643  0.1142675355251566  T  T  T
0.3333333333333357  0.6666666666666643  0.0000000000000000  T  T  T
0.6666666666666643  0.3333333333333357  0.2238859743843472  T  T  T

0.00000000E+00  0.00000000E+00  0.00000000E+00
0.00000000E+00  0.00000000E+00  0.00000000E+00
0.00000000E+00  0.00000000E+00  0.00000000E+00
0.00000000E+00  0.00000000E+00  0.00000000E+00
0.00000000E+00  0.00000000E+00  0.00000000E+00
