Sc2N  (n=1)
1.00000000000000
3.3506312219642136  0.0000000000000000  0.0000000000000000
-1.6753156109821068  2.9017317570215320  0.0000000000000000
0.0000000000000000  0.0000000000000000  32.1599763450194303
Sc  N  Te
2  1  2
Selective  dynamics
Direct
0.0000000000000000  0.0000000000000000  0.0697355822702841  T  T  T
0.0000000000000000  0.0000000000000000  0.1532284312102205  T  T  T
0.3333333333333357  0.6666666666666643  0.1133595916485618  T  T  T
0.3333333333333357  0.6666666666666643  0.0000000000000000  T  T  T
0.6666666666666643  0.3333333333333357  0.2226362441379184  T  T  T

0.00000000E+00  0.00000000E+00  0.00000000E+00
0.00000000E+00  0.00000000E+00  0.00000000E+00
0.00000000E+00  0.00000000E+00  0.00000000E+00
0.00000000E+00  0.00000000E+00  0.00000000E+00
0.00000000E+00  0.00000000E+00  0.00000000E+00
