Mo2C  (n=1)
1.00000000000000
3.2139034864110525  0.0000000000000000  0.0000000000000000
-1.6069517432055263  2.7833220645754682  0.0000000000000000
0.0000000000000000  0.0000000000000000  31.7240920768366870
Mo  C  Te
2  1  2
Selective  dynamics
Direct
0.0000000000000000  0.0000000000000000  0.0627467019704744  T  T  T
0.0000000000000000  0.0000000000000000  0.1476614258828287  T  T  T
0.3333333333333357  0.6666666666666643  0.1037782986456633  T  T  T
0.3333333333333357  0.6666666666666643  0.0000000000000000  T  T  T
0.6666666666666643  0.3333333333333357  0.2119553826962404  T  T  T

0.00000000E+00  0.00000000E+00  0.00000000E+00
0.00000000E+00  0.00000000E+00  0.00000000E+00
0.00000000E+00  0.00000000E+00  0.00000000E+00
0.00000000E+00  0.00000000E+00  0.00000000E+00
0.00000000E+00  0.00000000E+00  0.00000000E+00
