Zr2N  (n=1)
1.00000000000000
3.4506110200189579  0.0000000000000000  0.0000000000000000
-1.7253055100094790  2.9883168020052113  0.0000000000000000
0.0000000000000000  0.0000000000000000  32.0712424122334596
Zr  N  Te
2  1  2
Selective  dynamics
Direct
-0.0000000000000000  -0.0000000000000000  0.0664979912643133  T  T  T
-0.0000000000000000  -0.0000000000000000  0.1543667380554491  T  T  T
0.3333333333333357  0.6666666666666643  0.1138235689763890  T  T  T
0.3333333333333357  0.6666666666666643  0.0000000000000000  T  T  T
0.6666666666666643  0.3333333333333357  0.2204854530218062  T  T  T

0.00000000E+00  0.00000000E+00  0.00000000E+00
0.00000000E+00  0.00000000E+00  0.00000000E+00
0.00000000E+00  0.00000000E+00  0.00000000E+00
0.00000000E+00  0.00000000E+00  0.00000000E+00
0.00000000E+00  0.00000000E+00  0.00000000E+00
