Hf2C  (n=1)
1.00000000000000
3.4322987473861537  0.0000000000000000  0.0000000000000000
-1.7161493736930769  2.9724579087166321  0.0000000000000000
0.0000000000000000  0.0000000000000000  32.0993282871980270
Hf  C  Te
2  1  2
Selective  dynamics
Direct
0.0000000000000000  0.0000000000000000  0.0678225867271066  T  T  T
-0.0000000000000000  0.0000000000000000  0.1546376421058309  T  T  T
0.3333333333333357  0.6666666666666643  0.1130494575439598  T  T  T
0.3333333333333357  0.6666666666666643  0.0000000000000000  T  T  T
0.6666666666666643  0.3333333333333357  0.2211675030604738  T  T  T

0.00000000E+00  0.00000000E+00  0.00000000E+00
0.00000000E+00  0.00000000E+00  0.00000000E+00
0.00000000E+00  0.00000000E+00  0.00000000E+00
0.00000000E+00  0.00000000E+00  0.00000000E+00
0.00000000E+00  0.00000000E+00  0.00000000E+00
