Ti2N  (n=1)
1.00000000000000
3.2854046275174156  0.0000000000000000  0.0000000000000000
-1.6427023137587078  2.8452438691771165  0.0000000000000000
0.0000000000000000  0.0000000000000000  31.5503085758415374
Ti  N  Te
2  1  2
Selective  dynamics
Direct
0.0000000000000000  -0.0000000000000000  0.0645806589976052  T  T  T
-0.0000000000000000  -0.0000000000000000  0.1432167857437628  T  T  T
0.3333333333333357  0.6666666666666643  0.1060636604975372  T  T  T
0.3333333333333357  0.6666666666666643  0.0000000000000000  T  T  T
0.6666666666666643  0.3333333333333357  0.2076147230096250  T  T  T

0.00000000E+00  0.00000000E+00  0.00000000E+00
0.00000000E+00  0.00000000E+00  0.00000000E+00
0.00000000E+00  0.00000000E+00  0.00000000E+00
0.00000000E+00  0.00000000E+00  0.00000000E+00
0.00000000E+00  0.00000000E+00  0.00000000E+00
