Nb2N  (n=1)
1.00000000000000
3.3204081748101379  0.0000000000000000  0.0000000000000000
-1.6602040874050690  2.8755578303707692  0.0000000000000000
0.0000000000000000  0.0000000000000000  31.7815624281665201
Nb  N  Te
2  1  2
Selective  dynamics
Direct
-0.0000000000000000  -0.0000000000000000  0.0632720601222001  T  T  T
-0.0000000000000000  -0.0000000000000000  0.1498441905327486  T  T  T
0.3333333333333357  0.6666666666666643  0.1058898858249507  T  T  T
0.3333333333333357  0.6666666666666643  0.0000000000000000  T  T  T
0.6666666666666643  0.3333333333333357  0.2133803976281650  T  T  T

0.00000000E+00  0.00000000E+00  0.00000000E+00
0.00000000E+00  0.00000000E+00  0.00000000E+00
0.00000000E+00  0.00000000E+00  0.00000000E+00
0.00000000E+00  0.00000000E+00  0.00000000E+00
0.00000000E+00  0.00000000E+00  0.00000000E+00
