Nb2C  (n=1)
1.00000000000000
3.3945712156477126  0.0000000000000000  0.0000000000000000
-1.6972856078238563  2.9397849077681815  0.0000000000000000
0.0000000000000000  0.0000000000000000  31.6997834381977697
Nb  C  Te
2  1  2
Selective  dynamics
Direct
0.0000000000000000  -0.0000000000000000  0.0635220492511756  T  T  T
0.0000000000000000  -0.0000000000000000  0.1479672742468109  T  T  T
0.3333333333333357  0.6666666666666643  0.1064204445797638  T  T  T
0.3333333333333357  0.6666666666666643  0.0000000000000000  T  T  T
0.6666666666666643  0.3333333333333357  0.2113510791409582  T  T  T

0.00000000E+00  0.00000000E+00  0.00000000E+00
0.00000000E+00  0.00000000E+00  0.00000000E+00
0.00000000E+00  0.00000000E+00  0.00000000E+00
0.00000000E+00  0.00000000E+00  0.00000000E+00
0.00000000E+00  0.00000000E+00  0.00000000E+00
