Cr2N  (n=1)
1.00000000000000
3.1340041891703754  0.0000000000000000  0.0000000000000000
-1.5670020945851877  2.7141272434371664  0.0000000000000000
0.0000000000000000  0.0000000000000000  31.3402162433054805
Cr  N  Te
2  1  2
Selective  dynamics
Direct
-0.0000000000000000  -0.0000000000000000  0.0610397774124825  T  T  T
0.0000000000000000  0.0000000000000000  0.1337327821243551  T  T  T
0.3333333333333357  0.6666666666666643  0.1027441821974300  T  T  T
0.3333333333333357  0.6666666666666643  0.0000000000000000  T  T  T
0.6666666666666643  0.3333333333333357  0.2023028875769101  T  T  T

0.00000000E+00  0.00000000E+00  0.00000000E+00
0.00000000E+00  0.00000000E+00  0.00000000E+00
0.00000000E+00  0.00000000E+00  0.00000000E+00
0.00000000E+00  0.00000000E+00  0.00000000E+00
0.00000000E+00  0.00000000E+00  0.00000000E+00
