Cr4N3  (n=3)
1.00000000000000
3.0928523594355499  0.0000000000000000  0.0000000000000000
-1.5464261797177747  2.6784887134415265  0.0000000000000000
-0.0000000000000001  0.0000000000000008  35.4513114354493766
Cr  N  Te
4  3  2
Selective  dynamics
Direct
0.0000000000000000  0.0000000000000000  0.0604474410842564  T  T  T
0.6666666666666643  0.3333333333333357  0.1166616261828008  T  T  T
0.3333333333333357  0.6666666666666643  0.1781458439013442  T  T  T
-0.0000000000000000  -0.0000000000000000  0.2343600289998808  T  T  T
0.3333333333333357  0.6666666666666643  0.0816052249789588  T  T  T
-0.0000000000000000  -0.0000000000000000  0.1474037350420726  T  T  T
0.6666666666666643  0.3333333333333357  0.2132022451051781  T  T  T
0.6666666666666643  0.3333333333333357  0.0000000000000000  T  T  T
0.3333333333333357  0.6666666666666643  0.2948074700841289  T  T  T

0.00000000E+00  0.00000000E+00  0.00000000E+00
0.00000000E+00  0.00000000E+00  0.00000000E+00
0.00000000E+00  0.00000000E+00  0.00000000E+00
0.00000000E+00  0.00000000E+00  0.00000000E+00
0.00000000E+00  0.00000000E+00  0.00000000E+00
0.00000000E+00  0.00000000E+00  0.00000000E+00
0.00000000E+00  0.00000000E+00  0.00000000E+00
0.00000000E+00  0.00000000E+00  0.00000000E+00
0.00000000E+00  0.00000000E+00  0.00000000E+00
