Mo4N3  (n=3)
1.00000000000000
3.2172654072932190  0.0000000000000000  0.0000000000000000
-1.6086327036466095  2.7862335735460055  -0.0000000000000001
0.0000000000000002  -0.0000000000000002  36.1783548287265546
Mo  N  Te
4  3  2
Selective  dynamics
Direct
-0.0000000000000000  -0.0000000000000000  0.0583011839002649  T  T  T
0.6666666666666643  0.3333333333333357  0.1252785379943207  T  T  T
0.3333333333333357  0.6666666666666643  0.1837005430514117  T  T  T
0.0000000000000000  -0.0000000000000000  0.2506778971454677  T  T  T
0.3333333333333357  0.6666666666666643  0.0898961955140213  T  T  T
0.0000000000000000  -0.0000000000000000  0.1544895405228740  T  T  T
0.6666666666666643  0.3333333333333357  0.2190828855317061  T  T  T
0.6666666666666643  0.3333333333333357  0.0000000000000000  T  T  T
0.3333333333333357  0.6666666666666643  0.3089790810457377  T  T  T

0.00000000E+00  0.00000000E+00  0.00000000E+00
0.00000000E+00  0.00000000E+00  0.00000000E+00
0.00000000E+00  0.00000000E+00  0.00000000E+00
0.00000000E+00  0.00000000E+00  0.00000000E+00
0.00000000E+00  0.00000000E+00  0.00000000E+00
0.00000000E+00  0.00000000E+00  0.00000000E+00
0.00000000E+00  0.00000000E+00  0.00000000E+00
0.00000000E+00  0.00000000E+00  0.00000000E+00
0.00000000E+00  0.00000000E+00  0.00000000E+00
