Ta4N3  (n=3)
1.00000000000000
3.2913065898291500  0.0000000000000000  0.0000000000000000
-1.6456532949145748  2.8503551185502340  0.0000000000000000
-0.0000000000000002  -0.0000000000000001  36.2740156358738588
Ta  N  Te
4  3  2
Selective  dynamics
Direct
0.0000000000000000  0.0000000000000000  0.0581675112240025  T  T  T
0.6666666666666643  0.3333333333333357  0.1197288192626173  T  T  T
0.3333333333333357  0.6666666666666643  0.1910726025883592  T  T  T
-0.0000000000000000  -0.0000000000000000  0.2526339106269659  T  T  T
0.3333333333333357  0.6666666666666643  0.0880778678496659  T  T  T
-0.0000000000000000  0.0000000000000000  0.1554007109254842  T  T  T
0.6666666666666643  0.3333333333333357  0.2227235540012946  T  T  T
0.6666666666666643  0.3333333333333357  0.0000000000000000  T  T  T
0.3333333333333357  0.6666666666666643  0.3108014218509685  T  T  T

0.00000000E+00  0.00000000E+00  0.00000000E+00
0.00000000E+00  0.00000000E+00  0.00000000E+00
0.00000000E+00  0.00000000E+00  0.00000000E+00
0.00000000E+00  0.00000000E+00  0.00000000E+00
0.00000000E+00  0.00000000E+00  0.00000000E+00
0.00000000E+00  0.00000000E+00  0.00000000E+00
0.00000000E+00  0.00000000E+00  0.00000000E+00
0.00000000E+00  0.00000000E+00  0.00000000E+00
0.00000000E+00  0.00000000E+00  0.00000000E+00
