Nb4C3  (n=3)
1.00000000000000
3.2893015017739913  -0.0000000000000001  -0.0000000000000000
-1.6446507508869956  2.8486186614673605  0.0000000000000000
-0.0000000000000002  0.0000000000000004  36.7205759075205975
Nb  C  Te
4  3  2
Selective  dynamics
Direct
-0.0000000000000000  0.0000000000000000  0.0586459626324396  T  T  T
0.6666666666666643  0.3333333333333357  0.1233984947433848  T  T  T
0.3333333333333357  0.6666666666666643  0.1957842963173663  T  T  T
0.0000000000000000  -0.0000000000000000  0.2605368284283115  T  T  T
0.3333333333333357  0.6666666666666643  0.0897033892985435  T  T  T
0.0000000000000000  -0.0000000000000000  0.1595913955303796  T  T  T
0.6666666666666643  0.3333333333333357  0.2294794017621996  T  T  T
0.6666666666666643  0.3333333333333357  0.0000000000000000  T  T  T
0.3333333333333357  0.6666666666666643  0.3191827910607511  T  T  T

0.00000000E+00  0.00000000E+00  0.00000000E+00
0.00000000E+00  0.00000000E+00  0.00000000E+00
0.00000000E+00  0.00000000E+00  0.00000000E+00
0.00000000E+00  0.00000000E+00  0.00000000E+00
0.00000000E+00  0.00000000E+00  0.00000000E+00
0.00000000E+00  0.00000000E+00  0.00000000E+00
0.00000000E+00  0.00000000E+00  0.00000000E+00
0.00000000E+00  0.00000000E+00  0.00000000E+00
0.00000000E+00  0.00000000E+00  0.00000000E+00
