Sc4N3  (n=3)
1.00000000000000
3.2873468641761217  0.0000000000000000  0.0000000000000000
-1.6436734320880608  2.8469258958175891  -0.0000000000000001
0.0000000000000000  0.0000000000000000  37.0824563788938235
Sc  N  Te
4  3  2
Selective  dynamics
Direct
-0.0000000000000000  0.0000000000000000  0.0619695297141851  T  T  T
0.6666666666666643  0.3333333333333357  0.1293479817259428  T  T  T
0.3333333333333357  0.6666666666666643  0.1964787719130310  T  T  T
-0.0000000000000000  -0.0000000000000000  0.2638572239247887  T  T  T
0.3333333333333357  0.6666666666666643  0.0917599978961466  T  T  T
-0.0000000000000000  -0.0000000000000000  0.1629133768194868  T  T  T
0.6666666666666643  0.3333333333333357  0.2340667557428272  T  T  T
0.6666666666666643  0.3333333333333357  0.0000000000000000  T  T  T
0.3333333333333357  0.6666666666666643  0.3258267536389737  T  T  T

0.00000000E+00  0.00000000E+00  0.00000000E+00
0.00000000E+00  0.00000000E+00  0.00000000E+00
0.00000000E+00  0.00000000E+00  0.00000000E+00
0.00000000E+00  0.00000000E+00  0.00000000E+00
0.00000000E+00  0.00000000E+00  0.00000000E+00
0.00000000E+00  0.00000000E+00  0.00000000E+00
0.00000000E+00  0.00000000E+00  0.00000000E+00
0.00000000E+00  0.00000000E+00  0.00000000E+00
0.00000000E+00  0.00000000E+00  0.00000000E+00
