Zr4N3  (n=3)
1.00000000000000
3.3736960693032234  0.0000000000000000  0.0000000000000000
-1.6868480346516117  2.9217065009143837  0.0000000000000000
0.0000000000000001  -0.0000000000000004  37.0455330130439648
Zr  N  Te
4  3  2
Selective  dynamics
Direct
0.0000000000000000  -0.0000000000000000  0.0601610703430445  T  T  T
0.6666666666666643  0.3333333333333357  0.1267927129971057  T  T  T
0.3333333333333357  0.6666666666666643  0.1983620906549935  T  T  T
-0.0000000000000000  0.0000000000000000  0.2649937333090628  T  T  T
0.3333333333333357  0.6666666666666643  0.0929305860278493  T  T  T
0.0000000000000000  -0.0000000000000000  0.1625774018260496  T  T  T
0.6666666666666643  0.3333333333333357  0.2322242176242579  T  T  T
0.6666666666666643  0.3333333333333357  0.0000000000000000  T  T  T
0.3333333333333357  0.6666666666666643  0.3251548036521072  T  T  T

0.00000000E+00  0.00000000E+00  0.00000000E+00
0.00000000E+00  0.00000000E+00  0.00000000E+00
0.00000000E+00  0.00000000E+00  0.00000000E+00
0.00000000E+00  0.00000000E+00  0.00000000E+00
0.00000000E+00  0.00000000E+00  0.00000000E+00
0.00000000E+00  0.00000000E+00  0.00000000E+00
0.00000000E+00  0.00000000E+00  0.00000000E+00
0.00000000E+00  0.00000000E+00  0.00000000E+00
0.00000000E+00  0.00000000E+00  0.00000000E+00
