Zr4C3  (n=3)
1.00000000000000
3.4181240443423269  0.0000000000000000  0.0000000000000000
-1.7090620221711634  2.9601822559519588  0.0000000000000000
0.0000000000000000  0.0000000000000004  37.3593119071568722
Zr  C  Te
4  3  2
Selective  dynamics
Direct
-0.0000000000000000  -0.0000000000000000  0.0605232813735498  T  T  T
0.6666666666666643  0.3333333333333357  0.1304332035051066  T  T  T
0.3333333333333357  0.6666666666666643  0.2003895894272635  T  T  T
0.0000000000000000  -0.0000000000000000  0.2702995115588120  T  T  T
0.3333333333333357  0.6666666666666643  0.0915283901049157  T  T  T
0.0000000000000000  -0.0000000000000000  0.1654113964661810  T  T  T
0.6666666666666643  0.3333333333333357  0.2392944028274545  T  T  T
0.6666666666666643  0.3333333333333357  0.0000000000000000  T  T  T
0.3333333333333357  0.6666666666666643  0.3308227929323617  T  T  T

0.00000000E+00  0.00000000E+00  0.00000000E+00
0.00000000E+00  0.00000000E+00  0.00000000E+00
0.00000000E+00  0.00000000E+00  0.00000000E+00
0.00000000E+00  0.00000000E+00  0.00000000E+00
0.00000000E+00  0.00000000E+00  0.00000000E+00
0.00000000E+00  0.00000000E+00  0.00000000E+00
0.00000000E+00  0.00000000E+00  0.00000000E+00
0.00000000E+00  0.00000000E+00  0.00000000E+00
0.00000000E+00  0.00000000E+00  0.00000000E+00
