Cr4C3  (n=3)
1.00000000000000
3.1324538379552225  0.0000000000000000  0.0000000000000000
-1.5662269189776112  2.7127845998430571  0.0000000000000001
-0.0000000000000001  0.0000000000000011  35.2780752409191294
Cr  C  Te
4  3  2
Selective  dynamics
Direct
-0.0000000000000000  -0.0000000000000000  0.0593456824033506  T  T  T
0.6666666666666643  0.3333333333333357  0.1167764236231429  T  T  T
0.3333333333333357  0.6666666666666643  0.1745681344551719  T  T  T
0.0000000000000000  0.0000000000000000  0.2319988756749566  T  T  T
0.3333333333333357  0.6666666666666643  0.0812184914411851  T  T  T
0.0000000000000000  0.0000000000000000  0.1456722790391574  T  T  T
0.6666666666666643  0.3333333333333357  0.2101260666371221  T  T  T
0.6666666666666643  0.3333333333333357  0.0000000000000000  T  T  T
0.3333333333333357  0.6666666666666643  0.2913445580783149  T  T  T

0.00000000E+00  0.00000000E+00  0.00000000E+00
0.00000000E+00  0.00000000E+00  0.00000000E+00
0.00000000E+00  0.00000000E+00  0.00000000E+00
0.00000000E+00  0.00000000E+00  0.00000000E+00
0.00000000E+00  0.00000000E+00  0.00000000E+00
0.00000000E+00  0.00000000E+00  0.00000000E+00
0.00000000E+00  0.00000000E+00  0.00000000E+00
0.00000000E+00  0.00000000E+00  0.00000000E+00
0.00000000E+00  0.00000000E+00  0.00000000E+00
