Ti4N3  (n=3)
1.00000000000000
3.1544020984417602  0.0000000000000000  0.0000000000000000
-1.5772010492208806  2.7317923510703919  -0.0000000000000001
0.0000000000000001  0.0000000000000014  36.2258369515424903
Ti  N  Te
4  3  2
Selective  dynamics
Direct
-0.0000000000000000  0.0000000000000000  0.0596994754423837  T  T  T
0.6666666666666643  0.3333333333333357  0.1212881129020200  T  T  T
0.3333333333333357  0.6666666666666643  0.1885967067795442  T  T  T
0.0000000000000000  0.0000000000000000  0.2501853442391803  T  T  T
0.3333333333333357  0.6666666666666643  0.0889466788497451  T  T  T
0.0000000000000000  0.0000000000000000  0.1549424098407862  T  T  T
0.6666666666666643  0.3333333333333357  0.2209381408318107  T  T  T
0.6666666666666643  0.3333333333333357  0.0000000000000000  T  T  T
0.3333333333333357  0.6666666666666643  0.3098848196815642  T  T  T

0.00000000E+00  0.00000000E+00  0.00000000E+00
0.00000000E+00  0.00000000E+00  0.00000000E+00
0.00000000E+00  0.00000000E+00  0.00000000E+00
0.00000000E+00  0.00000000E+00  0.00000000E+00
0.00000000E+00  0.00000000E+00  0.00000000E+00
0.00000000E+00  0.00000000E+00  0.00000000E+00
0.00000000E+00  0.00000000E+00  0.00000000E+00
0.00000000E+00  0.00000000E+00  0.00000000E+00
0.00000000E+00  0.00000000E+00  0.00000000E+00
