Ti4C3  (n=3)
1.00000000000000
3.1967054035098936  0.0000000000000000  0.0000000000000000
-1.5983527017549470  2.7684280879710159  0.0000000000000000
0.0000000000000000  -0.0000000000000011  36.4466794723221241
Ti  C  Te
4  3  2
Selective  dynamics
Direct
-0.0000000000000000  -0.0000000000000000  0.0603675373620037  T  T  T
0.6666666666666643  0.3333333333333357  0.1248123748054906  T  T  T
0.3333333333333357  0.6666666666666643  0.1892540816741680  T  T  T
0.0000000000000000  -0.0000000000000000  0.2536989191176469  T  T  T
0.3333333333333357  0.6666666666666643  0.0882365299141406  T  T  T
0.0000000000000000  -0.0000000000000000  0.1570332282398252  T  T  T
0.6666666666666643  0.3333333333333357  0.2258299265655101  T  T  T
0.6666666666666643  0.3333333333333357  0.0000000000000000  T  T  T
0.3333333333333357  0.6666666666666643  0.3140664564796586  T  T  T

0.00000000E+00  0.00000000E+00  0.00000000E+00
0.00000000E+00  0.00000000E+00  0.00000000E+00
0.00000000E+00  0.00000000E+00  0.00000000E+00
0.00000000E+00  0.00000000E+00  0.00000000E+00
0.00000000E+00  0.00000000E+00  0.00000000E+00
0.00000000E+00  0.00000000E+00  0.00000000E+00
0.00000000E+00  0.00000000E+00  0.00000000E+00
0.00000000E+00  0.00000000E+00  0.00000000E+00
0.00000000E+00  0.00000000E+00  0.00000000E+00
