Nb4N3  (n=3)
1.00000000000000
3.2984691898472103  -0.0000000000000001  0.0000000000000000
-1.6492345949236051  2.8565581121775163  0.0000000000000000
0.0000000000000001  0.0000000000000000  36.3945749832299015
Nb  N  Te
4  3  2
Selective  dynamics
Direct
0.0000000000000000  0.0000000000000000  0.0587040597836808  T  T  T
0.6666666666666643  0.3333333333333357  0.1204974722062187  T  T  T
0.3333333333333357  0.6666666666666643  0.1925869638252523  T  T  T
-0.0000000000000000  0.0000000000000000  0.2543803762477901  T  T  T
0.3333333333333357  0.6666666666666643  0.0882568531217227  T  T  T
0.0000000000000000  -0.0000000000000000  0.1565422180157355  T  T  T
0.6666666666666643  0.3333333333333357  0.2248275829097404  T  T  T
0.6666666666666643  0.3333333333333357  0.0000000000000000  T  T  T
0.3333333333333357  0.6666666666666643  0.3130844360314787  T  T  T

0.00000000E+00  0.00000000E+00  0.00000000E+00
0.00000000E+00  0.00000000E+00  0.00000000E+00
0.00000000E+00  0.00000000E+00  0.00000000E+00
0.00000000E+00  0.00000000E+00  0.00000000E+00
0.00000000E+00  0.00000000E+00  0.00000000E+00
0.00000000E+00  0.00000000E+00  0.00000000E+00
0.00000000E+00  0.00000000E+00  0.00000000E+00
0.00000000E+00  0.00000000E+00  0.00000000E+00
0.00000000E+00  0.00000000E+00  0.00000000E+00
