Mo4C3  (n=3)
1.00000000000000
3.2113404131118206  0.0000000000000000  0.0000000000000000
-1.6056702065559103  2.7811023780995900  0.0000000000000000
-0.0000000000000001  0.0000000000000002  36.5425681984573316
Mo  C  Te
4  3  2
Selective  dynamics
Direct
-0.0000000000000000  0.0000000000000000  0.0624843303932325  T  T  T
0.6666666666666643  0.3333333333333357  0.1221237371420897  T  T  T
0.3333333333333357  0.6666666666666643  0.1937426282368193  T  T  T
0.0000000000000000  -0.0000000000000000  0.2533820349856685  T  T  T
0.3333333333333357  0.6666666666666643  0.0883365701206592  T  T  T
-0.0000000000000000  0.0000000000000000  0.1579331826894505  T  T  T
0.6666666666666643  0.3333333333333357  0.2275297952582419  T  T  T
0.6666666666666643  0.3333333333333357  0.0000000000000000  T  T  T
0.3333333333333357  0.6666666666666643  0.3158663653789011  T  T  T

0.00000000E+00  0.00000000E+00  0.00000000E+00
0.00000000E+00  0.00000000E+00  0.00000000E+00
0.00000000E+00  0.00000000E+00  0.00000000E+00
0.00000000E+00  0.00000000E+00  0.00000000E+00
0.00000000E+00  0.00000000E+00  0.00000000E+00
0.00000000E+00  0.00000000E+00  0.00000000E+00
0.00000000E+00  0.00000000E+00  0.00000000E+00
0.00000000E+00  0.00000000E+00  0.00000000E+00
0.00000000E+00  0.00000000E+00  0.00000000E+00
