Hf4C3  (n=3)
1.00000000000000
3.3724139349883044  0.0000000000000000  0.0000000000000000
-1.6862069674941522  2.9205961400378584  -0.0000000000000001
-0.0000000000000003  0.0000000000000017  37.1874448337150341
Hf  C  Te
4  3  2
Selective  dynamics
Direct
-0.0000000000000000  -0.0000000000000000  0.0602608139812871  T  T  T
0.6666666666666643  0.3333333333333357  0.1293278117565316  T  T  T
0.3333333333333357  0.6666666666666643  0.1984022833928290  T  T  T
0.0000000000000000  0.0000000000000000  0.2674692811680816  T  T  T
0.3333333333333357  0.6666666666666643  0.0908119796268965  T  T  T
0.0000000000000000  -0.0000000000000000  0.1638650475746843  T  T  T
0.6666666666666643  0.3333333333333357  0.2369181155224557  T  T  T
0.6666666666666643  0.3333333333333357  0.0000000000000000  T  T  T
0.3333333333333357  0.6666666666666643  0.3277300951493607  T  T  T

0.00000000E+00  0.00000000E+00  0.00000000E+00
0.00000000E+00  0.00000000E+00  0.00000000E+00
0.00000000E+00  0.00000000E+00  0.00000000E+00
0.00000000E+00  0.00000000E+00  0.00000000E+00
0.00000000E+00  0.00000000E+00  0.00000000E+00
0.00000000E+00  0.00000000E+00  0.00000000E+00
0.00000000E+00  0.00000000E+00  0.00000000E+00
0.00000000E+00  0.00000000E+00  0.00000000E+00
0.00000000E+00  0.00000000E+00  0.00000000E+00
