Ta4C3  (n=3)
1.00000000000000
3.2848168175703991  -0.0000000000000001  0.0000000000000000
-1.6424084087851998  2.8447348111218025  0.0000000000000000
-0.0000000000000003  -0.0000000000000005  36.5973236507888657
Ta  C  Te
4  3  2
Selective  dynamics
Direct
-0.0000000000000000  -0.0000000000000000  0.0581182402768410  T  T  T
0.6666666666666643  0.3333333333333357  0.1224481895222791  T  T  T
0.3333333333333357  0.6666666666666643  0.1944417492462047  T  T  T
0.0000000000000000  0.0000000000000000  0.2587716984916428  T  T  T
0.3333333333333357  0.6666666666666643  0.0890462787747243  T  T  T
0.0000000000000000  -0.0000000000000000  0.1584449693842380  T  T  T
0.6666666666666643  0.3333333333333357  0.2278436599937518  T  T  T
0.6666666666666643  0.3333333333333357  0.0000000000000000  T  T  T
0.3333333333333357  0.6666666666666643  0.3168899387684839  T  T  T

0.00000000E+00  0.00000000E+00  0.00000000E+00
0.00000000E+00  0.00000000E+00  0.00000000E+00
0.00000000E+00  0.00000000E+00  0.00000000E+00
0.00000000E+00  0.00000000E+00  0.00000000E+00
0.00000000E+00  0.00000000E+00  0.00000000E+00
0.00000000E+00  0.00000000E+00  0.00000000E+00
0.00000000E+00  0.00000000E+00  0.00000000E+00
0.00000000E+00  0.00000000E+00  0.00000000E+00
0.00000000E+00  0.00000000E+00  0.00000000E+00
