Hf4N3  (n=3)
1.00000000000000
3.3278604970163839  -0.0000000000000001  -0.0000000000000001
-1.6639302485081919  2.8820117311873732  0.0000000000000000
-0.0000000000000003  -0.0000000000000012  36.8422811404376915
Hf  N  Te
4  3  2
Selective  dynamics
Direct
0.0000000000000000  0.0000000000000000  0.0592765070320625  T  T  T
0.6666666666666643  0.3333333333333357  0.1251519302506663  T  T  T
0.3333333333333357  0.6666666666666643  0.1962798805347883  T  T  T
0.0000000000000000  0.0000000000000000  0.2621553037533848  T  T  T
0.3333333333333357  0.6666666666666643  0.0920361121774477  T  T  T
0.0000000000000000  0.0000000000000000  0.1607159053927237  T  T  T
0.6666666666666643  0.3333333333333357  0.2293956986079923  T  T  T
0.6666666666666643  0.3333333333333357  0.0000000000000000  T  T  T
0.3333333333333357  0.6666666666666643  0.3214318107854547  T  T  T

0.00000000E+00  0.00000000E+00  0.00000000E+00
0.00000000E+00  0.00000000E+00  0.00000000E+00
0.00000000E+00  0.00000000E+00  0.00000000E+00
0.00000000E+00  0.00000000E+00  0.00000000E+00
0.00000000E+00  0.00000000E+00  0.00000000E+00
0.00000000E+00  0.00000000E+00  0.00000000E+00
0.00000000E+00  0.00000000E+00  0.00000000E+00
0.00000000E+00  0.00000000E+00  0.00000000E+00
0.00000000E+00  0.00000000E+00  0.00000000E+00
