Sc4C3  (n=3)
1.00000000000000
3.3451438922820018  0.0000000000000001  0.0000000000000000
-1.6725719461410009  2.8969795903062296  -0.0000000000000002
0.0000000000000006  -0.0000000000000001  37.7438591639393479
Sc  C  Te
4  3  2
Selective  dynamics
Direct
0.0000000000000000  0.0000000000000000  0.0656393877727631  T  T  T
0.6666666666666643  0.3333333333333357  0.1322861506623608  T  T  T
0.3333333333333357  0.6666666666666643  0.2053544469401915  T  T  T
0.0000000000000000  -0.0000000000000000  0.2720012098297970  T  T  T
0.3333333333333357  0.6666666666666643  0.0950746344365863  T  T  T
0.0000000000000000  -0.0000000000000000  0.1688202988012761  T  T  T
0.6666666666666643  0.3333333333333357  0.2425659631659583  T  T  T
0.6666666666666643  0.3333333333333357  0.0000000000000000  T  T  T
0.3333333333333357  0.6666666666666643  0.3376405976025602  T  T  T

0.00000000E+00  0.00000000E+00  0.00000000E+00
0.00000000E+00  0.00000000E+00  0.00000000E+00
0.00000000E+00  0.00000000E+00  0.00000000E+00
0.00000000E+00  0.00000000E+00  0.00000000E+00
0.00000000E+00  0.00000000E+00  0.00000000E+00
0.00000000E+00  0.00000000E+00  0.00000000E+00
0.00000000E+00  0.00000000E+00  0.00000000E+00
0.00000000E+00  0.00000000E+00  0.00000000E+00
0.00000000E+00  0.00000000E+00  0.00000000E+00
