Ti4C3  (n=3)
1.00000000000000
3.1304641814731085  0.0000000000000004  -0.0000000000000000
-1.5652320907365542  2.7110615072986572  -0.0000000000000000
-0.0000000000000000  0.0000000000000000  36.1664897805971748
Ti  C  S
4  3  2
Selective  dynamics
Direct
0.0000000000000000  -0.0000000000000000  0.0426782731986841  T  T  T
0.0000000000000000  -0.0000000000000000  0.1174207990675363  T  T  T
0.0000000000000000  -0.0000000000000000  0.1913315805064373  T  T  T
0.0000000000000000  -0.0000000000000000  0.2660741063752895  T  T  T
0.3333333333333357  0.6666666666666643  0.0805145366144404  T  T  T
0.3333333333333357  0.6666666666666643  0.1543761897869868  T  T  T
0.3333333333333357  0.6666666666666643  0.2282378429595256  T  T  T
0.3333333333333357  0.6666666666666643  0.0000000000000000  T  T  T
0.3333333333333357  0.6666666666666643  0.3087523795739735  T  T  T

0.00000000E+00  0.00000000E+00  0.00000000E+00
0.00000000E+00  0.00000000E+00  0.00000000E+00
0.00000000E+00  0.00000000E+00  0.00000000E+00
0.00000000E+00  0.00000000E+00  0.00000000E+00
0.00000000E+00  0.00000000E+00  0.00000000E+00
0.00000000E+00  0.00000000E+00  0.00000000E+00
0.00000000E+00  0.00000000E+00  0.00000000E+00
0.00000000E+00  0.00000000E+00  0.00000000E+00
0.00000000E+00  0.00000000E+00  0.00000000E+00
