Mo4C3  (n=3)
1.00000000000000
2.9909871806939470  0.0000000000000001  0.0000000000000000
-1.4954935903469737  2.5902708812241362  0.0000000000000000
0.0000000000000000  0.0000000000000000  36.6767035759678919
Mo  C  S
4  3  2
Selective  dynamics
Direct
0.0000000000000000  0.0000000000000000  0.0447348485174290  T  T  T
0.0000000000000000  0.0000000000000000  0.1208933560161225  T  T  T
0.0000000000000000  0.0000000000000000  0.1974750478340793  T  T  T
0.0000000000000000  0.0000000000000000  0.2736335553327729  T  T  T
0.3333333333333357  0.6666666666666643  0.0828591562073278  T  T  T
0.3333333333333357  0.6666666666666643  0.1591842019250973  T  T  T
0.3333333333333357  0.6666666666666643  0.2355092476428668  T  T  T
0.3333333333333357  0.6666666666666643  0.0000000000000000  T  T  T
0.3333333333333357  0.6666666666666643  0.3183684038502019  T  T  T

0.00000000E+00  0.00000000E+00  0.00000000E+00
0.00000000E+00  0.00000000E+00  0.00000000E+00
0.00000000E+00  0.00000000E+00  0.00000000E+00
0.00000000E+00  0.00000000E+00  0.00000000E+00
0.00000000E+00  0.00000000E+00  0.00000000E+00
0.00000000E+00  0.00000000E+00  0.00000000E+00
0.00000000E+00  0.00000000E+00  0.00000000E+00
0.00000000E+00  0.00000000E+00  0.00000000E+00
0.00000000E+00  0.00000000E+00  0.00000000E+00
