Cr4N3  (n=3)
1.00000000000000
2.7670351562778626  -0.0000000000000001  0.0000000000000000
-1.3835175781389313  2.3963227385043329  0.0000000000000000
0.0000000000000000  0.0000000000000000  35.7993692281791098
Cr  N  S
4  3  2
Selective  dynamics
Direct
0.0000000000000000  -0.0000000000000000  0.0434215141447090  T  T  T
0.0000000000000000  -0.0000000000000000  0.1149750216906033  T  T  T
0.0000000000000000  -0.0000000000000000  0.1866886517486063  T  T  T
0.0000000000000000  -0.0000000000000000  0.2582421592945005  T  T  T
0.3333333333333357  0.6666666666666643  0.0795113573745516  T  T  T
0.3333333333333357  0.6666666666666643  0.1508318367196047  T  T  T
0.3333333333333357  0.6666666666666643  0.2221523160646508  T  T  T
0.3333333333333357  0.6666666666666643  0.0000000000000000  T  T  T
0.3333333333333357  0.6666666666666643  0.3016636734392096  T  T  T

0.00000000E+00  0.00000000E+00  0.00000000E+00
0.00000000E+00  0.00000000E+00  0.00000000E+00
0.00000000E+00  0.00000000E+00  0.00000000E+00
0.00000000E+00  0.00000000E+00  0.00000000E+00
0.00000000E+00  0.00000000E+00  0.00000000E+00
0.00000000E+00  0.00000000E+00  0.00000000E+00
0.00000000E+00  0.00000000E+00  0.00000000E+00
0.00000000E+00  0.00000000E+00  0.00000000E+00
0.00000000E+00  0.00000000E+00  0.00000000E+00
