Nb4C3  (n=3)
1.00000000000000
3.1370647253393029  -0.0000000000000000  -0.0000000000000000
-1.5685323626696512  2.7167777466196075  0.0000000000000000
0.0000000000000000  0.0000000000000000  36.9132334351468501
Nb  C  S
4  3  2
Selective  dynamics
Direct
0.0000000000000000  0.0000000000000000  0.0453871550224478  T  T  T
0.0000000000000000  -0.0000000000000000  0.1225346458971180  T  T  T
-0.0000000000000000  -0.0000000000000000  0.2002014659657808  T  T  T
-0.0000000000000000  -0.0000000000000000  0.2773489568404508  T  T  T
0.3333333333333357  0.6666666666666643  0.0836788689329951  T  T  T
0.3333333333333357  0.6666666666666643  0.1613680559314457  T  T  T
0.3333333333333357  0.6666666666666643  0.2390572429298964  T  T  T
0.3333333333333357  0.6666666666666643  0.0000000000000000  T  T  T
0.3333333333333357  0.6666666666666643  0.3227361118628987  T  T  T

0.00000000E+00  0.00000000E+00  0.00000000E+00
0.00000000E+00  0.00000000E+00  0.00000000E+00
0.00000000E+00  0.00000000E+00  0.00000000E+00
0.00000000E+00  0.00000000E+00  0.00000000E+00
0.00000000E+00  0.00000000E+00  0.00000000E+00
0.00000000E+00  0.00000000E+00  0.00000000E+00
0.00000000E+00  0.00000000E+00  0.00000000E+00
0.00000000E+00  0.00000000E+00  0.00000000E+00
0.00000000E+00  0.00000000E+00  0.00000000E+00
