Nb4N3  (n=3)
1.00000000000000
3.0538989986037337  -0.0000000000000001  0.0000000000000000
-1.5269494993018669  2.6447541140670578  0.0000000000000000
0.0000000000000000  0.0000000000000000  36.9745203930087598
Nb  N  S
4  3  2
Selective  dynamics
Direct
-0.0000000000000000  0.0000000000000000  0.0452813042346721  T  T  T
-0.0000000000000000  0.0000000000000000  0.1230097399354503  T  T  T
-0.0000000000000000  0.0000000000000000  0.2008489677835263  T  T  T
-0.0000000000000000  0.0000000000000000  0.2785774034843045  T  T  T
0.3333333333333357  0.6666666666666643  0.0854732288853265  T  T  T
0.3333333333333357  0.6666666666666643  0.1619293538594847  T  T  T
0.3333333333333357  0.6666666666666643  0.2383854788336429  T  T  T
0.3333333333333357  0.6666666666666643  0.0000000000000000  T  T  T
0.3333333333333357  0.6666666666666643  0.3238587077189766  T  T  T

0.00000000E+00  0.00000000E+00  0.00000000E+00
0.00000000E+00  0.00000000E+00  0.00000000E+00
0.00000000E+00  0.00000000E+00  0.00000000E+00
0.00000000E+00  0.00000000E+00  0.00000000E+00
0.00000000E+00  0.00000000E+00  0.00000000E+00
0.00000000E+00  0.00000000E+00  0.00000000E+00
0.00000000E+00  0.00000000E+00  0.00000000E+00
0.00000000E+00  0.00000000E+00  0.00000000E+00
0.00000000E+00  0.00000000E+00  0.00000000E+00
