Ta4C3  (n=3)
1.00000000000000
3.1228002306310914  -0.0000000000000001  -0.0000000000000000
-1.5614001153155457  2.7044243318930636  -0.0000000000000000
-0.0000000000000000  -0.0000000000000000  36.8780415989605217
Ta  C  S
4  3  2
Selective  dynamics
Direct
-0.0000000000000000  -0.0000000000000000  0.0453649976487217  T  T  T
-0.0000000000000000  -0.0000000000000000  0.1222804697495933  T  T  T
-0.0000000000000000  0.0000000000000000  0.1998093453260349  T  T  T
-0.0000000000000000  0.0000000000000000  0.2767248174269066  T  T  T
0.3333333333333357  0.6666666666666643  0.0830593572999422  T  T  T
0.3333333333333357  0.6666666666666643  0.1610449075378141  T  T  T
0.3333333333333357  0.6666666666666643  0.2390304577756786  T  T  T
0.3333333333333357  0.6666666666666643  0.0000000000000000  T  T  T
0.3333333333333357  0.6666666666666643  0.3220898150756282  T  T  T

0.00000000E+00  0.00000000E+00  0.00000000E+00
0.00000000E+00  0.00000000E+00  0.00000000E+00
0.00000000E+00  0.00000000E+00  0.00000000E+00
0.00000000E+00  0.00000000E+00  0.00000000E+00
0.00000000E+00  0.00000000E+00  0.00000000E+00
0.00000000E+00  0.00000000E+00  0.00000000E+00
0.00000000E+00  0.00000000E+00  0.00000000E+00
0.00000000E+00  0.00000000E+00  0.00000000E+00
0.00000000E+00  0.00000000E+00  0.00000000E+00
