Cr4C3  (n=3)
1.00000000000000
2.7935858595203844  0.0000000000000001  0.0000000000000000
-1.3967929297601922  2.4193163219631870  0.0000000000000000
0.0000000000000000  0.0000000000000000  35.8484070839267872
Cr  C  S
4  3  2
Selective  dynamics
Direct
-0.0000000000000000  -0.0000000000000000  0.0433729045568545  T  T  T
-0.0000000000000000  -0.0000000000000000  0.1151394875262464  T  T  T
-0.0000000000000000  -0.0000000000000000  0.1874794561419743  T  T  T
-0.0000000000000000  -0.0000000000000000  0.2592460391113805  T  T  T
0.3333333333333357  0.6666666666666643  0.0792764163845524  T  T  T
0.3333333333333357  0.6666666666666643  0.1513094718341175  T  T  T
0.3333333333333357  0.6666666666666643  0.2233425272836754  T  T  T
0.3333333333333357  0.6666666666666643  0.0000000000000000  T  T  T
0.3333333333333357  0.6666666666666643  0.3026189436682347  T  T  T

0.00000000E+00  0.00000000E+00  0.00000000E+00
0.00000000E+00  0.00000000E+00  0.00000000E+00
0.00000000E+00  0.00000000E+00  0.00000000E+00
0.00000000E+00  0.00000000E+00  0.00000000E+00
0.00000000E+00  0.00000000E+00  0.00000000E+00
0.00000000E+00  0.00000000E+00  0.00000000E+00
0.00000000E+00  0.00000000E+00  0.00000000E+00
0.00000000E+00  0.00000000E+00  0.00000000E+00
0.00000000E+00  0.00000000E+00  0.00000000E+00
