Mo4N3  (n=3)
1.00000000000000
2.9685762416952532  0.0000000000000000  0.0000000000000000
-1.4842881208476268  2.5708624386247614  0.0000000000000000
0.0000000000000000  0.0000000000000000  36.6945448218628556
Mo  N  S
4  3  2
Selective  dynamics
Direct
-0.0000000000000000  -0.0000000000000000  0.0444725233871495  T  T  T
-0.0000000000000000  -0.0000000000000000  0.1209846188128132  T  T  T
-0.0000000000000000  -0.0000000000000000  0.1977152009733538  T  T  T
-0.0000000000000000  -0.0000000000000000  0.2742272963990175  T  T  T
0.3333333333333357  0.6666666666666643  0.0838902356122318  T  T  T
0.3333333333333357  0.6666666666666643  0.1593499098930799  T  T  T
0.3333333333333357  0.6666666666666643  0.2348095841739208  T  T  T
0.3333333333333357  0.6666666666666643  0.0000000000000000  T  T  T
0.3333333333333357  0.6666666666666643  0.3186998197861597  T  T  T

0.00000000E+00  0.00000000E+00  0.00000000E+00
0.00000000E+00  0.00000000E+00  0.00000000E+00
0.00000000E+00  0.00000000E+00  0.00000000E+00
0.00000000E+00  0.00000000E+00  0.00000000E+00
0.00000000E+00  0.00000000E+00  0.00000000E+00
0.00000000E+00  0.00000000E+00  0.00000000E+00
0.00000000E+00  0.00000000E+00  0.00000000E+00
0.00000000E+00  0.00000000E+00  0.00000000E+00
0.00000000E+00  0.00000000E+00  0.00000000E+00
