Ta4N3  (n=3)
1.00000000000000
3.0377338411274182  0.0000000000000000  0.0000000000000000
-1.5188669205637093  2.6307546768907542  0.0000000000000000
0.0000000000000000  0.0000000000000000  36.9574023638695266
Ta  N  S
4  3  2
Selective  dynamics
Direct
-0.0000000000000000  0.0000000000000000  0.0449943386501022  T  T  T
-0.0000000000000000  0.0000000000000000  0.1227673967893012  T  T  T
-0.0000000000000000  0.0000000000000000  0.2007781339853163  T  T  T
-0.0000000000000000  0.0000000000000000  0.2785511921245150  T  T  T
0.3333333333333357  0.6666666666666643  0.0850158348196190  T  T  T
0.3333333333333357  0.6666666666666643  0.1617727653873087  T  T  T
0.3333333333333357  0.6666666666666643  0.2385296959549983  T  T  T
0.3333333333333357  0.6666666666666643  0.0000000000000000  T  T  T
0.3333333333333357  0.6666666666666643  0.3235455307746244  T  T  T

0.00000000E+00  0.00000000E+00  0.00000000E+00
0.00000000E+00  0.00000000E+00  0.00000000E+00
0.00000000E+00  0.00000000E+00  0.00000000E+00
0.00000000E+00  0.00000000E+00  0.00000000E+00
0.00000000E+00  0.00000000E+00  0.00000000E+00
0.00000000E+00  0.00000000E+00  0.00000000E+00
0.00000000E+00  0.00000000E+00  0.00000000E+00
0.00000000E+00  0.00000000E+00  0.00000000E+00
0.00000000E+00  0.00000000E+00  0.00000000E+00
