Ti4N3  (n=3)
1.00000000000000
3.0101154152307652  0.0000000000000000  0.0000000000000000
-1.5050577076153826  2.6068364181462820  0.0000000000000000
0.0000000000000000  0.0000000000000000  36.2116508883391859
Ti  N  S
4  3  2
Selective  dynamics
Direct
-0.0000000000000000  -0.0000000000000000  0.0443051416702929  T  T  T
-0.0000000000000000  -0.0000000000000000  0.1179015660503477  T  T  T
-0.0000000000000000  -0.0000000000000000  0.1917128981703249  T  T  T
-0.0000000000000000  -0.0000000000000000  0.2653093225503799  T  T  T
0.3333333333333357  0.6666666666666643  0.0811463291743563  T  T  T
0.3333333333333357  0.6666666666666643  0.1548072321103363  T  T  T
0.3333333333333357  0.6666666666666643  0.2284681350463020  T  T  T
0.3333333333333357  0.6666666666666643  0.0000000000000000  T  T  T
0.3333333333333357  0.6666666666666643  0.3096144642206727  T  T  T

0.00000000E+00  0.00000000E+00  0.00000000E+00
0.00000000E+00  0.00000000E+00  0.00000000E+00
0.00000000E+00  0.00000000E+00  0.00000000E+00
0.00000000E+00  0.00000000E+00  0.00000000E+00
0.00000000E+00  0.00000000E+00  0.00000000E+00
0.00000000E+00  0.00000000E+00  0.00000000E+00
0.00000000E+00  0.00000000E+00  0.00000000E+00
0.00000000E+00  0.00000000E+00  0.00000000E+00
0.00000000E+00  0.00000000E+00  0.00000000E+00
