Hf4N3  (n=3)
1.00000000000000
3.2043052878863860  -0.0000000000000004  0.0000000000000000
-1.6021526439431937  2.7750097817049850  0.0000000000000000
0.0000000000000000  0.0000000000000000  36.9246645351501073
Hf  N  S
4  3  2
Selective  dynamics
Direct
0.0000000000000000  -0.0000000000000000  0.0443382737286012  T  T  T
0.0000000000000000  -0.0000000000000000  0.1226149136405356  T  T  T
0.0000000000000000  -0.0000000000000000  0.2003308648864107  T  T  T
0.0000000000000000  -0.0000000000000000  0.2786075047983450  T  T  T
0.3333333333333357  0.6666666666666643  0.0840512992763965  T  T  T
0.3333333333333357  0.6666666666666643  0.1614728892634696  T  T  T
0.3333333333333357  0.6666666666666643  0.2388944792505426  T  T  T
0.3333333333333357  0.6666666666666643  0.0000000000000000  T  T  T
0.3333333333333357  0.6666666666666643  0.3229457785269391  T  T  T

0.00000000E+00  0.00000000E+00  0.00000000E+00
0.00000000E+00  0.00000000E+00  0.00000000E+00
0.00000000E+00  0.00000000E+00  0.00000000E+00
0.00000000E+00  0.00000000E+00  0.00000000E+00
0.00000000E+00  0.00000000E+00  0.00000000E+00
0.00000000E+00  0.00000000E+00  0.00000000E+00
0.00000000E+00  0.00000000E+00  0.00000000E+00
0.00000000E+00  0.00000000E+00  0.00000000E+00
0.00000000E+00  0.00000000E+00  0.00000000E+00
