Zr4C3  (n=3)
1.00000000000000
3.3510136178418990  0.0000000000000001  -0.0000000000000000
-1.6755068089209495  2.9020629275867136  -0.0000000000000000
-0.0000000000000000  0.0000000000000000  37.1650314235538204
Zr  C  S
4  3  2
Selective  dynamics
Direct
-0.0000000000000000  -0.0000000000000000  0.0437800026568903  T  T  T
-0.0000000000000000  -0.0000000000000000  0.1240359374704371  T  T  T
-0.0000000000000000  -0.0000000000000000  0.2032887265373561  T  T  T
-0.0000000000000000  -0.0000000000000000  0.2835446613509028  T  T  T
0.3333333333333357  0.6666666666666643  0.0840366367731478  T  T  T
0.3333333333333357  0.6666666666666643  0.1636623320038929  T  T  T
0.3333333333333357  0.6666666666666643  0.2432880272346379  T  T  T
0.3333333333333357  0.6666666666666643  0.0000000000000000  T  T  T
0.3333333333333357  0.6666666666666643  0.3273246640077930  T  T  T

0.00000000E+00  0.00000000E+00  0.00000000E+00
0.00000000E+00  0.00000000E+00  0.00000000E+00
0.00000000E+00  0.00000000E+00  0.00000000E+00
0.00000000E+00  0.00000000E+00  0.00000000E+00
0.00000000E+00  0.00000000E+00  0.00000000E+00
0.00000000E+00  0.00000000E+00  0.00000000E+00
0.00000000E+00  0.00000000E+00  0.00000000E+00
0.00000000E+00  0.00000000E+00  0.00000000E+00
0.00000000E+00  0.00000000E+00  0.00000000E+00
