Hf4C3  (n=3)
1.00000000000000
3.3177580889105922  0.0000000000000001  -0.0000000000000000
-1.6588790444552961  2.8732627929068544  0.0000000000000000
0.0000000000000000  -0.0000000000000000  36.9394489403370940
Hf  C  S
4  3  2
Selective  dynamics
Direct
0.0000000000000000  -0.0000000000000000  0.0434465867714440  T  T  T
0.0000000000000000  -0.0000000000000000  0.1225010761907899  T  T  T
-0.0000000000000000  -0.0000000000000000  0.2007156821214726  T  T  T
-0.0000000000000000  0.0000000000000000  0.2797701715408258  T  T  T
0.3333333333333357  0.6666666666666643  0.0831443797896562  T  T  T
0.3333333333333357  0.6666666666666643  0.1616083791561312  T  T  T
0.3333333333333357  0.6666666666666643  0.2400723785225986  T  T  T
0.3333333333333357  0.6666666666666643  0.0000000000000000  T  T  T
0.3333333333333357  0.6666666666666643  0.3232167583122624  T  T  T

0.00000000E+00  0.00000000E+00  0.00000000E+00
0.00000000E+00  0.00000000E+00  0.00000000E+00
0.00000000E+00  0.00000000E+00  0.00000000E+00
0.00000000E+00  0.00000000E+00  0.00000000E+00
0.00000000E+00  0.00000000E+00  0.00000000E+00
0.00000000E+00  0.00000000E+00  0.00000000E+00
0.00000000E+00  0.00000000E+00  0.00000000E+00
0.00000000E+00  0.00000000E+00  0.00000000E+00
0.00000000E+00  0.00000000E+00  0.00000000E+00
