Zr4N3  (n=3)
1.00000000000000
3.2543909540112477  0.0000000000000003  0.0000000000000000
-1.6271954770056238  2.8183852414990107  0.0000000000000000
0.0000000000000000  0.0000000000000000  37.0499062896412497
Zr  N  S
4  3  2
Selective  dynamics
Direct
-0.0000000000000000  -0.0000000000000000  0.0446452915883251  T  T  T
-0.0000000000000000  -0.0000000000000000  0.1232895242193038  T  T  T
-0.0000000000000000  -0.0000000000000000  0.2019449364413900  T  T  T
-0.0000000000000000  -0.0000000000000000  0.2805891690723759  T  T  T
0.3333333333333357  0.6666666666666643  0.0848032504019494  T  T  T
0.3333333333333357  0.6666666666666643  0.1626172303303505  T  T  T
0.3333333333333357  0.6666666666666643  0.2404312102587516  T  T  T
0.3333333333333357  0.6666666666666643  0.0000000000000000  T  T  T
0.3333333333333357  0.6666666666666643  0.3252344606607081  T  T  T

0.00000000E+00  0.00000000E+00  0.00000000E+00
0.00000000E+00  0.00000000E+00  0.00000000E+00
0.00000000E+00  0.00000000E+00  0.00000000E+00
0.00000000E+00  0.00000000E+00  0.00000000E+00
0.00000000E+00  0.00000000E+00  0.00000000E+00
0.00000000E+00  0.00000000E+00  0.00000000E+00
0.00000000E+00  0.00000000E+00  0.00000000E+00
0.00000000E+00  0.00000000E+00  0.00000000E+00
0.00000000E+00  0.00000000E+00  0.00000000E+00
