Sc4N3  (n=3)
1.00000000000000
3.1620186935442320  0.0000000000000002  0.0000000000000000
-1.5810093467721154  2.7383885167170092  0.0000000000000000
0.0000000000000000  0.0000000000000000  37.0305117553544392
Sc  N  S
4  3  2
Selective  dynamics
Direct
0.0000000000000000  0.0000000000000000  0.0481608135784963  T  T  T
0.0000000000000000  0.0000000000000000  0.1242461723151694  T  T  T
0.0000000000000000  0.0000000000000000  0.2006348834702636  T  T  T
0.0000000000000000  0.0000000000000000  0.2767202422069366  T  T  T
0.3333333333333357  0.6666666666666643  0.0859145693293064  T  T  T
0.3333333333333357  0.6666666666666643  0.1624405278927127  T  T  T
0.3333333333333357  0.6666666666666643  0.2389664864561190  T  T  T
0.3333333333333357  0.6666666666666643  0.0000000000000000  T  T  T
0.3333333333333357  0.6666666666666643  0.3248810557854330  T  T  T

0.00000000E+00  0.00000000E+00  0.00000000E+00
0.00000000E+00  0.00000000E+00  0.00000000E+00
0.00000000E+00  0.00000000E+00  0.00000000E+00
0.00000000E+00  0.00000000E+00  0.00000000E+00
0.00000000E+00  0.00000000E+00  0.00000000E+00
0.00000000E+00  0.00000000E+00  0.00000000E+00
0.00000000E+00  0.00000000E+00  0.00000000E+00
0.00000000E+00  0.00000000E+00  0.00000000E+00
0.00000000E+00  0.00000000E+00  0.00000000E+00
