Sc4C3  (n=3)
1.00000000000000
3.5397358399261170  0.0000000000000001  0.0000000000000000
-1.7698679199630589  3.0655011633429412  0.0000000000000000
0.0000000000000000  0.0000000000000000  35.6795257595939006
Sc  C  S
4  3  2
Selective  dynamics
Direct
0.0000000000000000  0.0000000000000000  0.0373401920621089  T  T  T
0.0000000000000000  0.0000000000000000  0.1126281122031163  T  T  T
0.0000000000000000  0.0000000000000000  0.1866899289488818  T  T  T
0.0000000000000000  0.0000000000000000  0.2619778490898891  T  T  T
0.3333333333333357  0.6666666666666643  0.0784676448445218  T  T  T
0.3333333333333357  0.6666666666666643  0.1496590205759955  T  T  T
0.3333333333333357  0.6666666666666643  0.2208503963074623  T  T  T
0.3333333333333357  0.6666666666666643  0.0000000000000000  T  T  T
0.3333333333333357  0.6666666666666643  0.2993180411519981  T  T  T

0.00000000E+00  0.00000000E+00  0.00000000E+00
0.00000000E+00  0.00000000E+00  0.00000000E+00
0.00000000E+00  0.00000000E+00  0.00000000E+00
0.00000000E+00  0.00000000E+00  0.00000000E+00
0.00000000E+00  0.00000000E+00  0.00000000E+00
0.00000000E+00  0.00000000E+00  0.00000000E+00
0.00000000E+00  0.00000000E+00  0.00000000E+00
0.00000000E+00  0.00000000E+00  0.00000000E+00
0.00000000E+00  0.00000000E+00  0.00000000E+00
