Nb3C2  (n=2)
1.00000000000000
3.2825316632129780  -0.0000000000000001  -0.0000000000000000
-1.6412658316064890  2.8427558098556940  -0.0000000000000003
0.0000000000000001  -0.0000000000000037  33.5976944995837243
Nb  C  Se
3  2  2
Selective  dynamics
Direct
-0.0000000000000000  -0.0000000000000000  0.0551828920426633  T  T  T
0.6666666666666643  0.3333333333333357  0.1290187408158994  T  T  T
0.3333333333333357  0.6666666666666643  0.2010758955442079  T  T  T
0.3333333333333357  0.6666666666666643  0.0894524215632434  T  T  T
0.0000000000000000  0.0000000000000000  0.1669891408615934  T  T  T
0.3333333333333357  0.6666666666666643  0.0000000000000000  T  T  T
0.6666666666666643  0.3333333333333357  0.2559013238152472  T  T  T

0.00000000E+00  0.00000000E+00  0.00000000E+00
0.00000000E+00  0.00000000E+00  0.00000000E+00
0.00000000E+00  0.00000000E+00  0.00000000E+00
0.00000000E+00  0.00000000E+00  0.00000000E+00
0.00000000E+00  0.00000000E+00  0.00000000E+00
0.00000000E+00  0.00000000E+00  0.00000000E+00
0.00000000E+00  0.00000000E+00  0.00000000E+00
