Hf3C2  (n=2)
1.00000000000000
3.3734662483586986  -0.0000000000000000  0.0000000000000000
-1.6867331241793493  2.9215074709276698  -0.0000000000000002
-0.0000000000000003  -0.0000000000000058  33.9460232090226128
Hf  C  Se
3  2  2
Selective  dynamics
Direct
-0.0000000000000000  -0.0000000000000000  0.0549773603781828  T  T  T
0.6666666666666643  0.3333333333333357  0.1318182710068349  T  T  T
0.3333333333333357  0.6666666666666643  0.2085858793847434  T  T  T
0.3333333333333357  0.6666666666666643  0.0934733266133240  T  T  T
0.0000000000000000  0.0000000000000000  0.1727757294779999  T  T  T
0.3333333333333357  0.6666666666666643  0.0000000000000000  T  T  T
0.6666666666666643  0.3333333333333357  0.2635367080832262  T  T  T

0.00000000E+00  0.00000000E+00  0.00000000E+00
0.00000000E+00  0.00000000E+00  0.00000000E+00
0.00000000E+00  0.00000000E+00  0.00000000E+00
0.00000000E+00  0.00000000E+00  0.00000000E+00
0.00000000E+00  0.00000000E+00  0.00000000E+00
0.00000000E+00  0.00000000E+00  0.00000000E+00
0.00000000E+00  0.00000000E+00  0.00000000E+00
