Cr3N2  (n=2)
1.00000000000000
2.9873584433250668  0.0000000000000000  0.0000000000000000
-1.4936792216625334  2.5871283021639870  0.0000000000000000
0.0000000000000001  -0.0000000000000003  32.9758273596401921
Cr  N  Se
3  2  2
Selective  dynamics
Direct
0.0000000000000000  0.0000000000000000  0.0517192852568640  T  T  T
0.6666666666666643  0.3333333333333357  0.1223916862990280  T  T  T
0.3333333333333357  0.6666666666666643  0.1883776119991031  T  T  T
0.3333333333333357  0.6666666666666643  0.0855936276650449  T  T  T
0.0000000000000000  0.0000000000000000  0.1564169406094227  T  T  T
0.3333333333333357  0.6666666666666643  0.0000000000000000  T  T  T
0.6666666666666643  0.3333333333333357  0.2418689081749006  T  T  T

0.00000000E+00  0.00000000E+00  0.00000000E+00
0.00000000E+00  0.00000000E+00  0.00000000E+00
0.00000000E+00  0.00000000E+00  0.00000000E+00
0.00000000E+00  0.00000000E+00  0.00000000E+00
0.00000000E+00  0.00000000E+00  0.00000000E+00
0.00000000E+00  0.00000000E+00  0.00000000E+00
0.00000000E+00  0.00000000E+00  0.00000000E+00
