Ta3N2  (n=2)
1.00000000000000
3.2297203258927492  0.0000000000000002  0.0000000000000000
-1.6148601629463741  2.7970198498319672  0.0000000000000000
0.0000000000000000  0.0000000000000000  33.5247360487046748
Ta  N  Se
3  2  2
Selective  dynamics
Direct
0.0000000000000000  0.0000000000000000  0.0530169118765470  T  T  T
0.6666666666666643  0.3333333333333357  0.1302691420171249  T  T  T
0.3333333333333357  0.6666666666666643  0.2007394359868564  T  T  T
0.3333333333333357  0.6666666666666643  0.0920234012723943  T  T  T
0.0000000000000000  0.0000000000000000  0.1640463690164145  T  T  T
0.3333333333333357  0.6666666666666643  0.0000000000000000  T  T  T
0.6666666666666643  0.3333333333333357  0.2542819736543177  T  T  T

0.00000000E+00  0.00000000E+00  0.00000000E+00
0.00000000E+00  0.00000000E+00  0.00000000E+00
0.00000000E+00  0.00000000E+00  0.00000000E+00
0.00000000E+00  0.00000000E+00  0.00000000E+00
0.00000000E+00  0.00000000E+00  0.00000000E+00
0.00000000E+00  0.00000000E+00  0.00000000E+00
0.00000000E+00  0.00000000E+00  0.00000000E+00
