Ti3N2  (n=2)
1.00000000000000
3.1490176309327134  0.0000000000000002  -0.0000000000000001
-1.5745088154663565  2.7271292655407273  0.0000000000000000
-0.0000000000000012  -0.0000000000000017  33.2045702461640317
Ti  N  Se
3  2  2
Selective  dynamics
Direct
0.0000000000000000  0.0000000000000000  0.0541107987065682  T  T  T
0.6666666666666643  0.3333333333333357  0.1229939689878141  T  T  T
0.3333333333333357  0.6666666666666643  0.1935907421648569  T  T  T
0.3333333333333357  0.6666666666666643  0.0889575240582074  T  T  T
0.0000000000000000  0.0000000000000000  0.1608331408374276  T  T  T
0.3333333333333357  0.6666666666666643  0.0000000000000000  T  T  T
0.6666666666666643  0.3333333333333357  0.2470915956851411  T  T  T

0.00000000E+00  0.00000000E+00  0.00000000E+00
0.00000000E+00  0.00000000E+00  0.00000000E+00
0.00000000E+00  0.00000000E+00  0.00000000E+00
0.00000000E+00  0.00000000E+00  0.00000000E+00
0.00000000E+00  0.00000000E+00  0.00000000E+00
0.00000000E+00  0.00000000E+00  0.00000000E+00
0.00000000E+00  0.00000000E+00  0.00000000E+00
