Hf3N2  (n=2)
1.00000000000000
3.3685922554191574  0.0000000000000000  0.0000000000000000
-1.6842961277095785  2.9172864690803300  0.0000000000000000
-0.0000000000000003  -0.0000000000000003  33.5710972826040148
Hf  N  Se
3  2  2
Selective  dynamics
Direct
0.0000000000000000  -0.0000000000000000  0.0531279069263504  T  T  T
0.6666666666666643  0.3333333333333357  0.1265521035017553  T  T  T
0.3333333333333357  0.6666666666666643  0.2028266985758450  T  T  T
0.3333333333333357  0.6666666666666643  0.0926791222310971  T  T  T
-0.0000000000000000  -0.0000000000000000  0.1668038908008960  T  T  T
0.3333333333333357  0.6666666666666643  0.0000000000000000  T  T  T
0.6666666666666643  0.3333333333333357  0.2553118002206444  T  T  T

0.00000000E+00  0.00000000E+00  0.00000000E+00
0.00000000E+00  0.00000000E+00  0.00000000E+00
0.00000000E+00  0.00000000E+00  0.00000000E+00
0.00000000E+00  0.00000000E+00  0.00000000E+00
0.00000000E+00  0.00000000E+00  0.00000000E+00
0.00000000E+00  0.00000000E+00  0.00000000E+00
0.00000000E+00  0.00000000E+00  0.00000000E+00
