Mo3N2  (n=2)
1.00000000000000
3.0531393343833102  -0.0000000000000007  -0.0000000000000000
-1.5265696671916558  2.6440962253110385  0.0000000000000002
-0.0000000000000000  0.0000000000000030  33.9534671297138999
Mo  N  Se
3  2  2
Selective  dynamics
Direct
0.0000000000000000  0.0000000000000000  0.0529686047463825  T  T  T
0.6666666666666643  0.3333333333333357  0.1332261682808941  T  T  T
0.3333333333333357  0.6666666666666643  0.2104288870850659  T  T  T
0.3333333333333357  0.6666666666666643  0.0899603722687683  T  T  T
-0.0000000000000000  -0.0000000000000000  0.1688132586440526  T  T  T
0.3333333333333357  0.6666666666666643  0.0000000000000000  T  T  T
0.6666666666666643  0.3333333333333357  0.2636981694832101  T  T  T

0.00000000E+00  0.00000000E+00  0.00000000E+00
0.00000000E+00  0.00000000E+00  0.00000000E+00
0.00000000E+00  0.00000000E+00  0.00000000E+00
0.00000000E+00  0.00000000E+00  0.00000000E+00
0.00000000E+00  0.00000000E+00  0.00000000E+00
0.00000000E+00  0.00000000E+00  0.00000000E+00
0.00000000E+00  0.00000000E+00  0.00000000E+00
