Zr3C2  (n=2)
1.00000000000000
3.4191405753971722  0.0000000000000001  -0.0000000000000002
-1.7095702876985861  2.9610625986106807  -0.0000000000000002
-0.0000000000000013  -0.0000000000000050  34.0692451357973667
Zr  C  Se
3  2  2
Selective  dynamics
Direct
-0.0000000000000000  -0.0000000000000000  0.0549486781039842  T  T  T
0.6666666666666643  0.3333333333333357  0.1329181923386613  T  T  T
0.3333333333333357  0.6666666666666643  0.2108174730327943  T  T  T
0.3333333333333357  0.6666666666666643  0.0940721040001282  T  T  T
0.0000000000000000  0.0000000000000000  0.1744361026929162  T  T  T
0.3333333333333357  0.6666666666666643  0.0000000000000000  T  T  T
0.6666666666666643  0.3333333333333357  0.2662003545910119  T  T  T

0.00000000E+00  0.00000000E+00  0.00000000E+00
0.00000000E+00  0.00000000E+00  0.00000000E+00
0.00000000E+00  0.00000000E+00  0.00000000E+00
0.00000000E+00  0.00000000E+00  0.00000000E+00
0.00000000E+00  0.00000000E+00  0.00000000E+00
0.00000000E+00  0.00000000E+00  0.00000000E+00
0.00000000E+00  0.00000000E+00  0.00000000E+00
