Ti3C2  (n=2)
1.00000000000000
3.1728049154026086  -0.0000000000000000  -0.0000000000000000
-1.5864024577013043  2.7477296583923718  0.0000000000000002
-0.0000000000000002  0.0000000000000009  33.4379302209298501
Ti  C  Se
3  2  2
Selective  dynamics
Direct
-0.0000000000000000  0.0000000000000000  0.0546892071576552  T  T  T
0.6666666666666643  0.3333333333333357  0.1265322529244461  T  T  T
0.3333333333333357  0.6666666666666643  0.1983494947681337  T  T  T
0.3333333333333357  0.6666666666666643  0.0900073318455901  T  T  T
0.0000000000000000  -0.0000000000000000  0.1648145581219281  T  T  T
0.3333333333333357  0.6666666666666643  0.0000000000000000  T  T  T
0.6666666666666643  0.3333333333333357  0.2523460682278798  T  T  T

0.00000000E+00  0.00000000E+00  0.00000000E+00
0.00000000E+00  0.00000000E+00  0.00000000E+00
0.00000000E+00  0.00000000E+00  0.00000000E+00
0.00000000E+00  0.00000000E+00  0.00000000E+00
0.00000000E+00  0.00000000E+00  0.00000000E+00
0.00000000E+00  0.00000000E+00  0.00000000E+00
0.00000000E+00  0.00000000E+00  0.00000000E+00
