Cr3C2  (n=2)
1.00000000000000
3.0458203519752751  0.0000000000000001  0.0000000000000000
-1.5229101759876376  2.6377578002257436  -0.0000000000000004
-0.0000000000000004  -0.0000000000000041  32.8103372376014661
Cr  C  Se
3  2  2
Selective  dynamics
Direct
0.0000000000000000  0.0000000000000000  0.0521083645561598  T  T  T
0.6666666666666643  0.3333333333333357  0.1184390676051977  T  T  T
0.3333333333333357  0.6666666666666643  0.1840035708479237  T  T  T
0.3333333333333357  0.6666666666666643  0.0827421999987594  T  T  T
0.0000000000000000  -0.0000000000000000  0.1545140295196792  T  T  T
0.3333333333333357  0.6666666666666643  0.0000000000000000  T  T  T
0.6666666666666643  0.3333333333333357  0.2380450155401214  T  T  T

0.00000000E+00  0.00000000E+00  0.00000000E+00
0.00000000E+00  0.00000000E+00  0.00000000E+00
0.00000000E+00  0.00000000E+00  0.00000000E+00
0.00000000E+00  0.00000000E+00  0.00000000E+00
0.00000000E+00  0.00000000E+00  0.00000000E+00
0.00000000E+00  0.00000000E+00  0.00000000E+00
0.00000000E+00  0.00000000E+00  0.00000000E+00
