Zr3N2  (n=2)
1.00000000000000
3.4115366949808181  -0.0000000000000001  0.0000000000000000
-1.7057683474904091  2.9544774448740210  -0.0000000000000001
0.0000000000000003  -0.0000000000000007  33.7129267605485197
Zr  N  Se
3  2  2
Selective  dynamics
Direct
0.0000000000000000  0.0000000000000000  0.0538230801045392  T  T  T
0.6666666666666643  0.3333333333333357  0.1282196273684002  T  T  T
0.3333333333333357  0.6666666666666643  0.2052793846054829  T  T  T
0.3333333333333357  0.6666666666666643  0.0931223466045656  T  T  T
0.0000000000000000  0.0000000000000000  0.1688410600662098  T  T  T
0.3333333333333357  0.6666666666666643  0.0000000000000000  T  T  T
0.6666666666666643  0.3333333333333357  0.2584446856967799  T  T  T

0.00000000E+00  0.00000000E+00  0.00000000E+00
0.00000000E+00  0.00000000E+00  0.00000000E+00
0.00000000E+00  0.00000000E+00  0.00000000E+00
0.00000000E+00  0.00000000E+00  0.00000000E+00
0.00000000E+00  0.00000000E+00  0.00000000E+00
0.00000000E+00  0.00000000E+00  0.00000000E+00
0.00000000E+00  0.00000000E+00  0.00000000E+00
