Sc3C2  (n=2)
1.00000000000000
3.6408927179376813  0.0000000000000000  0.0000000000000000
-1.8204463589688407  3.1531055872853471  0.0000000000000001
0.0000000000000000  0.0000000000000008  32.8350080688603185
Sc  C  Se
3  2  2
Selective  dynamics
Direct
0.0000000000000000  0.0000000000000000  0.0452392665351303  T  T  T
0.6666666666666643  0.3333333333333357  0.1138840800939635  T  T  T
0.3333333333333357  0.6666666666666643  0.1876294845494172  T  T  T
0.3333333333333357  0.6666666666666643  0.0678808376194743  T  T  T
-0.0000000000000000  -0.0000000000000000  0.1463568464152288  T  T  T
0.3333333333333357  0.6666666666666643  0.0000000000000000  T  T  T
0.6666666666666643  0.3333333333333357  0.2386175161714303  T  T  T

0.00000000E+00  0.00000000E+00  0.00000000E+00
0.00000000E+00  0.00000000E+00  0.00000000E+00
0.00000000E+00  0.00000000E+00  0.00000000E+00
0.00000000E+00  0.00000000E+00  0.00000000E+00
0.00000000E+00  0.00000000E+00  0.00000000E+00
0.00000000E+00  0.00000000E+00  0.00000000E+00
0.00000000E+00  0.00000000E+00  0.00000000E+00
