Mo3C2  (n=2)
1.00000000000000
3.1588121497346551  0.0000000000000000  -0.0000000000000000
-1.5794060748673273  2.7356115678531818  0.0000000000000001
0.0000000000000000  0.0000000000000015  33.5419545041894764
Mo  C  Se
3  2  2
Selective  dynamics
Direct
0.0000000000000000  0.0000000000000000  0.0529248000371133  T  T  T
0.6666666666666643  0.3333333333333357  0.1304089427165544  T  T  T
0.3333333333333357  0.6666666666666643  0.1981819619053287  T  T  T
0.3333333333333357  0.6666666666666643  0.0885405163577571  T  T  T
-0.0000000000000000  -0.0000000000000000  0.1648003862014157  T  T  T
0.3333333333333357  0.6666666666666643  0.0000000000000000  T  T  T
0.6666666666666643  0.3333333333333357  0.2546647811809107  T  T  T

0.00000000E+00  0.00000000E+00  0.00000000E+00
0.00000000E+00  0.00000000E+00  0.00000000E+00
0.00000000E+00  0.00000000E+00  0.00000000E+00
0.00000000E+00  0.00000000E+00  0.00000000E+00
0.00000000E+00  0.00000000E+00  0.00000000E+00
0.00000000E+00  0.00000000E+00  0.00000000E+00
0.00000000E+00  0.00000000E+00  0.00000000E+00
