Nb3N2  (n=2)
1.00000000000000
3.2386544482423303  0.0000000000000005  0.0000000000000000
-1.6193272241211647  2.8047570268181365  0.0000000000000000
0.0000000000000002  0.0000000000000005  33.5958832278731734
Nb  N  Se
3  2  2
Selective  dynamics
Direct
0.0000000000000000  -0.0000000000000000  0.0534034486400892  T  T  T
0.6666666666666643  0.3333333333333357  0.1307776331590512  T  T  T
0.3333333333333357  0.6666666666666643  0.2016868166958725  T  T  T
0.3333333333333357  0.6666666666666643  0.0916621360055187  T  T  T
0.0000000000000000  -0.0000000000000000  0.1649751902212923  T  T  T
0.3333333333333357  0.6666666666666643  0.0000000000000000  T  T  T
0.6666666666666643  0.3333333333333357  0.2558612068499367  T  T  T

0.00000000E+00  0.00000000E+00  0.00000000E+00
0.00000000E+00  0.00000000E+00  0.00000000E+00
0.00000000E+00  0.00000000E+00  0.00000000E+00
0.00000000E+00  0.00000000E+00  0.00000000E+00
0.00000000E+00  0.00000000E+00  0.00000000E+00
0.00000000E+00  0.00000000E+00  0.00000000E+00
0.00000000E+00  0.00000000E+00  0.00000000E+00
