Sc3N2  (n=2)
1.00000000000000
3.2588266114509037  0.0000000000000000  0.0000000000000000
-1.6294133057254518  2.8222266327174861  0.0000000000000001
0.0000000000000003  0.0000000000000003  34.0296475100971278
Sc  N  Se
3  2  2
Selective  dynamics
Direct
0.0000000000000000  0.0000000000000000  0.0583429651184669  T  T  T
0.6666666666666643  0.3333333333333357  0.1336762725811895  T  T  T
0.3333333333333357  0.6666666666666643  0.2083317353851208  T  T  T
0.3333333333333357  0.6666666666666643  0.0956724741899620  T  T  T
0.0000000000000000  0.0000000000000000  0.1726091798916036  T  T  T
0.3333333333333357  0.6666666666666643  0.0000000000000000  T  T  T
0.6666666666666643  0.3333333333333357  0.2653464896284303  T  T  T

0.00000000E+00  0.00000000E+00  0.00000000E+00
0.00000000E+00  0.00000000E+00  0.00000000E+00
0.00000000E+00  0.00000000E+00  0.00000000E+00
0.00000000E+00  0.00000000E+00  0.00000000E+00
0.00000000E+00  0.00000000E+00  0.00000000E+00
0.00000000E+00  0.00000000E+00  0.00000000E+00
0.00000000E+00  0.00000000E+00  0.00000000E+00
