Ta3C2  (n=2)
1.00000000000000
3.2552170925940200  -0.0000000000000001  0.0000000000000000
-1.6276085462970102  2.8191006977818471  0.0000000000000000
-0.0000000000000000  0.0000000000000005  33.6017239069637341
Ta  C  Se
3  2  2
Selective  dynamics
Direct
0.0000000000000000  0.0000000000000000  0.0544442324927433  T  T  T
0.6666666666666643  0.3333333333333357  0.1285314272410693  T  T  T
0.3333333333333357  0.6666666666666643  0.2024825610483448  T  T  T
0.3333333333333357  0.6666666666666643  0.0909296997346416  T  T  T
-0.0000000000000000  -0.0000000000000000  0.1664568825324213  T  T  T
0.3333333333333357  0.6666666666666643  0.0000000000000000  T  T  T
0.6666666666666643  0.3333333333333357  0.2559905536626675  T  T  T

0.00000000E+00  0.00000000E+00  0.00000000E+00
0.00000000E+00  0.00000000E+00  0.00000000E+00
0.00000000E+00  0.00000000E+00  0.00000000E+00
0.00000000E+00  0.00000000E+00  0.00000000E+00
0.00000000E+00  0.00000000E+00  0.00000000E+00
0.00000000E+00  0.00000000E+00  0.00000000E+00
0.00000000E+00  0.00000000E+00  0.00000000E+00
