Sc3N2  (n=2)
1.00000000000000
3.2495466422292805  0.0000000000000000  0.0000000000000000
-1.6247733211146402  2.8141899434790254  -0.0000000000000001
0.0000000000000001  0.0000000000000001  33.6702309384526757
Sc  N  S
3  2  2
Selective  dynamics
Direct
-0.0000000000000000  -0.0000000000000000  0.0514369850043136  T  T  T
0.6666666666666643  0.3333333333333357  0.1291474147544843  T  T  T
0.3333333333333357  0.6666666666666643  0.2058882831304336  T  T  T
0.3333333333333357  0.6666666666666643  0.0918032718157031  T  T  T
-0.0000000000000000  -0.0000000000000000  0.1688281693404839  T  T  T
0.3333333333333357  0.6666666666666643  0.0000000000000000  T  T  T
0.6666666666666643  0.3333333333333357  0.2575043501870058  T  T  T

0.00000000E+00  0.00000000E+00  0.00000000E+00
0.00000000E+00  0.00000000E+00  0.00000000E+00
0.00000000E+00  0.00000000E+00  0.00000000E+00
0.00000000E+00  0.00000000E+00  0.00000000E+00
0.00000000E+00  0.00000000E+00  0.00000000E+00
0.00000000E+00  0.00000000E+00  0.00000000E+00
0.00000000E+00  0.00000000E+00  0.00000000E+00
