Ta3N2  (n=2)
1.00000000000000
3.1940402617483303  0.0000000000000002  0.0000000000000000
-1.5970201308741649  2.7661200077240138  0.0000000000000000
0.0000000000000000  -0.0000000000000001  33.2606616175770995
Ta  N  S
3  2  2
Selective  dynamics
Direct
-0.0000000000000000  -0.0000000000000000  0.0486992982742070  T  T  T
0.6666666666666643  0.3333333333333357  0.1279526309083560  T  T  T
0.3333333333333357  0.6666666666666643  0.1995663835233746  T  T  T
0.3333333333333357  0.6666666666666643  0.0888247075291968  T  T  T
0.0000000000000000  0.0000000000000000  0.1620029104206360  T  T  T
0.3333333333333357  0.6666666666666643  0.0000000000000000  T  T  T
0.6666666666666643  0.3333333333333357  0.2483613138113774  T  T  T

0.00000000E+00  0.00000000E+00  0.00000000E+00
0.00000000E+00  0.00000000E+00  0.00000000E+00
0.00000000E+00  0.00000000E+00  0.00000000E+00
0.00000000E+00  0.00000000E+00  0.00000000E+00
0.00000000E+00  0.00000000E+00  0.00000000E+00
0.00000000E+00  0.00000000E+00  0.00000000E+00
0.00000000E+00  0.00000000E+00  0.00000000E+00
