Cr3C2  (n=2)
1.00000000000000
2.9414139592736781  0.0000000000000000  0.0000000000000000
-1.4707069796368386  2.5473392118046747  -0.0000000000000002
-0.0000000000000002  -0.0000000000000023  32.6880595844393582
Cr  C  S
3  2  2
Selective  dynamics
Direct
-0.0000000000000000  -0.0000000000000000  0.0469428007284763  T  T  T
0.6666666666666643  0.3333333333333357  0.1189323477511162  T  T  T
0.3333333333333357  0.6666666666666643  0.1878025544436298  T  T  T
0.3333333333333357  0.6666666666666643  0.0810298120607431  T  T  T
0.0000000000000000  -0.0000000000000000  0.1534357296874345  T  T  T
0.3333333333333357  0.6666666666666643  0.0000000000000000  T  T  T
0.6666666666666643  0.3333333333333357  0.2351947372275085  T  T  T

0.00000000E+00  0.00000000E+00  0.00000000E+00
0.00000000E+00  0.00000000E+00  0.00000000E+00
0.00000000E+00  0.00000000E+00  0.00000000E+00
0.00000000E+00  0.00000000E+00  0.00000000E+00
0.00000000E+00  0.00000000E+00  0.00000000E+00
0.00000000E+00  0.00000000E+00  0.00000000E+00
0.00000000E+00  0.00000000E+00  0.00000000E+00
