Cr3N2  (n=2)
1.00000000000000
2.9275409602333462  0.0000000000000000  0.0000000000000000
-1.4637704801166731  2.5353248421989916  0.0000000000000000
0.0000000000000002  0.0000000000000006  32.7867843851989278
Cr  N  S
3  2  2
Selective  dynamics
Direct
0.0000000000000000  0.0000000000000000  0.0464599443601483  T  T  T
0.6666666666666643  0.3333333333333357  0.1217642245737929  T  T  T
0.3333333333333357  0.6666666666666643  0.1911974977838328  T  T  T
0.3333333333333357  0.6666666666666643  0.0820530836039126  T  T  T
-0.0000000000000000  -0.0000000000000000  0.1537742834785190  T  T  T
0.3333333333333357  0.6666666666666643  0.0000000000000000  T  T  T
0.6666666666666643  0.3333333333333357  0.2374976543510668  T  T  T

0.00000000E+00  0.00000000E+00  0.00000000E+00
0.00000000E+00  0.00000000E+00  0.00000000E+00
0.00000000E+00  0.00000000E+00  0.00000000E+00
0.00000000E+00  0.00000000E+00  0.00000000E+00
0.00000000E+00  0.00000000E+00  0.00000000E+00
0.00000000E+00  0.00000000E+00  0.00000000E+00
0.00000000E+00  0.00000000E+00  0.00000000E+00
