Zr3N2  (n=2)
1.00000000000000
3.3769122731932835  0.0000000000000000  0.0000000000000000
-1.6884561365966417  2.9244918156750885  0.0000000000000000
0.0000000000000005  0.0000000000000000  33.4459235860276465
Zr  N  S
3  2  2
Selective  dynamics
Direct
0.0000000000000000  0.0000000000000000  0.0487012997629468  T  T  T
0.6666666666666643  0.3333333333333357  0.1253653594890150  T  T  T
0.3333333333333357  0.6666666666666643  0.2043770815931096  T  T  T
0.3333333333333357  0.6666666666666643  0.0900373331947049  T  T  T
0.0000000000000000  0.0000000000000000  0.1665422341181690  T  T  T
0.3333333333333357  0.6666666666666643  0.0000000000000000  T  T  T
0.6666666666666643  0.3333333333333357  0.2525247528089197  T  T  T

0.00000000E+00  0.00000000E+00  0.00000000E+00
0.00000000E+00  0.00000000E+00  0.00000000E+00
0.00000000E+00  0.00000000E+00  0.00000000E+00
0.00000000E+00  0.00000000E+00  0.00000000E+00
0.00000000E+00  0.00000000E+00  0.00000000E+00
0.00000000E+00  0.00000000E+00  0.00000000E+00
0.00000000E+00  0.00000000E+00  0.00000000E+00
