Mo3N2  (n=2)
1.00000000000000
3.0058951306580135  0.0000000000000003  -0.0000000000000001
-1.5029475653290068  2.6031815445314459  0.0000000000000003
-0.0000000000000010  0.0000000000000040  33.7775554144608847
Mo  N  S
3  2  2
Selective  dynamics
Direct
-0.0000000000000000  -0.0000000000000000  0.0482813618817918  T  T  T
0.6666666666666643  0.3333333333333357  0.1314752994349332  T  T  T
0.3333333333333357  0.6666666666666643  0.2117392996053054  T  T  T
0.3333333333333357  0.6666666666666643  0.0866395234991918  T  T  T
-0.0000000000000000  -0.0000000000000000  0.1675831335374420  T  T  T
0.3333333333333357  0.6666666666666643  0.0000000000000000  T  T  T
0.6666666666666643  0.3333333333333357  0.2598635486422155  T  T  T

0.00000000E+00  0.00000000E+00  0.00000000E+00
0.00000000E+00  0.00000000E+00  0.00000000E+00
0.00000000E+00  0.00000000E+00  0.00000000E+00
0.00000000E+00  0.00000000E+00  0.00000000E+00
0.00000000E+00  0.00000000E+00  0.00000000E+00
0.00000000E+00  0.00000000E+00  0.00000000E+00
0.00000000E+00  0.00000000E+00  0.00000000E+00
