Ti3C2  (n=2)
1.00000000000000
3.1447336543847757  -0.0000000000000003  0.0000000000000000
-1.5723668271923881  2.7234192331030491  -0.0000000000000001
0.0000000000000007  0.0000000000000000  33.1105214403118069
Ti  C  S
3  2  2
Selective  dynamics
Direct
0.0000000000000000  -0.0000000000000000  0.0475903008353470  T  T  T
0.6666666666666643  0.3333333333333357  0.1218071619452033  T  T  T
0.3333333333333357  0.6666666666666643  0.1959788275404976  T  T  T
0.3333333333333357  0.6666666666666643  0.0858004972578972  T  T  T
0.0000000000000000  0.0000000000000000  0.1610803254262035  T  T  T
0.3333333333333357  0.6666666666666643  0.0000000000000000  T  T  T
0.6666666666666643  0.3333333333333357  0.2449529964344600  T  T  T

0.00000000E+00  0.00000000E+00  0.00000000E+00
0.00000000E+00  0.00000000E+00  0.00000000E+00
0.00000000E+00  0.00000000E+00  0.00000000E+00
0.00000000E+00  0.00000000E+00  0.00000000E+00
0.00000000E+00  0.00000000E+00  0.00000000E+00
0.00000000E+00  0.00000000E+00  0.00000000E+00
0.00000000E+00  0.00000000E+00  0.00000000E+00
