Hf3N2  (n=2)
1.00000000000000
3.3198851091970605  0.0000000000000004  0.0000000000000000
-1.6599425545985298  2.8751048428293164  0.0000000000000000
-0.0000000000000001  0.0000000000000002  33.3674705735663721
Hf  N  S
3  2  2
Selective  dynamics
Direct
-0.0000000000000000  -0.0000000000000000  0.0483103774156099  T  T  T
0.6666666666666643  0.3333333333333357  0.1247445579143329  T  T  T
0.3333333333333357  0.6666666666666643  0.2031444994505532  T  T  T
0.3333333333333357  0.6666666666666643  0.0898899329054208  T  T  T
-0.0000000000000000  0.0000000000000000  0.1651565485301353  T  T  T
0.3333333333333357  0.6666666666666643  0.0000000000000000  T  T  T
0.6666666666666643  0.3333333333333357  0.2507673020979619  T  T  T

0.00000000E+00  0.00000000E+00  0.00000000E+00
0.00000000E+00  0.00000000E+00  0.00000000E+00
0.00000000E+00  0.00000000E+00  0.00000000E+00
0.00000000E+00  0.00000000E+00  0.00000000E+00
0.00000000E+00  0.00000000E+00  0.00000000E+00
0.00000000E+00  0.00000000E+00  0.00000000E+00
0.00000000E+00  0.00000000E+00  0.00000000E+00
