Mo3C2  (n=2)
1.00000000000000
3.1298161065557131  0.0000000000000000  0.0000000000000000
-1.5649080532778565  2.7105002577399042  0.0000000000000000
0.0000000000000001  0.0000000000000011  33.2346170822385858
Mo  C  S
3  2  2
Selective  dynamics
Direct
-0.0000000000000000  -0.0000000000000000  0.0485569828668130  T  T  T
0.6666666666666643  0.3333333333333357  0.1277725497457445  T  T  T
0.3333333333333357  0.6666666666666643  0.1974557575112652  T  T  T
0.3333333333333357  0.6666666666666643  0.0853647561041339  T  T  T
0.0000000000000000  -0.0000000000000000  0.1615542387543815  T  T  T
0.3333333333333357  0.6666666666666643  0.0000000000000000  T  T  T
0.6666666666666643  0.3333333333333357  0.2477722870061099  T  T  T

0.00000000E+00  0.00000000E+00  0.00000000E+00
0.00000000E+00  0.00000000E+00  0.00000000E+00
0.00000000E+00  0.00000000E+00  0.00000000E+00
0.00000000E+00  0.00000000E+00  0.00000000E+00
0.00000000E+00  0.00000000E+00  0.00000000E+00
0.00000000E+00  0.00000000E+00  0.00000000E+00
0.00000000E+00  0.00000000E+00  0.00000000E+00
