Ta3C2  (n=2)
1.00000000000000
3.2186630204068942  0.0000000000000000  0.0000000000000000
-1.6093315102034467  2.7874439423807300  0.0000000000000001
0.0000000000000000  0.0000000000000006  33.3476137151398859
Ta  C  S
3  2  2
Selective  dynamics
Direct
0.0000000000000000  0.0000000000000000  0.0499443463569424  T  T  T
0.6666666666666643  0.3333333333333357  0.1256310998727094  T  T  T
0.3333333333333357  0.6666666666666643  0.2014149550025900  T  T  T
0.3333333333333357  0.6666666666666643  0.0877618540264978  T  T  T
-0.0000000000000000  -0.0000000000000000  0.1641637428965235  T  T  T
0.3333333333333357  0.6666666666666643  0.0000000000000000  T  T  T
0.6666666666666643  0.3333333333333357  0.2503211709973133  T  T  T

0.00000000E+00  0.00000000E+00  0.00000000E+00
0.00000000E+00  0.00000000E+00  0.00000000E+00
0.00000000E+00  0.00000000E+00  0.00000000E+00
0.00000000E+00  0.00000000E+00  0.00000000E+00
0.00000000E+00  0.00000000E+00  0.00000000E+00
0.00000000E+00  0.00000000E+00  0.00000000E+00
0.00000000E+00  0.00000000E+00  0.00000000E+00
