Ti3N2  (n=2)
1.00000000000000
3.1045885220521212  0.0000000000000001  0.0000000000000000
-1.5522942610260606  2.6886525285265201  0.0000000000000000
-0.0000000000000003  -0.0000000000000020  32.9588327048032923
Ti  N  S
3  2  2
Selective  dynamics
Direct
-0.0000000000000000  -0.0000000000000000  0.0484952242355342  T  T  T
0.6666666666666643  0.3333333333333357  0.1204398842009155  T  T  T
0.3333333333333357  0.6666666666666643  0.1938129901665992  T  T  T
0.3333333333333357  0.6666666666666643  0.0859064542984100  T  T  T
-0.0000000000000000  -0.0000000000000000  0.1583787470371876  T  T  T
0.3333333333333357  0.6666666666666643  0.0000000000000000  T  T  T
0.6666666666666643  0.3333333333333357  0.2414779909254312  T  T  T

0.00000000E+00  0.00000000E+00  0.00000000E+00
0.00000000E+00  0.00000000E+00  0.00000000E+00
0.00000000E+00  0.00000000E+00  0.00000000E+00
0.00000000E+00  0.00000000E+00  0.00000000E+00
0.00000000E+00  0.00000000E+00  0.00000000E+00
0.00000000E+00  0.00000000E+00  0.00000000E+00
0.00000000E+00  0.00000000E+00  0.00000000E+00
