Nb3N2  (n=2)
1.00000000000000
3.2060381613643179  0.0000000000000002  0.0000000000000000
-1.6030190806821591  2.7765104936458749  0.0000000000000000
-0.0000000000000002  0.0000000000000003  33.3297063490576022
Nb  N  S
3  2  2
Selective  dynamics
Direct
-0.0000000000000000  -0.0000000000000000  0.0490890111212744  T  T  T
0.6666666666666643  0.3333333333333357  0.1286685831292729  T  T  T
0.3333333333333357  0.6666666666666643  0.2006949627571409  T  T  T
0.3333333333333357  0.6666666666666643  0.0885761862457646  T  T  T
-0.0000000000000000  -0.0000000000000000  0.1629436607027354  T  T  T
0.3333333333333357  0.6666666666666643  0.0000000000000000  T  T  T
0.6666666666666643  0.3333333333333357  0.2499183839731948  T  T  T

0.00000000E+00  0.00000000E+00  0.00000000E+00
0.00000000E+00  0.00000000E+00  0.00000000E+00
0.00000000E+00  0.00000000E+00  0.00000000E+00
0.00000000E+00  0.00000000E+00  0.00000000E+00
0.00000000E+00  0.00000000E+00  0.00000000E+00
0.00000000E+00  0.00000000E+00  0.00000000E+00
0.00000000E+00  0.00000000E+00  0.00000000E+00
