Zr3C2  (n=2)
1.00000000000000
3.4261548197112632  0.0000000000000003  0.0000000000000000
-1.7130774098556305  2.9671371120430567  -0.0000000000000001
0.0000000000000004  -0.0000000000000026  33.6097283723589015
Zr  C  S
3  2  2
Selective  dynamics
Direct
0.0000000000000000  0.0000000000000000  0.0480805119311248  T  T  T
0.6666666666666643  0.3333333333333357  0.1285337296667376  T  T  T
0.3333333333333357  0.6666666666666643  0.2086021970736109  T  T  T
0.3333333333333357  0.6666666666666643  0.0895845407552664  T  T  T
0.0000000000000000  0.0000000000000000  0.1694396579916777  T  T  T
0.3333333333333357  0.6666666666666643  0.0000000000000000  T  T  T
0.6666666666666643  0.3333333333333357  0.2561677463433372  T  T  T

0.00000000E+00  0.00000000E+00  0.00000000E+00
0.00000000E+00  0.00000000E+00  0.00000000E+00
0.00000000E+00  0.00000000E+00  0.00000000E+00
0.00000000E+00  0.00000000E+00  0.00000000E+00
0.00000000E+00  0.00000000E+00  0.00000000E+00
0.00000000E+00  0.00000000E+00  0.00000000E+00
0.00000000E+00  0.00000000E+00  0.00000000E+00
