Hf3C2  (n=2)
1.00000000000000
3.3776084369171082  0.0000000000000003  -0.0000000000000000
-1.6888042184585537  2.9250947112475543  -0.0000000000000001
-0.0000000000000000  -0.0000000000000023  33.4985283504113909
Hf  C  S
3  2  2
Selective  dynamics
Direct
-0.0000000000000000  -0.0000000000000000  0.0478957327533203  T  T  T
0.6666666666666643  0.3333333333333357  0.1273267067369174  T  T  T
0.3333333333333357  0.6666666666666643  0.2063796405245897  T  T  T
0.3333333333333357  0.6666666666666643  0.0889343649663393  T  T  T
0.0000000000000000  0.0000000000000000  0.1678156956438682  T  T  T
0.3333333333333357  0.6666666666666643  0.0000000000000000  T  T  T
0.6666666666666643  0.3333333333333357  0.2536985583818049  T  T  T

0.00000000E+00  0.00000000E+00  0.00000000E+00
0.00000000E+00  0.00000000E+00  0.00000000E+00
0.00000000E+00  0.00000000E+00  0.00000000E+00
0.00000000E+00  0.00000000E+00  0.00000000E+00
0.00000000E+00  0.00000000E+00  0.00000000E+00
0.00000000E+00  0.00000000E+00  0.00000000E+00
0.00000000E+00  0.00000000E+00  0.00000000E+00
