Nb3C2  (n=2)
1.00000000000000
3.2467916139031177  -0.0000000000000000  0.0000000000000000
-1.6233958069515591  2.8118040190063271  -0.0000000000000003
0.0000000000000001  -0.0000000000000026  33.3371697181025013
Nb  C  S
3  2  2
Selective  dynamics
Direct
-0.0000000000000000  -0.0000000000000000  0.0504796060879446  T  T  T
0.6666666666666643  0.3333333333333357  0.1265861689454072  T  T  T
0.3333333333333357  0.6666666666666643  0.2008970706652549  T  T  T
0.3333333333333357  0.6666666666666643  0.0866806194496910  T  T  T
0.0000000000000000  0.0000000000000000  0.1643438728869159  T  T  T
0.3333333333333357  0.6666666666666643  0.0000000000000000  T  T  T
0.6666666666666643  0.3333333333333357  0.2500863087239021  T  T  T

0.00000000E+00  0.00000000E+00  0.00000000E+00
0.00000000E+00  0.00000000E+00  0.00000000E+00
0.00000000E+00  0.00000000E+00  0.00000000E+00
0.00000000E+00  0.00000000E+00  0.00000000E+00
0.00000000E+00  0.00000000E+00  0.00000000E+00
0.00000000E+00  0.00000000E+00  0.00000000E+00
0.00000000E+00  0.00000000E+00  0.00000000E+00
