Sc3C2  (n=2)
1.00000000000000
3.6666367997286371  0.0000000000000000  0.0000000000000000
-1.8333183998643185  3.1754006158861450  0.0000000000000001
-0.0000000000000001  0.0000000000000014  32.2180515614910732
Sc  C  S
3  2  2
Selective  dynamics
Direct
0.0000000000000000  0.0000000000000000  0.0385761049000093  T  T  T
0.6666666666666643  0.3333333333333357  0.1091494402570930  T  T  T
0.3333333333333357  0.6666666666666643  0.1837392410669647  T  T  T
0.3333333333333357  0.6666666666666643  0.0619816713857496  T  T  T
0.0000000000000000  0.0000000000000000  0.1397830885854804  T  T  T
0.3333333333333357  0.6666666666666643  0.0000000000000000  T  T  T
0.6666666666666643  0.3333333333333357  0.2240374948719282  T  T  T

0.00000000E+00  0.00000000E+00  0.00000000E+00
0.00000000E+00  0.00000000E+00  0.00000000E+00
0.00000000E+00  0.00000000E+00  0.00000000E+00
0.00000000E+00  0.00000000E+00  0.00000000E+00
0.00000000E+00  0.00000000E+00  0.00000000E+00
0.00000000E+00  0.00000000E+00  0.00000000E+00
0.00000000E+00  0.00000000E+00  0.00000000E+00
