Nb2C  (n=1)
1.00000000000000
2.9928492731397656  0.0000000000000000  0.0000000000000000
-1.4964246365698828  2.5918835002904186  0.0000000000000000
0.0000000000000001  0.0000000000000001  30.5703465204308458
Nb  C  F
2  1  2
Selective  dynamics
Direct
-0.0000000000000000  0.0000000000000000  0.0470290111640029  T  T  T
0.6666666666666643  0.3333333333333357  0.1351850346175215  T  T  T
0.3333333333333357  0.6666666666666643  0.0911070228907580  T  T  T
0.3333333333333357  0.6666666666666643  0.0000000000000000  T  T  T
0.3333333333333357  0.6666666666666643  0.1822140457815243  T  T  T

0.00000000E+00  0.00000000E+00  0.00000000E+00
0.00000000E+00  0.00000000E+00  0.00000000E+00
0.00000000E+00  0.00000000E+00  0.00000000E+00
0.00000000E+00  0.00000000E+00  0.00000000E+00
0.00000000E+00  0.00000000E+00  0.00000000E+00
