Sc2N
1.00000000000000
3.0757511981895331  0.0000000000000001  0.0000000000000002
-1.5378755990947668  2.6636786733932074  0.0000000000000000
0.0000000000000000  0.0000000000000002  30.1805307715612692
Sc  N  F
2  1  2
Selective  dynamics
Direct
0.0000000000000000  0.0000000000000000  0.0430580655719085  T  T  T
0.6666666666666643  0.3333333333333357  0.1285933480752900  T  T  T
0.3333333333333357  0.6666666666666643  0.0858257068235993  T  T  T
0.3333333333333357  0.6666666666666643  0.0000000000000000  T  T  T
0.3333333333333357  0.6666666666666643  0.1716514136471986  T  T  T

0.00000000E+00  0.00000000E+00  0.00000000E+00
0.00000000E+00  0.00000000E+00  0.00000000E+00
0.00000000E+00  0.00000000E+00  0.00000000E+00
0.00000000E+00  0.00000000E+00  0.00000000E+00
0.00000000E+00  0.00000000E+00  0.00000000E+00
