Nb2N  (n=1)
1.00000000000000
2.9423111197350633  0.0000000000000000  0.0000000000000000
-1.4711555598675317  2.5481161755920887  0.0000000000000000
0.0000000000000000  0.0000000000000001  30.7183905184080430
Nb  N  F
2  1  2
Selective  dynamics
Direct
-0.0000000000000000  0.0000000000000000  0.0482035961902510  T  T  T
0.6666666666666643  0.3333333333333357  0.1379516815408947  T  T  T
0.3333333333333357  0.6666666666666643  0.0930776388655729  T  T  T
0.3333333333333357  0.6666666666666643  0.0000000000000000  T  T  T
0.3333333333333357  0.6666666666666643  0.1861552777311457  T  T  T

0.00000000E+00  0.00000000E+00  0.00000000E+00
0.00000000E+00  0.00000000E+00  0.00000000E+00
0.00000000E+00  0.00000000E+00  0.00000000E+00
0.00000000E+00  0.00000000E+00  0.00000000E+00
0.00000000E+00  0.00000000E+00  0.00000000E+00
