Ta2N  (n=1)
1.00000000000000
2.9186504351681015  0.0000000000000000  0.0000000000000000
-1.4593252175840508  2.5276254216899878  0.0000000000000000
0.0000000000000000  -0.0000000000000002  30.7631417573178609
Ta  N  F
2  1  2
Selective  dynamics
Direct
-0.0000000000000000  0.0000000000000000  0.0486959849685058  T  T  T
0.6666666666666643  0.3333333333333357  0.1386431952355753  T  T  T
0.3333333333333357  0.6666666666666643  0.0936695901020404  T  T  T
0.3333333333333357  0.6666666666666643  0.0000000000000000  T  T  T
0.3333333333333357  0.6666666666666643  0.1873391802040811  T  T  T

0.00000000E+00  0.00000000E+00  0.00000000E+00
0.00000000E+00  0.00000000E+00  0.00000000E+00
0.00000000E+00  0.00000000E+00  0.00000000E+00
0.00000000E+00  0.00000000E+00  0.00000000E+00
0.00000000E+00  0.00000000E+00  0.00000000E+00
