Mo2N  (n=1)
1.00000000000000
2.9512412400397192  0.0000000000000001  0.0000000000000000
-1.4756206200198594  2.5558498660559916  0.0000000000000000
0.0000000000000001  0.0000000000000000  30.4414003546389225
Mo  N  F
2  1  2
Selective  dynamics
Direct
0.0000000000000000  -0.0000000000000000  0.0497829286588469  T  T  T
0.6666666666000012  0.3333333332999970  0.1289670726961241  T  T  T
0.3333333332999970  0.6666666666000012  0.0893750006774855  T  T  T
0.3333333332999970  0.6666666666000012  0.0000000000000000  T  T  T
0.3333333332999970  0.6666666666000012  0.1787500013549710  T  T  T

0.00000000E+00  0.00000000E+00  0.00000000E+00
0.00000000E+00  0.00000000E+00  0.00000000E+00
0.00000000E+00  0.00000000E+00  0.00000000E+00
0.00000000E+00  0.00000000E+00  0.00000000E+00
0.00000000E+00  0.00000000E+00  0.00000000E+00
