Zr2N  (n=1)
1.00000000000000
3.1081039547214431  0.0000000000000004  -0.0000000000000001
-1.5540519773607213  2.6916969824595145  0.0000000000000002
-0.0000000000000001  0.0000000000000008  30.5833558479907097
Zr  N  F
2  1  2
Selective  dynamics
Direct
0.0000000000000000  -0.0000000000000000  0.0463870527450203  T  T  T
0.6666666666666643  0.3333333333333357  0.1361748569336318  T  T  T
0.3333333333333357  0.6666666666666643  0.0912809548393220  T  T  T
0.3333333333333357  0.6666666666666643  0.0000000000000000  T  T  T
0.3333333333333357  0.6666666666666643  0.1825619096786441  T  T  T

0.00000000E+00  0.00000000E+00  0.00000000E+00
0.00000000E+00  0.00000000E+00  0.00000000E+00
0.00000000E+00  0.00000000E+00  0.00000000E+00
0.00000000E+00  0.00000000E+00  0.00000000E+00
0.00000000E+00  0.00000000E+00  0.00000000E+00
