Cr2C  (n=1)
1.00000000000000
2.7283262482427060  0.0000000000000000  0.0000000000000000
-1.3641631241213530  2.3627998407958728  0.0000000000000000
0.0000000000000001  -0.0000000000000003  30.1152537596619574
Cr  C  F
2  1  2
Selective  dynamics
Direct
-0.0000000000000000  0.0000000000000000  0.0452809874270291  T  T  T
0.6666666666666643  0.3333333333333357  0.1245749201633501  T  T  T
0.3333333333333357  0.6666666666666643  0.0849279537951936  T  T  T
0.3333333333333357  0.6666666666666643  0.0000000000000000  T  T  T
0.3333333333333357  0.6666666666666643  0.1698559075903791  T  T  T

0.00000000E+00  0.00000000E+00  0.00000000E+00
0.00000000E+00  0.00000000E+00  0.00000000E+00
0.00000000E+00  0.00000000E+00  0.00000000E+00
0.00000000E+00  0.00000000E+00  0.00000000E+00
0.00000000E+00  0.00000000E+00  0.00000000E+00
