Ti2N  (n=1)
1.00000000000000
2.8549224088169827  0.0000000000000000  0.0000000000000000
-1.4274612044084913  2.4724353319052756  0.0000000000000000
-0.0000000000000001  0.0000000000000000  30.1841528889689314
Ti  N  F
2  1  2
Selective  dynamics
Direct
-0.0000000000000000  -0.0000000000000000  0.0441103705880829  T  T  T
0.6666666666666643  0.3333333333333357  0.1276404454125716  T  T  T
0.3333333333333357  0.6666666666666643  0.0858754080003273  T  T  T
0.3333333333333357  0.6666666666666643  0.0000000000000000  T  T  T
0.3333333333333357  0.6666666666666643  0.1717508160006546  T  T  T

0.00000000E+00  0.00000000E+00  0.00000000E+00
0.00000000E+00  0.00000000E+00  0.00000000E+00
0.00000000E+00  0.00000000E+00  0.00000000E+00
0.00000000E+00  0.00000000E+00  0.00000000E+00
0.00000000E+00  0.00000000E+00  0.00000000E+00
