Mo2C  (n=1)
1.00000000000000
2.9574637786482851  0.0000000000000001  0.0000000000000000
-1.4787318893241428  2.5612387631433204  0.0000000000000000
-0.0000000000000001  0.0000000000000001  30.4604876313187916
Mo  C  F
2  1  2
Selective  dynamics
Direct
0.0000000000000000  -0.0000000000000000  0.0502749014627597  T  T  T
0.6666666666666643  0.3333333333333357  0.1289897149613201  T  T  T
0.3333333333333357  0.6666666666666643  0.0896323082120399  T  T  T
0.3333333333333357  0.6666666666666643  0.0000000000000000  T  T  T
0.3333333333333357  0.6666666666666643  0.1792646164240799  T  T  T

0.00000000E+00  0.00000000E+00  0.00000000E+00
0.00000000E+00  0.00000000E+00  0.00000000E+00
0.00000000E+00  0.00000000E+00  0.00000000E+00
0.00000000E+00  0.00000000E+00  0.00000000E+00
0.00000000E+00  0.00000000E+00  0.00000000E+00
