Cr2N  (n=1)
1.00000000000000
2.8396503829510560  -0.0000000000000001  0.0000000000000000
-1.4198251914755280  2.4592093695596584  0.0000000000000000
0.0000000000000001  0.0000000000000000  30.0089550389161843
Cr  N  F
2  1  2
Selective  dynamics
Direct
0.0000000000000000  0.0000000000000000  0.0451939346081609  T  T  T
0.6666666666666643  0.3333333333333357  0.1217214089091483  T  T  T
0.3333333333333357  0.6666666666666643  0.0834576717586508  T  T  T
0.3333333333333357  0.6666666666666643  0.0000000000000000  T  T  T
0.3333333333333357  0.6666666666666643  0.1669153435173092  T  T  T

0.00000000E+00  0.00000000E+00  0.00000000E+00
0.00000000E+00  0.00000000E+00  0.00000000E+00
0.00000000E+00  0.00000000E+00  0.00000000E+00
0.00000000E+00  0.00000000E+00  0.00000000E+00
0.00000000E+00  0.00000000E+00  0.00000000E+00
