Sc2C  (n=1)
1.00000000000000
3.1506539675898493  0.0000000000000000  0.0000000000000000
-1.5753269837949246  2.7285463745353233  0.0000000000000000
-0.0000000000000001  0.0000000000000000  30.2493809791577490
Sc  C  F
2  1  2
Selective  dynamics
Direct
0.0000000000000000  -0.0000000000000000  0.0429422316380501  T  T  T
0.6666666666666643  0.3333333333333357  0.1305945750415525  T  T  T
0.3333333333333357  0.6666666666666643  0.0867684033398055  T  T  T
0.3333333333333357  0.6666666666666643  0.0000000000000000  T  T  T
0.3333333333333357  0.6666666666666643  0.1735368066796028  T  T  T

0.00000000E+00  0.00000000E+00  0.00000000E+00
0.00000000E+00  0.00000000E+00  0.00000000E+00
0.00000000E+00  0.00000000E+00  0.00000000E+00
0.00000000E+00  0.00000000E+00  0.00000000E+00
0.00000000E+00  0.00000000E+00  0.00000000E+00
