Zr2C  (n=1)
1.00000000000000
3.1951931768175448  -0.0000000000000007  0.0000000000000003
-1.5975965884087726  2.7671184612012905  -0.0000000000000001
0.0000000000000011  -0.0000000000000013  30.4554705752077126
Zr  C  F
2  1  2
Selective  dynamics
Direct
-0.0000000000000000  -0.0000000000000000  0.0464407766125333  T  T  T
0.6666666666666643  0.3333333333333357  0.1326886366643293  T  T  T
0.3333333333333357  0.6666666666666643  0.0895647066384313  T  T  T
0.3333333333333357  0.6666666666666643  0.0000000000000000  T  T  T
0.3333333333333357  0.6666666666666643  0.1791294132768626  T  T  T

0.00000000E+00  0.00000000E+00  0.00000000E+00
0.00000000E+00  0.00000000E+00  0.00000000E+00
0.00000000E+00  0.00000000E+00  0.00000000E+00
0.00000000E+00  0.00000000E+00  0.00000000E+00
0.00000000E+00  0.00000000E+00  0.00000000E+00
