Ta2C  (n=1)
1.00000000000000
2.9614640877629395  0.0000000000000001  0.0000000000000002
-1.4807320438814697  2.5647031324578520  -0.0000000000000007
0.0000000000000013  -0.0000000000000019  30.6395429486008943
Ta  C  F
2  1  2
Selective  dynamics
Direct
0.0000000000000000  0.0000000000000000  0.0473127816063183  T  T  T
0.6666666666666643  0.3333333333333357  0.1367481542262254  T  T  T
0.3333333333333357  0.6666666666666643  0.0920304679162718  T  T  T
0.3333333333333357  0.6666666666666643  0.0000000000000000  T  T  T
0.3333333333333357  0.6666666666666643  0.1840609358325436  T  T  T

0.00000000E+00  0.00000000E+00  0.00000000E+00
0.00000000E+00  0.00000000E+00  0.00000000E+00
0.00000000E+00  0.00000000E+00  0.00000000E+00
0.00000000E+00  0.00000000E+00  0.00000000E+00
0.00000000E+00  0.00000000E+00  0.00000000E+00
