Hf2C  (n=1)
1.00000000000000
3.1406484798747716  0.0000000000000004  0.0000000000000001
-1.5703242399373858  2.7198813680019249  0.0000000000000000
0.0000000000000007  -0.0000000000000028  30.4092865797135694
Hf  C  F
2  1  2
Selective  dynamics
Direct
-0.0000000000000000  -0.0000000000000000  0.0464885920678306  T  T  T
0.6666666666666643  0.3333333333333357  0.1313941269342790  T  T  T
0.3333333333333357  0.6666666666666643  0.0889413595010548  T  T  T
0.3333333333333357  0.6666666666666643  0.0000000000000000  T  T  T
0.3333333333333357  0.6666666666666643  0.1778827190021016  T  T  T

0.00000000E+00  0.00000000E+00  0.00000000E+00
0.00000000E+00  0.00000000E+00  0.00000000E+00
0.00000000E+00  0.00000000E+00  0.00000000E+00
0.00000000E+00  0.00000000E+00  0.00000000E+00
0.00000000E+00  0.00000000E+00  0.00000000E+00
