Hf2N  (n=1)
1.00000000000000
3.0477508425889215  -0.0000000000000002  0.0000000000000000
-1.5238754212944610  2.6394296541327158  0.0000000000000000
0.0000000000000002  -0.0000000000000004  30.5654531336811388
Hf  N  F
2  1  2
Selective  dynamics
Direct
-0.0000000000000000  -0.0000000000000000  0.0464589934636908  T  T  T
0.6666666666666643  0.3333333333333357  0.1356241285937613  T  T  T
0.3333333333333357  0.6666666666666643  0.0910415610287260  T  T  T
0.3333333333333357  0.6666666666666643  0.0000000000000000  T  T  T
0.3333333333333357  0.6666666666666643  0.1820831220574438  T  T  T

0.00000000E+00  0.00000000E+00  0.00000000E+00
0.00000000E+00  0.00000000E+00  0.00000000E+00
0.00000000E+00  0.00000000E+00  0.00000000E+00
0.00000000E+00  0.00000000E+00  0.00000000E+00
0.00000000E+00  0.00000000E+00  0.00000000E+00
