Ti2C  (n=1)
1.00000000000000
2.9341007060036368  -0.0000000000000001  0.0000000000000000
-1.4670503530018184  2.5410057486887165  0.0000000000000000
0.0000000000000001  0.0000000000000002  30.0978538110737901
Ti  C  F
2  1  2
Selective  dynamics
Direct
0.0000000000000000  0.0000000000000000  0.0443212279881903  T  T  T
0.6666666666666643  0.3333333333333357  0.1250547628407026  T  T  T
0.3333333333333357  0.6666666666666643  0.0846879954144464  T  T  T
0.3333333333333357  0.6666666666666643  0.0000000000000000  T  T  T
0.3333333333333357  0.6666666666666643  0.1693759908288928  T  T  T

0.00000000E+00  0.00000000E+00  0.00000000E+00
0.00000000E+00  0.00000000E+00  0.00000000E+00
0.00000000E+00  0.00000000E+00  0.00000000E+00
0.00000000E+00  0.00000000E+00  0.00000000E+00
0.00000000E+00  0.00000000E+00  0.00000000E+00
