Nb2N  (n=1)
1.00000000000000
3.3475173500099444  -0.0000000000000000  -0.0000000000000000
-1.6737586750049724  2.8990350650583010  0.0000000000000000
-0.0000000000000002  -0.0000000000000002  30.8487738754213687
Nb  N  Se
2  1  2
Selective  dynamics
Direct
-0.0000000000000000  -0.0000000000000000  0.0587486462947306  T  T  T
0.6666666666666643  0.3333333333333357  0.1308463729122192  T  T  T
0.3333333333333357  0.6666666666666643  0.0947975096034749  T  T  T
0.6666666666666643  0.3333333333333357  0.0000000000000000  T  T  T
-0.0000000000000000  -0.0000000000000000  0.1895950192069499  T  T  T

0.00000000E+00  0.00000000E+00  0.00000000E+00
0.00000000E+00  0.00000000E+00  0.00000000E+00
0.00000000E+00  0.00000000E+00  0.00000000E+00
0.00000000E+00  0.00000000E+00  0.00000000E+00
0.00000000E+00  0.00000000E+00  0.00000000E+00
