Ta2C  (n=1)
1.00000000000000
3.3327130208087499  0.0000000000000001  0.0000000000000009
-1.6663565104043747  2.8862141399275547  -0.0000000000000024
0.0000000000000088  -0.0000000000000208  30.9048471889146832
Ta  C  Se
2  1  2
Selective  dynamics
Direct
-0.0000000000000000  -0.0000000000000000  0.0578642029812405  T  T  T
0.6666666666666643  0.3333333333333357  0.1332012034522430  T  T  T
0.3333333333333357  0.6666666666666643  0.0955327032167417  T  T  T
0.6666666666666643  0.3333333333333357  0.0000000000000000  T  T  T
-0.0000000000000000  -0.0000000000000000  0.1910654064334835  T  T  T

0.00000000E+00  0.00000000E+00  0.00000000E+00
0.00000000E+00  0.00000000E+00  0.00000000E+00
0.00000000E+00  0.00000000E+00  0.00000000E+00
0.00000000E+00  0.00000000E+00  0.00000000E+00
0.00000000E+00  0.00000000E+00  0.00000000E+00
