Sc2C  (n=1)
1.00000000000000
3.3347882120340211  0.0000000000000000  0.0000000000000000
-1.6673941060170105  2.8880113077350993  -0.0000000000000000
-0.0000000000000002  -0.0000000000000000  31.5778914796769712
Sc  C  Se
2  1  2
Selective  dynamics
Direct
0.0000000000000000  -0.0000000000000000  0.0640011454370557  T  T  T
0.6666666666666643  0.3333333333333357  0.1443057164669572  T  T  T
0.3333333333333357  0.6666666666666643  0.1041534309520103  T  T  T
0.6666666666666643  0.3333333333333357  0.0000000000000000  T  T  T
-0.0000000000000000  0.0000000000000000  0.2083068619040128  T  T  T

0.00000000E+00  0.00000000E+00  0.00000000E+00
0.00000000E+00  0.00000000E+00  0.00000000E+00
0.00000000E+00  0.00000000E+00  0.00000000E+00
0.00000000E+00  0.00000000E+00  0.00000000E+00
0.00000000E+00  0.00000000E+00  0.00000000E+00
