Hf2C  (n=1)
1.00000000000000
3.4568378798773138  0.0000000000000016  0.0000000000000000
-1.7284189399386560  2.9937094211413209  -0.0000000000000005
-0.0000000000000001  -0.0000000000000084  31.1127014978793568
Hf  C  Se
2  1  2
Selective  dynamics
Direct
-0.0000000000000000  -0.0000000000000000  0.0568104060504026  T  T  T
0.6666666666666643  0.3333333333333357  0.1396592415080460  T  T  T
0.3333333333333357  0.6666666666666643  0.0982348237792242  T  T  T
0.6666666666666643  0.3333333333333357  0.0000000000000000  T  T  T
0.0000000000000000  0.0000000000000000  0.1964696475584417  T  T  T

0.00000000E+00  0.00000000E+00  0.00000000E+00
0.00000000E+00  0.00000000E+00  0.00000000E+00
0.00000000E+00  0.00000000E+00  0.00000000E+00
0.00000000E+00  0.00000000E+00  0.00000000E+00
0.00000000E+00  0.00000000E+00  0.00000000E+00
