Cr2C  (n=1)
1.00000000000000
3.1142850664785131  0.0000000000000000  0.0000000000000000
-1.5571425332392566  2.6970499822369631  0.0000000000000000
0.0000000000000000  -0.0000000000000002  30.3533663568792917
Cr  C  Se
2  1  2
Selective  dynamics
Direct
0.0000000000000000  -0.0000000000000000  0.0569622885204666  T  T  T
0.6666666666666643  0.3333333333333357  0.1194058379646540  T  T  T
0.3333333333333357  0.6666666666666643  0.0881840632425634  T  T  T
0.6666666666666643  0.3333333333333357  0.0000000000000000  T  T  T
0.0000000000000000  0.0000000000000000  0.1763681264851206  T  T  T

0.00000000E+00  0.00000000E+00  0.00000000E+00
0.00000000E+00  0.00000000E+00  0.00000000E+00
0.00000000E+00  0.00000000E+00  0.00000000E+00
0.00000000E+00  0.00000000E+00  0.00000000E+00
0.00000000E+00  0.00000000E+00  0.00000000E+00
