Hf2N  (n=1)
1.00000000000000
3.4353338194691432  -0.0000000000000022  -0.0000000000000000
-1.7176669097345734  2.9750863585461063  0.0000000000000000
-0.0000000000000003  0.0000000000000003  30.9806672831332044
Hf  N  Se
2  1  2
Selective  dynamics
Direct
0.0000000000000000  0.0000000000000000  0.0564445510258261  T  T  T
0.6666666666666643  0.3333333333333357  0.1366005899479275  T  T  T
0.3333333333333357  0.6666666666666643  0.0965225704868768  T  T  T
0.6666666666666643  0.3333333333333357  0.0000000000000000  T  T  T
-0.0000000000000000  0.0000000000000000  0.1930451409737471  T  T  T

0.00000000E+00  0.00000000E+00  0.00000000E+00
0.00000000E+00  0.00000000E+00  0.00000000E+00
0.00000000E+00  0.00000000E+00  0.00000000E+00
0.00000000E+00  0.00000000E+00  0.00000000E+00
0.00000000E+00  0.00000000E+00  0.00000000E+00
