Nb2C  (n=1)
1.00000000000000
3.3354217328735127  -0.0000000000000001  -0.0000000000000000
-1.6677108664367564  2.8885599534464914  0.0000000000000000
0.0000000000000000  0.0000000000000000  30.9694719661043365
Nb  C  Se
2  1  2
Selective  dynamics
Direct
0.0000000000000000  -0.0000000000000000  0.0583598728650684  T  T  T
0.6666666666666643  0.3333333333333357  0.1343935577597043  T  T  T
0.3333333333333357  0.6666666666666643  0.0963767153123828  T  T  T
0.6666666666666643  0.3333333333333357  0.0000000000000000  T  T  T
0.0000000000000000  -0.0000000000000000  0.1927534306247727  T  T  T

0.00000000E+00  0.00000000E+00  0.00000000E+00
0.00000000E+00  0.00000000E+00  0.00000000E+00
0.00000000E+00  0.00000000E+00  0.00000000E+00
0.00000000E+00  0.00000000E+00  0.00000000E+00
0.00000000E+00  0.00000000E+00  0.00000000E+00
