Sc2N
1.00000000000000
3.3658497857827516  -0.0000000000000004  0.0000000000000007
-1.6829248928913763  2.9149114201281243  0.0000000000000000
0.0000000000000058  0.0000000000000038  31.2145986445473866
Sc  N  Se
2  1  2
Selective  dynamics
Direct
0.0000000000000000  0.0000000000000000  0.0592650332297439  T  T  T
0.6666666666666643  0.3333333333333357  0.1398276642390081  T  T  T
0.3333333333333357  0.6666666666666643  0.0995463487343761  T  T  T
0.6666666666666643  0.3333333333333357  0.0000000000000000  T  T  T
-0.0000000000000000  0.0000000000000000  0.1990926974687519  T  T  T

0.00000000E+00  0.00000000E+00  0.00000000E+00
0.00000000E+00  0.00000000E+00  0.00000000E+00
0.00000000E+00  0.00000000E+00  0.00000000E+00
0.00000000E+00  0.00000000E+00  0.00000000E+00
0.00000000E+00  0.00000000E+00  0.00000000E+00
