Mo2C  (n=1)
1.00000000000000
3.3361145278347442  0.0000000000000005  0.0000000000000000
-1.6680572639173714  2.8891599313018870  -0.0000000000000000
0.0000000000000003  -0.0000000000000000  30.5833244289924089
Mo  C  Se
2  1  2
Selective  dynamics
Direct
0.0000000000000000  0.0000000000000000  0.0584379142270283  T  T  T
0.6666666666666643  0.3333333333333357  0.1241231556774431  T  T  T
0.3333333333333357  0.6666666666666643  0.0912805349522357  T  T  T
0.6666666666666643  0.3333333333333357  0.0000000000000000  T  T  T
0.0000000000000000  0.0000000000000000  0.1825610699044713  T  T  T

0.00000000E+00  0.00000000E+00  0.00000000E+00
0.00000000E+00  0.00000000E+00  0.00000000E+00
0.00000000E+00  0.00000000E+00  0.00000000E+00
0.00000000E+00  0.00000000E+00  0.00000000E+00
0.00000000E+00  0.00000000E+00  0.00000000E+00
