Ti2N  (n=1)
1.00000000000000
3.2242072993501090  -0.0000000000000001  0.0000000000000000
-1.6121036496750545  2.7922454285332350  0.0000000000000000
0.0000000000000000  -0.0000000000000001  30.7287451325547423
Ti  N  Se
2  1  2
Selective  dynamics
Direct
-0.0000000000000000  -0.0000000000000000  0.0564305205819140  T  T  T
0.6666666666666643  0.3333333333333357  0.1299989970519050  T  T  T
0.3333333333333357  0.6666666666666643  0.0932147588169095  T  T  T
0.6666666666666643  0.3333333333333357  0.0000000000000000  T  T  T
-0.0000000000000000  0.0000000000000000  0.1864295176338190  T  T  T

0.00000000E+00  0.00000000E+00  0.00000000E+00
0.00000000E+00  0.00000000E+00  0.00000000E+00
0.00000000E+00  0.00000000E+00  0.00000000E+00
0.00000000E+00  0.00000000E+00  0.00000000E+00
0.00000000E+00  0.00000000E+00  0.00000000E+00
