Ti2C  (n=1)
1.00000000000000
3.2340262764812002  0.0000000000000000  0.0000000000000000
-1.6170131382406001  2.8007489122227129  -0.0000000000000000
0.0000000000000002  -0.0000000000000004  30.8604132750591127
Ti  C  Se
2  1  2
Selective  dynamics
Direct
-0.0000000000000000  -0.0000000000000000  0.0568398886588799  T  T  T
0.6666666666666643  0.3333333333333357  0.1330607851533986  T  T  T
0.3333333333333357  0.6666666666666643  0.0949503369061393  T  T  T
0.6666666666666643  0.3333333333333357  0.0000000000000000  T  T  T
-0.0000000000000000  -0.0000000000000000  0.1899006738122786  T  T  T

0.00000000E+00  0.00000000E+00  0.00000000E+00
0.00000000E+00  0.00000000E+00  0.00000000E+00
0.00000000E+00  0.00000000E+00  0.00000000E+00
0.00000000E+00  0.00000000E+00  0.00000000E+00
0.00000000E+00  0.00000000E+00  0.00000000E+00
