Cr2N  (n=1)
1.00000000000000
3.1133525552415580  0.0000000000000000  -0.0000000000000000
-1.5566762776207790  2.6962424039449333  0.0000000000000000
-0.0000000000000002  0.0000000000000000  30.2789999678824948
Cr  N  Se
2  1  2
Selective  dynamics
Direct
-0.0000000000000000  -0.0000000000000000  0.0578052436730080  T  T  T
0.6666666666666643  0.3333333333333357  0.1165400112390443  T  T  T
0.3333333333333357  0.6666666666666643  0.0871726274560229  T  T  T
0.6666666666666643  0.3333333333333357  0.0000000000000000  T  T  T
0.0000000000000000  -0.0000000000000000  0.1743452549120523  T  T  T

0.00000000E+00  0.00000000E+00  0.00000000E+00
0.00000000E+00  0.00000000E+00  0.00000000E+00
0.00000000E+00  0.00000000E+00  0.00000000E+00
0.00000000E+00  0.00000000E+00  0.00000000E+00
0.00000000E+00  0.00000000E+00  0.00000000E+00
