Zr2C  (n=1)
1.00000000000000
3.4972951092458442  -0.0000000000000025  0.0000000000000008
-1.7486475546229236  3.0287464095603522  -0.0000000000000004
0.0000000000000067  -0.0000000000000025  31.1974803334833197
Zr  C  Se
2  1  2
Selective  dynamics
Direct
0.0000000000000000  -0.0000000000000000  0.0572535749174092  T  T  T
0.6666666666666643  0.3333333333333357  0.1413996582038486  T  T  T
0.3333333333333357  0.6666666666666643  0.0993266165606290  T  T  T
0.6666666666666643  0.3333333333333357  0.0000000000000000  T  T  T
-0.0000000000000000  0.0000000000000000  0.1986532331212579  T  T  T

0.00000000E+00  0.00000000E+00  0.00000000E+00
0.00000000E+00  0.00000000E+00  0.00000000E+00
0.00000000E+00  0.00000000E+00  0.00000000E+00
0.00000000E+00  0.00000000E+00  0.00000000E+00
0.00000000E+00  0.00000000E+00  0.00000000E+00
