Ta2N  (n=1)
1.00000000000000
3.3566257925609726  0.0000000000000000  0.0000000000000000
-1.6783128962804863  2.9069232077171390  -0.0000000000000000
0.0000000000000003  0.0000000000000000  30.7498697216040711
Ta  N  Se
2  1  2
Selective  dynamics
Direct
0.0000000000000000  0.0000000000000000  0.0574574680112450  T  T  T
0.6666666666666643  0.3333333333333357  0.1295309574247288  T  T  T
0.3333333333333357  0.6666666666666643  0.0934942127179869  T  T  T
0.6666666666666643  0.3333333333333357  0.0000000000000000  T  T  T
-0.0000000000000000  0.0000000000000000  0.1869884254359738  T  T  T

0.00000000E+00  0.00000000E+00  0.00000000E+00
0.00000000E+00  0.00000000E+00  0.00000000E+00
0.00000000E+00  0.00000000E+00  0.00000000E+00
0.00000000E+00  0.00000000E+00  0.00000000E+00
0.00000000E+00  0.00000000E+00  0.00000000E+00
