Mo2N  (n=1)
1.00000000000000
3.3953853256423518  -0.0000000000000001  0.0000000000000001
-1.6976926628211755  2.9404899476886146  -0.0000000000000002
0.0000000000000000  -0.0000000000000018  30.3885101623121443
Mo  N  Se
2  1  2
Selective  dynamics
Direct
-0.0000000000000000  0.0000000000000000  0.0572768135832051  T  T  T
0.6666666666666643  0.3333333333333357  0.1200438294338810  T  T  T
0.3333333333333357  0.6666666666666643  0.0886603215085430  T  T  T
0.6666666666666643  0.3333333333333357  0.0000000000000000  T  T  T
0.0000000000000000  -0.0000000000000000  0.1773206430170761  T  T  T

0.00000000E+00  0.00000000E+00  0.00000000E+00
0.00000000E+00  0.00000000E+00  0.00000000E+00
0.00000000E+00  0.00000000E+00  0.00000000E+00
0.00000000E+00  0.00000000E+00  0.00000000E+00
0.00000000E+00  0.00000000E+00  0.00000000E+00
