Zr2N  (n=1)
1.00000000000000
3.4762525853532025  0.0000000000000011  -0.0000000000000004
-1.7381262926766006  3.0105230493091240  0.0000000000000008
-0.0000000000000035  0.0000000000000063  31.0730002673767167
Zr  N  Se
2  1  2
Selective  dynamics
Direct
-0.0000000000000000  -0.0000000000000000  0.0571423073572792  T  T  T
0.6666666666666643  0.3333333333333357  0.1383006886559806  T  T  T
0.3333333333333357  0.6666666666666643  0.0977214980066265  T  T  T
0.6666666666666643  0.3333333333333357  0.0000000000000000  T  T  T
-0.0000000000000000  0.0000000000000000  0.1954429960132530  T  T  T

0.00000000E+00  0.00000000E+00  0.00000000E+00
0.00000000E+00  0.00000000E+00  0.00000000E+00
0.00000000E+00  0.00000000E+00  0.00000000E+00
0.00000000E+00  0.00000000E+00  0.00000000E+00
0.00000000E+00  0.00000000E+00  0.00000000E+00
