Cr3C2  (n=2)
1.00000000000000
3.0068711244378106  0.0000000000000000  0.0000000000000000
-1.5034355622189053  2.6040267797052614  -0.0000000000000003
-0.0000000000000002  -0.0000000000000032  32.5182147597077602
Cr  C  S
3  2  2
Selective  dynamics
Direct
0.0000000000000000  -0.0000000000000000  0.0477100808771099  T  T  T
0.6666666666666643  0.3333333333333357  0.1156000539276655  T  T  T
0.3333333333333357  0.6666666666666643  0.1834900269782291  T  T  T
0.3333333333333357  0.6666666666666643  0.0802646219174269  T  T  T
-0.0000000000000000  0.0000000000000000  0.1509354859379119  T  T  T
0.6666666666666643  0.3333333333333357  0.0000000000000000  T  T  T
0.6666666666666643  0.3333333333333357  0.2312001078553466  T  T  T

0.00000000E+00  0.00000000E+00  0.00000000E+00
0.00000000E+00  0.00000000E+00  0.00000000E+00
0.00000000E+00  0.00000000E+00  0.00000000E+00
0.00000000E+00  0.00000000E+00  0.00000000E+00
0.00000000E+00  0.00000000E+00  0.00000000E+00
0.00000000E+00  0.00000000E+00  0.00000000E+00
0.00000000E+00  0.00000000E+00  0.00000000E+00
