Nb3N2  (n=2)
1.00000000000000
3.2303283656449215  0.0000000000000000  -0.0000000000000001
-1.6151641828224608  2.7975464276357798  0.0000000000000000
-0.0000000000000002  0.0000000000000000  33.2181050435170206
Nb  N  S
3  2  2
Selective  dynamics
Direct
0.0000000000000000  -0.0000000000000000  0.0490566978598689  T  T  T
0.6666666666666643  0.3333333333333357  0.1236991850189977  T  T  T
0.3333333333333357  0.6666666666666643  0.1983416721781265  T  T  T
0.3333333333333357  0.6666666666666643  0.0866727160023306  T  T  T
-0.0000000000000000  0.0000000000000000  0.1607256540356576  T  T  T
0.6666666666666643  0.3333333333333357  0.0000000000000000  T  T  T
0.6666666666666643  0.3333333333333357  0.2473983700379953  T  T  T

0.00000000E+00  0.00000000E+00  0.00000000E+00
0.00000000E+00  0.00000000E+00  0.00000000E+00
0.00000000E+00  0.00000000E+00  0.00000000E+00
0.00000000E+00  0.00000000E+00  0.00000000E+00
0.00000000E+00  0.00000000E+00  0.00000000E+00
0.00000000E+00  0.00000000E+00  0.00000000E+00
0.00000000E+00  0.00000000E+00  0.00000000E+00
