Mo3C2  (n=2)
1.00000000000000
3.1415709866145596  0.0000000000000002  0.0000000000000000
-1.5707854933072796  2.7206802824801675  -0.0000000000000000
-0.0000000000000000  0.0000000000000006  33.1977639634368415
Mo  C  S
3  2  2
Selective  dynamics
Direct
0.0000000000000000  0.0000000000000000  0.0498251433971363  T  T  T
0.6666666666666643  0.3333333333333357  0.1234686163270688  T  T  T
0.3333333333333357  0.6666666666666643  0.1971120892570085  T  T  T
0.3333333333333357  0.6666666666666643  0.0860538669892466  T  T  T
-0.0000000000000000  -0.0000000000000000  0.1608833656648984  T  T  T
0.6666666666666643  0.3333333333333357  0.0000000000000000  T  T  T
0.6666666666666643  0.3333333333333357  0.2469372326541524  T  T  T

0.00000000E+00  0.00000000E+00  0.00000000E+00
0.00000000E+00  0.00000000E+00  0.00000000E+00
0.00000000E+00  0.00000000E+00  0.00000000E+00
0.00000000E+00  0.00000000E+00  0.00000000E+00
0.00000000E+00  0.00000000E+00  0.00000000E+00
0.00000000E+00  0.00000000E+00  0.00000000E+00
0.00000000E+00  0.00000000E+00  0.00000000E+00
