Sc3N2  (n=2)
1.00000000000000
3.2712671422799735  0.0000000000000000  0.0000000000000000
-1.6356335711399868  2.8330004483448485  0.0000000000000000
0.0000000000000000  -0.0000000000000002  33.5456713299522420
Sc  N  S
3  2  2
Selective  dynamics
Direct
-0.0000000000000000  -0.0000000000000000  0.0505718185685093  T  T  T
0.6666666666666643  0.3333333333333357  0.1273736817769612  T  T  T
0.3333333333333357  0.6666666666666643  0.2041755449854208  T  T  T
0.3333333333333357  0.6666666666666643  0.0886795959939562  T  T  T
0.0000000000000000  0.0000000000000000  0.1660677675599737  T  T  T
0.6666666666666643  0.3333333333333357  0.0000000000000000  T  T  T
0.6666666666666643  0.3333333333333357  0.2547473635539376  T  T  T

0.00000000E+00  0.00000000E+00  0.00000000E+00
0.00000000E+00  0.00000000E+00  0.00000000E+00
0.00000000E+00  0.00000000E+00  0.00000000E+00
0.00000000E+00  0.00000000E+00  0.00000000E+00
0.00000000E+00  0.00000000E+00  0.00000000E+00
0.00000000E+00  0.00000000E+00  0.00000000E+00
0.00000000E+00  0.00000000E+00  0.00000000E+00
