Ti3C2  (n=2)
1.00000000000000
3.1385700387433060  0.0000000000000000  0.0000000000000000
-1.5692850193716532  2.7180813853560983  0.0000000000000000
0.0000000000000005  0.0000000000000003  33.0931200772495231
Ti  C  S
3  2  2
Selective  dynamics
Direct
0.0000000000000000  0.0000000000000000  0.0485140976502276  T  T  T
0.6666666666666643  0.3333333333333357  0.1222779849460809  T  T  T
0.3333333333333357  0.6666666666666643  0.1960418722419418  T  T  T
0.3333333333333357  0.6666666666666643  0.0841494507121800  T  T  T
-0.0000000000000000  -0.0000000000000000  0.1604065191799741  T  T  T
0.6666666666666643  0.3333333333333357  0.0000000000000000  T  T  T
0.6666666666666643  0.3333333333333357  0.2445559698921617  T  T  T

0.00000000E+00  0.00000000E+00  0.00000000E+00
0.00000000E+00  0.00000000E+00  0.00000000E+00
0.00000000E+00  0.00000000E+00  0.00000000E+00
0.00000000E+00  0.00000000E+00  0.00000000E+00
0.00000000E+00  0.00000000E+00  0.00000000E+00
0.00000000E+00  0.00000000E+00  0.00000000E+00
0.00000000E+00  0.00000000E+00  0.00000000E+00
