Zr3C2  (n=2)
1.00000000000000
3.4317632864884726  0.0000000000000000  0.0000000000000000
-1.7158816432442363  2.9719941868144613  0.0000000000000000
0.0000000000000000  -0.0000000000000042  33.5698548964822265
Zr  C  S
3  2  2
Selective  dynamics
Direct
0.0000000000000000  0.0000000000000000  0.0474646826963284  T  T  T
0.6666666666666643  0.3333333333333357  0.1276421200346066  T  T  T
0.3333333333333357  0.6666666666666643  0.2078195573728848  T  T  T
0.3333333333333357  0.6666666666666643  0.0871828551702008  T  T  T
0.0000000000000000  0.0000000000000000  0.1681013848990051  T  T  T
0.6666666666666643  0.3333333333333357  0.0000000000000000  T  T  T
0.6666666666666643  0.3333333333333357  0.2552842400692134  T  T  T

0.00000000E+00  0.00000000E+00  0.00000000E+00
0.00000000E+00  0.00000000E+00  0.00000000E+00
0.00000000E+00  0.00000000E+00  0.00000000E+00
0.00000000E+00  0.00000000E+00  0.00000000E+00
0.00000000E+00  0.00000000E+00  0.00000000E+00
0.00000000E+00  0.00000000E+00  0.00000000E+00
0.00000000E+00  0.00000000E+00  0.00000000E+00
