Mo3N2  (n=2)
1.00000000000000
2.9764328240424236  -0.0000000000000002  -0.0000000000000001
-1.4882164120212118  2.5776664385503483  0.0000000000000004
-0.0000000000000012  0.0000000000000011  33.9499187857943312
Mo  N  S
3  2  2
Selective  dynamics
Direct
0.0000000000000000  0.0000000000000000  0.0486286715432820  T  T  T
0.6666666666666643  0.3333333333333357  0.1318073755131268  T  T  T
0.3333333333333357  0.6666666666666643  0.2149925418759162  T  T  T
0.3333333333333357  0.6666666666666643  0.0920605208504182  T  T  T
0.0000000000000000  0.0000000000000000  0.1715565760607717  T  T  T
0.6666666666666643  0.3333333333333357  0.0000000000000000  T  T  T
0.6666666666666643  0.3333333333333357  0.2636212134191981  T  T  T

0.00000000E+00  0.00000000E+00  0.00000000E+00
0.00000000E+00  0.00000000E+00  0.00000000E+00
0.00000000E+00  0.00000000E+00  0.00000000E+00
0.00000000E+00  0.00000000E+00  0.00000000E+00
0.00000000E+00  0.00000000E+00  0.00000000E+00
0.00000000E+00  0.00000000E+00  0.00000000E+00
0.00000000E+00  0.00000000E+00  0.00000000E+00
