Ti3N2  (n=2)
1.00000000000000
3.1200464817971625  0.0000000000000000  0.0000000000000000
-1.5600232408985812  2.7020395143658149  -0.0000000000000001
-0.0000000000000003  -0.0000000000000019  32.8647386830178476
Ti  N  S
3  2  2
Selective  dynamics
Direct
0.0000000000000000  0.0000000000000000  0.0480387578370938  T  T  T
0.6666666666666643  0.3333333333333357  0.1196531449538278  T  T  T
0.3333333333333357  0.6666666666666643  0.1912675320705690  T  T  T
0.3333333333333357  0.6666666666666643  0.0826858646533411  T  T  T
0.0000000000000000  0.0000000000000000  0.1566204252543217  T  T  T
0.6666666666666643  0.3333333333333357  0.0000000000000000  T  T  T
0.6666666666666643  0.3333333333333357  0.2393062899076628  T  T  T

0.00000000E+00  0.00000000E+00  0.00000000E+00
0.00000000E+00  0.00000000E+00  0.00000000E+00
0.00000000E+00  0.00000000E+00  0.00000000E+00
0.00000000E+00  0.00000000E+00  0.00000000E+00
0.00000000E+00  0.00000000E+00  0.00000000E+00
0.00000000E+00  0.00000000E+00  0.00000000E+00
0.00000000E+00  0.00000000E+00  0.00000000E+00
