Sc3C2  (n=2)
1.00000000000000
3.4276208909860935  -0.0000000000000001  -0.0000000000000001
-1.7138104454930467  2.9684067669515666  -0.0000000000000001
-0.0000000000000020  0.0000000000000005  33.3968065973891441
Sc  C  S
3  2  2
Selective  dynamics
Direct
-0.0000000000000000  0.0000000000000000  0.0456092774726985  T  T  T
0.6666666666666643  0.3333333333333357  0.1257127170662715  T  T  T
0.3333333333333357  0.6666666666666643  0.2058161566598445  T  T  T
0.3333333333333357  0.6666666666666643  0.0866606638115999  T  T  T
0.0000000000000000  -0.0000000000000000  0.1647647703209355  T  T  T
0.6666666666666643  0.3333333333333357  0.0000000000000000  T  T  T
0.6666666666666643  0.3333333333333357  0.2514254341325430  T  T  T

0.00000000E+00  0.00000000E+00  0.00000000E+00
0.00000000E+00  0.00000000E+00  0.00000000E+00
0.00000000E+00  0.00000000E+00  0.00000000E+00
0.00000000E+00  0.00000000E+00  0.00000000E+00
0.00000000E+00  0.00000000E+00  0.00000000E+00
0.00000000E+00  0.00000000E+00  0.00000000E+00
0.00000000E+00  0.00000000E+00  0.00000000E+00
