Cr3N2  (n=2)
1.00000000000000
3.0365595661860416  0.0000000000000001  0.0000000000000000
-1.5182797830930208  2.6297377244513900  0.0000000000000000
0.0000000000000000  -0.0000000000000002  32.4754306270277198
Cr  N  S
3  2  2
Selective  dynamics
Direct
-0.0000000000000000  0.0000000000000000  0.0470458299476671  T  T  T
0.6666666666666643  0.3333333333333357  0.1150936335976719  T  T  T
0.3333333333333357  0.6666666666666643  0.1831414372476913  T  T  T
0.3333333333333357  0.6666666666666643  0.0800225524892164  T  T  T
-0.0000000000000000  0.0000000000000000  0.1501647147061275  T  T  T
0.6666666666666643  0.3333333333333357  0.0000000000000000  T  T  T
0.6666666666666643  0.3333333333333357  0.2301872671953512  T  T  T

0.00000000E+00  0.00000000E+00  0.00000000E+00
0.00000000E+00  0.00000000E+00  0.00000000E+00
0.00000000E+00  0.00000000E+00  0.00000000E+00
0.00000000E+00  0.00000000E+00  0.00000000E+00
0.00000000E+00  0.00000000E+00  0.00000000E+00
0.00000000E+00  0.00000000E+00  0.00000000E+00
0.00000000E+00  0.00000000E+00  0.00000000E+00
