Hf3C2  (n=2)
1.00000000000000
3.3770556614328102  0.0000000000000005  0.0000000000000000
-1.6885278307164044  2.9246159935611784  -0.0000000000000001
0.0000000000000001  -0.0000000000000027  33.4897459477281458
Hf  C  S
3  2  2
Selective  dynamics
Direct
-0.0000000000000000  -0.0000000000000000  0.0475181075094763  T  T  T
0.6666666666666643  0.3333333333333357  0.1267514235697578  T  T  T
0.3333333333333357  0.6666666666666643  0.2059847396300393  T  T  T
0.3333333333333357  0.6666666666666643  0.0866280607126741  T  T  T
-0.0000000000000000  -0.0000000000000000  0.1668747864268341  T  T  T
0.6666666666666643  0.3333333333333357  0.0000000000000000  T  T  T
0.6666666666666643  0.3333333333333357  0.2535028471395157  T  T  T

0.00000000E+00  0.00000000E+00  0.00000000E+00
0.00000000E+00  0.00000000E+00  0.00000000E+00
0.00000000E+00  0.00000000E+00  0.00000000E+00
0.00000000E+00  0.00000000E+00  0.00000000E+00
0.00000000E+00  0.00000000E+00  0.00000000E+00
0.00000000E+00  0.00000000E+00  0.00000000E+00
0.00000000E+00  0.00000000E+00  0.00000000E+00
