Zr3N2  (n=2)
1.00000000000000
3.3912535452364065  -0.0000000000000001  0.0000000000000000
-1.6956267726182035  2.9369117216947251  0.0000000000000000
-0.0000000000000001  0.0000000000000001  33.3734298665464735
Zr  N  S
3  2  2
Selective  dynamics
Direct
0.0000000000000000  0.0000000000000000  0.0481233265738290  T  T  T
0.6666666666666643  0.3333333333333357  0.1254505440410176  T  T  T
0.3333333333333357  0.6666666666666643  0.2027777615082202  T  T  T
0.3333333333333357  0.6666666666666643  0.0859192316118226  T  T  T
0.0000000000000000  0.0000000000000000  0.1649818564702195  T  T  T
0.6666666666666643  0.3333333333333357  0.0000000000000000  T  T  T
0.6666666666666643  0.3333333333333357  0.2509010880820493  T  T  T

0.00000000E+00  0.00000000E+00  0.00000000E+00
0.00000000E+00  0.00000000E+00  0.00000000E+00
0.00000000E+00  0.00000000E+00  0.00000000E+00
0.00000000E+00  0.00000000E+00  0.00000000E+00
0.00000000E+00  0.00000000E+00  0.00000000E+00
0.00000000E+00  0.00000000E+00  0.00000000E+00
0.00000000E+00  0.00000000E+00  0.00000000E+00
