Nb3C2  (n=2)
1.00000000000000
3.2478458828206618  0.0000000000000000  -0.0000000000000000
-1.6239229414103309  2.8127170426864136  -0.0000000000000002
0.0000000000000005  -0.0000000000000018  33.3347731267970957
Nb  C  S
3  2  2
Selective  dynamics
Direct
-0.0000000000000000  -0.0000000000000000  0.0492152473919851  T  T  T
0.6666666666666643  0.3333333333333357  0.1250161969768582  T  T  T
0.3333333333333357  0.6666666666666643  0.2008171465617313  T  T  T
0.3333333333333357  0.6666666666666643  0.0862095000989136  T  T  T
0.0000000000000000  0.0000000000000000  0.1638228938547953  T  T  T
0.6666666666666643  0.3333333333333357  0.0000000000000000  T  T  T
0.6666666666666643  0.3333333333333357  0.2500323939537166  T  T  T

0.00000000E+00  0.00000000E+00  0.00000000E+00
0.00000000E+00  0.00000000E+00  0.00000000E+00
0.00000000E+00  0.00000000E+00  0.00000000E+00
0.00000000E+00  0.00000000E+00  0.00000000E+00
0.00000000E+00  0.00000000E+00  0.00000000E+00
0.00000000E+00  0.00000000E+00  0.00000000E+00
0.00000000E+00  0.00000000E+00  0.00000000E+00
