Ta3C2  (n=2)
1.00000000000000
3.2408962596549502  0.0000000000000004  0.0000000000000000
-1.6204481298274747  2.8066984924049594  0.0000000000000000
0.0000000000000005  -0.0000000000000001  33.2465772523149212
Ta  C  S
3  2  2
Selective  dynamics
Direct
-0.0000000000000000  -0.0000000000000000  0.0489017012545054  T  T  T
0.6666666666666643  0.3333333333333357  0.1240214472264281  T  T  T
0.3333333333333357  0.6666666666666643  0.1991411931983580  T  T  T
0.3333333333333357  0.6666666666666643  0.0855469727323803  T  T  T
-0.0000000000000000  -0.0000000000000000  0.1624959217204761  T  T  T
0.6666666666666643  0.3333333333333357  0.0000000000000000  T  T  T
0.6666666666666643  0.3333333333333357  0.2480428944528635  T  T  T

0.00000000E+00  0.00000000E+00  0.00000000E+00
0.00000000E+00  0.00000000E+00  0.00000000E+00
0.00000000E+00  0.00000000E+00  0.00000000E+00
0.00000000E+00  0.00000000E+00  0.00000000E+00
0.00000000E+00  0.00000000E+00  0.00000000E+00
0.00000000E+00  0.00000000E+00  0.00000000E+00
0.00000000E+00  0.00000000E+00  0.00000000E+00
