Hf3N2  (n=2)
1.00000000000000
3.3278208736242383  0.0000000000000001  0.0000000000000000
-1.6639104368121191  2.8819774164515199  0.0000000000000000
0.0000000000000001  0.0000000000000000  33.3111710825067888
Hf  N  S
3  2  2
Selective  dynamics
Direct
0.0000000000000000  0.0000000000000000  0.0476847871471290  T  T  T
0.6666666666666643  0.3333333333333357  0.1247505087996045  T  T  T
0.3333333333333357  0.6666666666666643  0.2018162304520871  T  T  T
0.3333333333333357  0.6666666666666643  0.0860912525465559  T  T  T
0.0000000000000000  0.0000000000000000  0.1634097650526459  T  T  T
0.6666666666666643  0.3333333333333357  0.0000000000000000  T  T  T
0.6666666666666643  0.3333333333333357  0.2495010175992090  T  T  T

0.00000000E+00  0.00000000E+00  0.00000000E+00
0.00000000E+00  0.00000000E+00  0.00000000E+00
0.00000000E+00  0.00000000E+00  0.00000000E+00
0.00000000E+00  0.00000000E+00  0.00000000E+00
0.00000000E+00  0.00000000E+00  0.00000000E+00
0.00000000E+00  0.00000000E+00  0.00000000E+00
0.00000000E+00  0.00000000E+00  0.00000000E+00
