Ta3N2  (n=2)
1.00000000000000
3.2199988405614901  -0.0000000000000001  0.0000000000000000
-1.6099994202807451  2.7886007964436308  0.0000000000000000
0.0000000000000000  0.0000000000000004  33.1338111403410238
Ta  N  S
3  2  2
Selective  dynamics
Direct
-0.0000000000000000  -0.0000000000000000  0.0486121568126969  T  T  T
0.6666666666666643  0.3333333333333357  0.1227418588506101  T  T  T
0.3333333333333357  0.6666666666666643  0.1968715608885233  T  T  T
0.3333333333333357  0.6666666666666643  0.0862234912683568  T  T  T
-0.0000000000000000  0.0000000000000000  0.1592602264328562  T  T  T
0.6666666666666643  0.3333333333333357  0.0000000000000000  T  T  T
0.6666666666666643  0.3333333333333357  0.2454837177012203  T  T  T

0.00000000E+00  0.00000000E+00  0.00000000E+00
0.00000000E+00  0.00000000E+00  0.00000000E+00
0.00000000E+00  0.00000000E+00  0.00000000E+00
0.00000000E+00  0.00000000E+00  0.00000000E+00
0.00000000E+00  0.00000000E+00  0.00000000E+00
0.00000000E+00  0.00000000E+00  0.00000000E+00
0.00000000E+00  0.00000000E+00  0.00000000E+00
