Ti2N  (n=1)
1.00000000000000
3.1851953291569441  -0.0000000000000000  -0.0000000000000000
-1.5925976645784721  2.7584600713403651  0.0000000000000000
-0.0000000000000001  0.0000000000000000  31.0303733340501644
Ti  N  Se
2  1  2
Selective  dynamics
Direct
0.0000000000000000  0.0000000000000000  0.0560409500470847  T  T  T
-0.0000000000000000  -0.0000000000000000  0.1391004918833096  T  T  T
0.3333333333333357  0.6666666666666643  0.0990165044522281  T  T  T
0.3333333333333357  0.6666666666666643  0.0000000000000000  T  T  T
0.6666666666666643  0.3333333333333357  0.1943377628471177  T  T  T

0.00000000E+00  0.00000000E+00  0.00000000E+00
0.00000000E+00  0.00000000E+00  0.00000000E+00
0.00000000E+00  0.00000000E+00  0.00000000E+00
0.00000000E+00  0.00000000E+00  0.00000000E+00
0.00000000E+00  0.00000000E+00  0.00000000E+00
