Zr2N  (n=1)
1.00000000000000
3.4251359862289972  0.0000000000000000  0.0000000000000000
-1.7125679931144984  2.9662547765215708  -0.0000000000000000
0.0000000000000005  -0.0000000000000002  31.4169548864827846
Zr  N  Se
2  1  2
Selective  dynamics
Direct
0.0000000000000000  -0.0000000000000000  0.0570225564824529  T  T  T
-0.0000000000000000  0.0000000000000000  0.1481800265260812  T  T  T
0.3333333333333357  0.6666666666666643  0.1043271217579019  T  T  T
0.3333333333333357  0.6666666666666643  0.0000000000000000  T  T  T
0.6666666666666643  0.3333333333333357  0.2042513321125114  T  T  T

0.00000000E+00  0.00000000E+00  0.00000000E+00
0.00000000E+00  0.00000000E+00  0.00000000E+00
0.00000000E+00  0.00000000E+00  0.00000000E+00
0.00000000E+00  0.00000000E+00  0.00000000E+00
0.00000000E+00  0.00000000E+00  0.00000000E+00
