Sc2N  (n=1)
1.00000000000000
3.3214986757221223  0.0000000000000000  -0.0000000000000000
-1.6607493378610612  2.8765022324129013  0.0000000000000000
0.0000000000000000  0.0000000000000002  31.5120435663800613
Sc  N  Se
2  1  2
Selective  dynamics
Direct
0.0000000000000000  0.0000000000000000  0.0591435019733254  T  T  T
-0.0000000000000000  -0.0000000000000000  0.1466973537807326  T  T  T
0.3333333333333357  0.6666666666666643  0.1052279501903285  T  T  T
0.3333333333333357  0.6666666666666643  0.0000000000000000  T  T  T
0.6666666666666643  0.3333333333333357  0.2066525312032669  T  T  T

0.00000000E+00  0.00000000E+00  0.00000000E+00
0.00000000E+00  0.00000000E+00  0.00000000E+00
0.00000000E+00  0.00000000E+00  0.00000000E+00
0.00000000E+00  0.00000000E+00  0.00000000E+00
0.00000000E+00  0.00000000E+00  0.00000000E+00
