Nb2N  (n=1)
1.00000000000000
3.2117008108700884  -0.0000000000000003  0.0000000000000000
-1.6058504054350442  2.7814144921475332  0.0000000000000001
0.0000000000000004  0.0000000000000001  31.4023452742182521
Nb  N  Se
2  1  2
Selective  dynamics
Direct
0.0000000000000000  -0.0000000000000000  0.0569690697635343  T  T  T
0.0000000000000000  -0.0000000000000000  0.1464939311108695  T  T  T
0.3333333333333357  0.6666666666666643  0.1009209259897701  T  T  T
0.3333333333333357  0.6666666666666643  0.0000000000000000  T  T  T
0.6666666666666643  0.3333333333333357  0.2038811183785902  T  T  T

0.00000000E+00  0.00000000E+00  0.00000000E+00
0.00000000E+00  0.00000000E+00  0.00000000E+00
0.00000000E+00  0.00000000E+00  0.00000000E+00
0.00000000E+00  0.00000000E+00  0.00000000E+00
0.00000000E+00  0.00000000E+00  0.00000000E+00
