Mo2C  (n=1)
1.00000000000000
3.1032023668686497  0.0000000000000000  0.0000000000000001
-1.5516011834343251  2.6874520827842598  0.0000000000000001
0.0000000000000004  0.0000000000000002  31.3524268524136573
Mo  C  Se
2  1  2
Selective  dynamics
Direct
0.0000000000000000  0.0000000000000000  0.0569662175544320  T  T  T
0.0000000000000000  0.0000000000000000  0.1445793469766961  T  T  T
0.3333333333333357  0.6666666666666643  0.0989753899570750  T  T  T
0.3333333333333357  0.6666666666666643  0.0000000000000000  T  T  T
0.6666666666666643  0.3333333333333357  0.2026135610591375  T  T  T

0.00000000E+00  0.00000000E+00  0.00000000E+00
0.00000000E+00  0.00000000E+00  0.00000000E+00
0.00000000E+00  0.00000000E+00  0.00000000E+00
0.00000000E+00  0.00000000E+00  0.00000000E+00
0.00000000E+00  0.00000000E+00  0.00000000E+00
