Zr2C  (n=1)
1.00000000000000
3.4830027666801811  0.0000000000000000  -0.0000000000000000
-1.7415013833400905  3.0163688784098843  0.0000000000000000
0.0000000000000001  0.0000000000000002  31.4847961723951180
Zr  C  Se
2  1  2
Selective  dynamics
Direct
0.0000000000000000  0.0000000000000000  0.0550615611288279  T  T  T
-0.0000000000000000  0.0000000000000000  0.1480741332097629  T  T  T
0.3333333333333357  0.6666666666666643  0.1050948148346472  T  T  T
0.3333333333333357  0.6666666666666643  0.0000000000000000  T  T  T
0.6666666666666643  0.3333333333333357  0.2059659569300558  T  T  T

0.00000000E+00  0.00000000E+00  0.00000000E+00
0.00000000E+00  0.00000000E+00  0.00000000E+00
0.00000000E+00  0.00000000E+00  0.00000000E+00
0.00000000E+00  0.00000000E+00  0.00000000E+00
0.00000000E+00  0.00000000E+00  0.00000000E+00
