Nb2C  (n=1)
1.00000000000000
3.2888056144530968  -0.0000000000000001  0.0000000000000000
-1.6444028072265484  2.8481892107821705  -0.0000000000000000
0.0000000000000001  0.0000000000000001  31.3026688365657044
Nb  C  Se
2  1  2
Selective  dynamics
Direct
0.0000000000000000  0.0000000000000000  0.0572082608779627  T  T  T
-0.0000000000000000  -0.0000000000000000  0.1445336880458682  T  T  T
0.3333333333333357  0.6666666666666643  0.1015858672021731  T  T  T
0.3333333333333357  0.6666666666666643  0.0000000000000000  T  T  T
0.6666666666666643  0.3333333333333357  0.2013460535736603  T  T  T

0.00000000E+00  0.00000000E+00  0.00000000E+00
0.00000000E+00  0.00000000E+00  0.00000000E+00
0.00000000E+00  0.00000000E+00  0.00000000E+00
0.00000000E+00  0.00000000E+00  0.00000000E+00
0.00000000E+00  0.00000000E+00  0.00000000E+00
