Hf2N  (n=1)
1.00000000000000
3.3928562063349470  -0.0000000000000000  -0.0000000000000000
-1.6964281031674735  2.9382996671418278  -0.0000000000000000
0.0000000000000000  -0.0000000000000003  31.3144294071582010
Hf  N  Se
2  1  2
Selective  dynamics
Direct
-0.0000000000000000  -0.0000000000000000  0.0561893480545761  T  T  T
0.0000000000000000  0.0000000000000000  0.1465813157463132  T  T  T
0.3333333333333357  0.6666666666666643  0.1035241455462850  T  T  T
0.3333333333333357  0.6666666666666643  0.0000000000000000  T  T  T
0.6666666666666643  0.3333333333333357  0.2016459991991672  T  T  T

0.00000000E+00  0.00000000E+00  0.00000000E+00
0.00000000E+00  0.00000000E+00  0.00000000E+00
0.00000000E+00  0.00000000E+00  0.00000000E+00
0.00000000E+00  0.00000000E+00  0.00000000E+00
0.00000000E+00  0.00000000E+00  0.00000000E+00
