Cr2N  (n=1)
1.00000000000000
2.9564537595298392  0.0000000000000000  0.0000000000000000
-1.4782268797649196  2.5603640608505671  0.0000000000000000
-0.0000000000000005  -0.0000000000000002  30.8305431416899154
Cr  N  Se
2  1  2
Selective  dynamics
Direct
0.0000000000000000  0.0000000000000000  0.0548907235410226  T  T  T
0.0000000000000000  0.0000000000000000  0.1347083322379974  T  T  T
0.3333333333333357  0.6666666666666643  0.0930864957073667  T  T  T
0.3333333333333357  0.6666666666666643  0.0000000000000000  T  T  T
0.6666666666666643  0.3333333333333357  0.1891158100878765  T  T  T

0.00000000E+00  0.00000000E+00  0.00000000E+00
0.00000000E+00  0.00000000E+00  0.00000000E+00
0.00000000E+00  0.00000000E+00  0.00000000E+00
0.00000000E+00  0.00000000E+00  0.00000000E+00
0.00000000E+00  0.00000000E+00  0.00000000E+00
