Ta2N  (n=1)
1.00000000000000
3.1970487961757068  0.0000000000000004  0.0000000000000000
-1.5985243980878536  2.7687254743150609  0.0000000000000001
0.0000000000000001  0.0000000000000002  31.3884803728235262
Ta  N  Se
2  1  2
Selective  dynamics
Direct
-0.0000000000000000  0.0000000000000000  0.0566469139319630  T  T  T
-0.0000000000000000  -0.0000000000000000  0.1465498209294753  T  T  T
0.3333333333333357  0.6666666666666643  0.1010244028418342  T  T  T
0.3333333333333357  0.6666666666666643  0.0000000000000000  T  T  T
0.6666666666666643  0.3333333333333357  0.2035294572066872  T  T  T

0.00000000E+00  0.00000000E+00  0.00000000E+00
0.00000000E+00  0.00000000E+00  0.00000000E+00
0.00000000E+00  0.00000000E+00  0.00000000E+00
0.00000000E+00  0.00000000E+00  0.00000000E+00
0.00000000E+00  0.00000000E+00  0.00000000E+00
