Hf2C  (n=1)
1.00000000000000
3.4482496930808444  -0.0000000000000001  0.0000000000000000
-1.7241248465404220  2.9862718337585914  -0.0000000000000000
0.0000000000000003  0.0000000000000001  31.3811063252255202
Hf  C  Se
2  1  2
Selective  dynamics
Direct
0.0000000000000000  -0.0000000000000000  0.0548015030390531  T  T  T
-0.0000000000000000  0.0000000000000000  0.1466273525600744  T  T  T
0.3333333333333357  0.6666666666666643  0.1038533612967067  T  T  T
0.3333333333333357  0.6666666666666643  0.0000000000000000  T  T  T
0.6666666666666643  0.3333333333333357  0.2033422996338439  T  T  T

0.00000000E+00  0.00000000E+00  0.00000000E+00
0.00000000E+00  0.00000000E+00  0.00000000E+00
0.00000000E+00  0.00000000E+00  0.00000000E+00
0.00000000E+00  0.00000000E+00  0.00000000E+00
0.00000000E+00  0.00000000E+00  0.00000000E+00
