Mo2N  (n=1)
1.00000000000000
3.0977924169371942  0.0000000000000001  0.0000000000000002
-1.5488962084685964  2.6827669288579168  0.0000000000000003
0.0000000000000049  0.0000000000000013  31.3040658583393991
Mo  N  Se
2  1  2
Selective  dynamics
Direct
0.0000000000000000  0.0000000000000000  0.0570479273707260  T  T  T
0.0000000000000000  0.0000000000000000  0.1451475861010234  T  T  T
0.3333333333333357  0.6666666666666643  0.0969910459568610  T  T  T
0.3333333333333357  0.6666666666666643  0.0000000000000000  T  T  T
0.6666666666666643  0.3333333333333357  0.2013816954918013  T  T  T

0.00000000E+00  0.00000000E+00  0.00000000E+00
0.00000000E+00  0.00000000E+00  0.00000000E+00
0.00000000E+00  0.00000000E+00  0.00000000E+00
0.00000000E+00  0.00000000E+00  0.00000000E+00
0.00000000E+00  0.00000000E+00  0.00000000E+00
