Ti2C  (n=1)
1.00000000000000
3.1807527066328496  0.0000000000000000  0.0000000000000000
-1.5903763533164248  2.7546126474860086  0.0000000000000001
-0.0000000000000001  0.0000000000000001  31.2562414696379811
Ti  C  Se
2  1  2
Selective  dynamics
Direct
0.0000000000000000  0.0000000000000000  0.0590174697326105  T  T  T
0.0000000000000000  -0.0000000000000000  0.1426528855338895  T  T  T
0.3333333333333357  0.6666666666666643  0.1022078254496271  T  T  T
0.3333333333333357  0.6666666666666643  0.0000000000000000  T  T  T
0.6666666666666643  0.3333333333333357  0.2001597497163962  T  T  T

0.00000000E+00  0.00000000E+00  0.00000000E+00
0.00000000E+00  0.00000000E+00  0.00000000E+00
0.00000000E+00  0.00000000E+00  0.00000000E+00
0.00000000E+00  0.00000000E+00  0.00000000E+00
0.00000000E+00  0.00000000E+00  0.00000000E+00
