Ta2C  (n=1)
1.00000000000000
3.2842233357150779  -0.0000000000000034  -0.0000000000000000
-1.6421116678575416  2.8442208408941498  0.0000000000000001
-0.0000000000000008  0.0000000000000008  31.2642599403847186
Ta  C  Se
2  1  2
Selective  dynamics
Direct
0.0000000000000000  0.0000000000000000  0.0568704439249238  T  T  T
-0.0000000000000000  -0.0000000000000000  0.1439802069821354  T  T  T
0.3333333333333357  0.6666666666666643  0.1015893788690140  T  T  T
0.3333333333333357  0.6666666666666643  0.0000000000000000  T  T  T
0.6666666666666643  0.3333333333333357  0.2003648879688669  T  T  T

0.00000000E+00  0.00000000E+00  0.00000000E+00
0.00000000E+00  0.00000000E+00  0.00000000E+00
0.00000000E+00  0.00000000E+00  0.00000000E+00
0.00000000E+00  0.00000000E+00  0.00000000E+00
0.00000000E+00  0.00000000E+00  0.00000000E+00
