Cr2C  (n=1)
1.00000000000000
3.0080312624517997  -0.0000000000000003  0.0000000000000000
-1.5040156312259001  2.6050314885970738  0.0000000000000002
-0.0000000000000009  0.0000000000000002  30.8204037760656746
Cr  C  Se
2  1  2
Selective  dynamics
Direct
0.0000000000000000  0.0000000000000000  0.0544442291451586  T  T  T
0.0000000000000000  0.0000000000000000  0.1343637179285456  T  T  T
0.3333333333333357  0.6666666666666643  0.0919246709628157  T  T  T
0.3333333333333357  0.6666666666666643  0.0000000000000000  T  T  T
0.6666666666666643  0.3333333333333357  0.1888490435866921  T  T  T

0.00000000E+00  0.00000000E+00  0.00000000E+00
0.00000000E+00  0.00000000E+00  0.00000000E+00
0.00000000E+00  0.00000000E+00  0.00000000E+00
0.00000000E+00  0.00000000E+00  0.00000000E+00
0.00000000E+00  0.00000000E+00  0.00000000E+00
