Nb4C3  (n=3)
1.00000000000000
3.0695041305923212  0.0000000000000000  0.0000000000000000
-1.5347520652961606  2.6582685544337146  0.0000000000000000
0.0000000000000000  -0.0000000000000003  35.8669261830952237
Nb  C  O
4  3  2
Selective  dynamics
Direct
0.0000000000000000  0.0000000000000000  0.0319813221265194  T  T  T
0.0000000000000000  0.0000000000000000  0.1129055705010637  T  T  T
0.0000000000000000  0.0000000000000000  0.1932496489025307  T  T  T
0.0000000000000000  0.0000000000000000  0.2727306972740855  T  T  T
0.3333333333333357  0.6666666666666643  0.0722298193979491  T  T  T
0.3333333333333357  0.6666666666666643  0.1535601416068058  T  T  T
0.3333333333333357  0.6666666666666643  0.2346166596817249  T  T  T
0.3333333333333357  0.6666666666666643  0.0000000000000000  T  T  T
0.6666666666666643  0.3333333333333357  0.3029790210519076  T  T  T

0.00000000E+00  0.00000000E+00  0.00000000E+00
0.00000000E+00  0.00000000E+00  0.00000000E+00
0.00000000E+00  0.00000000E+00  0.00000000E+00
0.00000000E+00  0.00000000E+00  0.00000000E+00
0.00000000E+00  0.00000000E+00  0.00000000E+00
0.00000000E+00  0.00000000E+00  0.00000000E+00
0.00000000E+00  0.00000000E+00  0.00000000E+00
0.00000000E+00  0.00000000E+00  0.00000000E+00
0.00000000E+00  0.00000000E+00  0.00000000E+00
