Sc4N3  (n=3)
1.00000000000000
3.1801842881049152  0.0000000000000000  0.0000000000000000
-1.5900921440524576  2.7541203824695595  0.0000000000000000
0.0000000000000001  0.0000000000000000  35.2375609115802249
Sc  N  O
4  3  2
Selective  dynamics
Direct
0.0000000000000000  0.0000000000000000  0.0238553049323283  T  T  T
0.0000000000000000  0.0000000000000000  0.1064558710365812  T  T  T
0.0000000000000000  0.0000000000000000  0.1876715320219016  T  T  T
0.0000000000000000  0.0000000000000000  0.2689037191639014  T  T  T
0.3333333333333357  0.6666666666666643  0.0711449080547596  T  T  T
0.3333333333333357  0.6666666666666643  0.1449000611931992  T  T  T
0.3333333333333357  0.6666666666666643  0.2213611934681450  T  T  T
0.3333333333333357  0.6666666666666643  0.0000000000000000  T  T  T
0.6666666666666643  0.3333333333333357  0.2905297826165892  T  T  T

0.00000000E+00  0.00000000E+00  0.00000000E+00
0.00000000E+00  0.00000000E+00  0.00000000E+00
0.00000000E+00  0.00000000E+00  0.00000000E+00
0.00000000E+00  0.00000000E+00  0.00000000E+00
0.00000000E+00  0.00000000E+00  0.00000000E+00
0.00000000E+00  0.00000000E+00  0.00000000E+00
0.00000000E+00  0.00000000E+00  0.00000000E+00
0.00000000E+00  0.00000000E+00  0.00000000E+00
0.00000000E+00  0.00000000E+00  0.00000000E+00
