Cr4N3  (n=3)
1.00000000000000
2.6639373164310984  0.0000000000000000  0.0000000000000000
-1.3319686582155492  2.3070373901196581  0.0000000000000000
0.0000000000000000  0.0000000000000002  35.0479379346808528
Cr  N  O
4  3  2
Selective  dynamics
Direct
0.0000000000000000  0.0000000000000000  0.0322093579277378  T  T  T
0.0000000000000000  0.0000000000000000  0.1065548140988629  T  T  T
0.0000000000000000  0.0000000000000000  0.1811339357475449  T  T  T
0.0000000000000000  0.0000000000000000  0.2553208807436768  T  T  T
0.3333333333333357  0.6666666666666643  0.0696363488089651  T  T  T
0.3333333333333357  0.6666666666666643  0.1430573851597245  T  T  T
0.3333333333333357  0.6666666666666643  0.2164165153868305  T  T  T
0.3333333333333357  0.6666666666666643  0.0000000000000000  T  T  T
0.6666666666666643  0.3333333333333357  0.2866912727763695  T  T  T

0.00000000E+00  0.00000000E+00  0.00000000E+00
0.00000000E+00  0.00000000E+00  0.00000000E+00
0.00000000E+00  0.00000000E+00  0.00000000E+00
0.00000000E+00  0.00000000E+00  0.00000000E+00
0.00000000E+00  0.00000000E+00  0.00000000E+00
0.00000000E+00  0.00000000E+00  0.00000000E+00
0.00000000E+00  0.00000000E+00  0.00000000E+00
0.00000000E+00  0.00000000E+00  0.00000000E+00
0.00000000E+00  0.00000000E+00  0.00000000E+00
