Mo4C3  (n=3)
1.00000000000000
2.9031044338502561  -0.0000000000000001  0.0000000000000000
-1.4515522169251280  2.5141621896460760  0.0000000000000000
0.0000000000000003  -0.0000000000000005  35.9242785537672447
Mo  C  O
4  3  2
Selective  dynamics
Direct
0.0000000000000000  0.0000000000000000  0.0337230515961099  T  T  T
0.0000000000000000  0.0000000000000000  0.1125461520920839  T  T  T
0.0000000000000000  0.0000000000000000  0.1918132245684115  T  T  T
0.0000000000000000  0.0000000000000000  0.2709074071422056  T  T  T
0.3333333333333357  0.6666666666666643  0.0729609684803357  T  T  T
0.3333333333333357  0.6666666666666643  0.1520275919005999  T  T  T
0.3333333333333357  0.6666666666666643  0.2301271333062538  T  T  T
0.3333333333333357  0.6666666666666643  0.0000000000000000  T  T  T
0.6666666666666643  0.3333333333333357  0.3040918006861868  T  T  T

0.00000000E+00  0.00000000E+00  0.00000000E+00
0.00000000E+00  0.00000000E+00  0.00000000E+00
0.00000000E+00  0.00000000E+00  0.00000000E+00
0.00000000E+00  0.00000000E+00  0.00000000E+00
0.00000000E+00  0.00000000E+00  0.00000000E+00
0.00000000E+00  0.00000000E+00  0.00000000E+00
0.00000000E+00  0.00000000E+00  0.00000000E+00
0.00000000E+00  0.00000000E+00  0.00000000E+00
0.00000000E+00  0.00000000E+00  0.00000000E+00
