Ti4C3  (n=3)
1.00000000000000
3.0135987295520112  0.0000000000000000  0.0000000000000000
-1.5067993647760056  2.6098530566858935  0.0000000000000000
0.0000000000000000  0.0000000000000001  35.1038658372192316
Ti  C  O
4  3  2
Selective  dynamics
Direct
0.0000000000000000  0.0000000000000000  0.0272172640857822  T  T  T
0.0000000000000000  0.0000000000000000  0.1067364595885932  T  T  T
0.0000000000000000  0.0000000000000000  0.1846643378206519  T  T  T
0.0000000000000000  0.0000000000000000  0.2626843099101982  T  T  T
0.3333333333333357  0.6666666666666643  0.0684602601133459  T  T  T
0.3333333333333357  0.6666666666666643  0.1455937264198549  T  T  T
0.3333333333333357  0.6666666666666643  0.2230368985874691  T  T  T
0.3333333333333357  0.6666666666666643  0.0000000000000000  T  T  T
0.6666666666666643  0.3333333333333357  0.2878277248458060  T  T  T

0.00000000E+00  0.00000000E+00  0.00000000E+00
0.00000000E+00  0.00000000E+00  0.00000000E+00
0.00000000E+00  0.00000000E+00  0.00000000E+00
0.00000000E+00  0.00000000E+00  0.00000000E+00
0.00000000E+00  0.00000000E+00  0.00000000E+00
0.00000000E+00  0.00000000E+00  0.00000000E+00
0.00000000E+00  0.00000000E+00  0.00000000E+00
0.00000000E+00  0.00000000E+00  0.00000000E+00
0.00000000E+00  0.00000000E+00  0.00000000E+00
