Ti4N3  (n=3)
1.00000000000000
2.9166719651925708  0.0000000000000000  0.0000000000000000
-1.4583359825962854  2.5259120164177693  0.0000000000000000
-0.0000000000000002  0.0000000000000002  35.1259588338198370
Ti  N  O
4  3  2
Selective  dynamics
Direct
0.0000000000000000  0.0000000000000000  0.0289084251599341  T  T  T
0.0000000000000000  0.0000000000000000  0.1083626214700302  T  T  T
0.0000000000000000  0.0000000000000000  0.1850431058511754  T  T  T
0.0000000000000000  0.0000000000000000  0.2611520159002095  T  T  T
0.3333333333333357  0.6666666666666643  0.0700443234884957  T  T  T
0.3333333333333357  0.6666666666666643  0.1466489025722407  T  T  T
0.3333333333333357  0.6666666666666643  0.2238935922921574  T  T  T
0.3333333333333357  0.6666666666666643  0.0000000000000000  T  T  T
0.6666666666666643  0.3333333333333357  0.2882756562383260  T  T  T

0.00000000E+00  0.00000000E+00  0.00000000E+00
0.00000000E+00  0.00000000E+00  0.00000000E+00
0.00000000E+00  0.00000000E+00  0.00000000E+00
0.00000000E+00  0.00000000E+00  0.00000000E+00
0.00000000E+00  0.00000000E+00  0.00000000E+00
0.00000000E+00  0.00000000E+00  0.00000000E+00
0.00000000E+00  0.00000000E+00  0.00000000E+00
0.00000000E+00  0.00000000E+00  0.00000000E+00
0.00000000E+00  0.00000000E+00  0.00000000E+00
