Nb4N3  (n=3)
1.00000000000000
2.9737559914227640  0.0000000000000001  0.0000000000000000
-1.4868779957113820  2.5753482333895445  0.0000000000000000
0.0000000000000000  0.0000000000000000  36.0824316810100925
Nb  N  O
4  3  2
Selective  dynamics
Direct
0.0000000000000000  0.0000000000000000  0.0325845759847861  T  T  T
0.0000000000000000  0.0000000000000000  0.1131187072698279  T  T  T
0.0000000000000000  0.0000000000000000  0.1937483256110356  T  T  T
0.0000000000000000  0.0000000000000000  0.2745897283520506  T  T  T
0.3333333333333357  0.6666666666666643  0.0738874617605258  T  T  T
0.3333333333333357  0.6666666666666643  0.1535021306103012  T  T  T
0.3333333333333357  0.6666666666666643  0.2326664405759520  T  T  T
0.3333333333333357  0.6666666666666643  0.0000000000000000  T  T  T
0.6666666666666643  0.3333333333333357  0.3071420401758203  T  T  T

0.00000000E+00  0.00000000E+00  0.00000000E+00
0.00000000E+00  0.00000000E+00  0.00000000E+00
0.00000000E+00  0.00000000E+00  0.00000000E+00
0.00000000E+00  0.00000000E+00  0.00000000E+00
0.00000000E+00  0.00000000E+00  0.00000000E+00
0.00000000E+00  0.00000000E+00  0.00000000E+00
0.00000000E+00  0.00000000E+00  0.00000000E+00
0.00000000E+00  0.00000000E+00  0.00000000E+00
0.00000000E+00  0.00000000E+00  0.00000000E+00
