Mo4N3  (n=3)
1.00000000000000
2.8699592800294913  0.0000000000000000  0.0000000000000000
-1.4349796400147456  2.4854576443978780  0.0000000000000000
0.0000000000000000  -0.0000000000000001  35.9816861108364066
Mo  N  O
4  3  2
Selective  dynamics
Direct
0.0000000000000000  0.0000000000000000  0.0335279518802954  T  T  T
0.0000000000000000  0.0000000000000000  0.1126093403662763  T  T  T
0.0000000000000000  0.0000000000000000  0.1924544002526422  T  T  T
0.0000000000000000  0.0000000000000000  0.2714580505017790  T  T  T
0.3333333333333357  0.6666666666666643  0.0730638866814806  T  T  T
0.3333333333333357  0.6666666666666643  0.1511748492445094  T  T  T
0.3333333333333357  0.6666666666666643  0.2292862684196483  T  T  T
0.3333333333333357  0.6666666666666643  0.0000000000000000  T  T  T
0.6666666666666643  0.3333333333333357  0.3052020985622769  T  T  T

0.00000000E+00  0.00000000E+00  0.00000000E+00
0.00000000E+00  0.00000000E+00  0.00000000E+00
0.00000000E+00  0.00000000E+00  0.00000000E+00
0.00000000E+00  0.00000000E+00  0.00000000E+00
0.00000000E+00  0.00000000E+00  0.00000000E+00
0.00000000E+00  0.00000000E+00  0.00000000E+00
0.00000000E+00  0.00000000E+00  0.00000000E+00
0.00000000E+00  0.00000000E+00  0.00000000E+00
0.00000000E+00  0.00000000E+00  0.00000000E+00
