Hf4C3  (n=3)
1.00000000000000
3.2229703080329135  0.0000000000000000  0.0000000000000000
-1.6114851540164568  2.7911741630565539  0.0000000000000000
-0.0000000000000002  0.0000000000000003  35.7594263557436420
Hf  C  O
4  3  2
Selective  dynamics
Direct
0.0000000000000000  0.0000000000000000  0.0283848753598988  T  T  T
0.0000000000000000  0.0000000000000000  0.1112827095711358  T  T  T
0.0000000000000000  0.0000000000000000  0.1933091387385366  T  T  T
0.0000000000000000  0.0000000000000000  0.2750776205087934  T  T  T
0.3333333333333357  0.6666666666666643  0.0710478426945895  T  T  T
0.3333333333333357  0.6666666666666643  0.1525215473052471  T  T  T
0.3333333333333357  0.6666666666666643  0.2343190681653220  T  T  T
0.3333333333333357  0.6666666666666643  0.0000000000000000  T  T  T
0.6666666666666643  0.3333333333333357  0.3008836397068061  T  T  T

0.00000000E+00  0.00000000E+00  0.00000000E+00
0.00000000E+00  0.00000000E+00  0.00000000E+00
0.00000000E+00  0.00000000E+00  0.00000000E+00
0.00000000E+00  0.00000000E+00  0.00000000E+00
0.00000000E+00  0.00000000E+00  0.00000000E+00
0.00000000E+00  0.00000000E+00  0.00000000E+00
0.00000000E+00  0.00000000E+00  0.00000000E+00
0.00000000E+00  0.00000000E+00  0.00000000E+00
0.00000000E+00  0.00000000E+00  0.00000000E+00
