Zr4C3  (n=3)
1.00000000000000
3.2759492391486367  0.0000000000000000  0.0000000000000000
-1.6379746195743183  2.8370552634872728  0.0000000000000000
0.0000000000000002  -0.0000000000000004  35.8969814382902825
Zr  C  O
4  3  2
Selective  dynamics
Direct
0.0000000000000000  0.0000000000000000  0.0281517260167259  T  T  T
0.0000000000000000  0.0000000000000000  0.1119457397819949  T  T  T
0.0000000000000000  0.0000000000000000  0.1947457252736208  T  T  T
0.0000000000000000  0.0000000000000000  0.2776871750533580  T  T  T
0.3333333333333357  0.6666666666666643  0.0714771003947570  T  T  T
0.3333333333333357  0.6666666666666643  0.1535901381913220  T  T  T
0.3333333333333357  0.6666666666666643  0.2361376994894794  T  T  T
0.3333333333333357  0.6666666666666643  0.0000000000000000  T  T  T
0.6666666666666643  0.3333333333333357  0.3035626117205160  T  T  T

0.00000000E+00  0.00000000E+00  0.00000000E+00
0.00000000E+00  0.00000000E+00  0.00000000E+00
0.00000000E+00  0.00000000E+00  0.00000000E+00
0.00000000E+00  0.00000000E+00  0.00000000E+00
0.00000000E+00  0.00000000E+00  0.00000000E+00
0.00000000E+00  0.00000000E+00  0.00000000E+00
0.00000000E+00  0.00000000E+00  0.00000000E+00
0.00000000E+00  0.00000000E+00  0.00000000E+00
0.00000000E+00  0.00000000E+00  0.00000000E+00
