Cr4C3  (n=3)
1.00000000000000
2.6823552096386418  0.0000000000000000  0.0000000000000000
-1.3411776048193209  2.3229877535138979  0.0000000000000000
-0.0000000000000001  -0.0000000000000003  35.1514800995834378
Cr  C  O
4  3  2
Selective  dynamics
Direct
0.0000000000000000  0.0000000000000000  0.0323824926480536  T  T  T
0.0000000000000000  0.0000000000000000  0.1073694798364614  T  T  T
0.0000000000000000  0.0000000000000000  0.1824410163661488  T  T  T
0.0000000000000000  0.0000000000000000  0.2576069790393263  T  T  T
0.3333333333333357  0.6666666666666643  0.0699857166035394  T  T  T
0.3333333333333357  0.6666666666666643  0.1446084486437919  T  T  T
0.3333333333333357  0.6666666666666643  0.2186452393713050  T  T  T
0.3333333333333357  0.6666666666666643  0.0000000000000000  T  T  T
0.6666666666666643  0.3333333333333357  0.2887923942555050  T  T  T

0.00000000E+00  0.00000000E+00  0.00000000E+00
0.00000000E+00  0.00000000E+00  0.00000000E+00
0.00000000E+00  0.00000000E+00  0.00000000E+00
0.00000000E+00  0.00000000E+00  0.00000000E+00
0.00000000E+00  0.00000000E+00  0.00000000E+00
0.00000000E+00  0.00000000E+00  0.00000000E+00
0.00000000E+00  0.00000000E+00  0.00000000E+00
0.00000000E+00  0.00000000E+00  0.00000000E+00
0.00000000E+00  0.00000000E+00  0.00000000E+00
