Sc4C3O2  (n=3)
1.00000000000000
3.3189184351565171  0.0000000000000000  0.0000000000000000
-1.6594592175782585  2.8742676779414364  0.0000000000000000
0.0000000000000000  0.0000000000000000  35.2015098234829367
Sc  C  O
4  3  2
Selective  dynamics
Direct
0.0000000000000000  0.0000000000000000  0.0203145253343205  T  T  T
0.0000000000000000  0.0000000000000000  0.1019139386547581  T  T  T
0.0000000000000000  0.0000000000000000  0.1813350454896061  T  T  T
0.0000000000000000  0.0000000000000000  0.2706565215374201  T  T  T
0.3333333333333357  0.6666666666666643  0.0705813783226311  T  T  T
0.3333333333333357  0.6666666666666643  0.1363466345098835  T  T  T
0.3333333333333357  0.6666666666666643  0.2203804490344362  T  T  T
0.3333333333333357  0.6666666666666643  0.0000000000000000  T  T  T
0.6666666666666643  0.3333333333333357  0.2898031895403959  T  T  T

0.00000000E+00  0.00000000E+00  0.00000000E+00
0.00000000E+00  0.00000000E+00  0.00000000E+00
0.00000000E+00  0.00000000E+00  0.00000000E+00
0.00000000E+00  0.00000000E+00  0.00000000E+00
0.00000000E+00  0.00000000E+00  0.00000000E+00
0.00000000E+00  0.00000000E+00  0.00000000E+00
0.00000000E+00  0.00000000E+00  0.00000000E+00
0.00000000E+00  0.00000000E+00  0.00000000E+00
0.00000000E+00  0.00000000E+00  0.00000000E+00
