Ta4N3  (n=3)
1.00000000000000
2.9522206404888811  0.0000000000000000  0.0000000000000000
-1.4761103202444406  2.5566980724044086  0.0000000000000000
0.0000000000000000  0.0000000000000002  36.0827727296423078
Ta  N  O
4  3  2
Selective  dynamics
Direct
0.0000000000000000  0.0000000000000000  0.0324952151455684  T  T  T
0.0000000000000000  0.0000000000000000  0.1130784446605249  T  T  T
0.0000000000000000  0.0000000000000000  0.1937337007349250  T  T  T
0.0000000000000000  0.0000000000000000  0.2745189313155221  T  T  T
0.3333333333333357  0.6666666666666643  0.0737932812996758  T  T  T
0.3333333333333357  0.6666666666666643  0.1537559672231213  T  T  T
0.3333333333333357  0.6666666666666643  0.2332094340832374  T  T  T
0.3333333333333357  0.6666666666666643  0.0000000000000000  T  T  T
0.6666666666666643  0.3333333333333357  0.3071485889591216  T  T  T

0.00000000E+00  0.00000000E+00  0.00000000E+00
0.00000000E+00  0.00000000E+00  0.00000000E+00
0.00000000E+00  0.00000000E+00  0.00000000E+00
0.00000000E+00  0.00000000E+00  0.00000000E+00
0.00000000E+00  0.00000000E+00  0.00000000E+00
0.00000000E+00  0.00000000E+00  0.00000000E+00
0.00000000E+00  0.00000000E+00  0.00000000E+00
0.00000000E+00  0.00000000E+00  0.00000000E+00
0.00000000E+00  0.00000000E+00  0.00000000E+00
