Hf4N3  (n=3)
1.00000000000000
3.1236758053121427  -0.0000000000000003  0.0000000000000000
-1.5618379026560714  2.7051826009382314  0.0000000000000000
-0.0000000000000007  0.0000000000000010  35.7828634278751281
Hf  N  O
4  3  2
Selective  dynamics
Direct
0.0000000000000000  0.0000000000000000  0.0296982529197518  T  T  T
0.0000000000000000  0.0000000000000000  0.1124606821515555  T  T  T
0.0000000000000000  0.0000000000000000  0.1932185292280712  T  T  T
0.0000000000000000  0.0000000000000000  0.2737175938843191  T  T  T
0.3333333333333357  0.6666666666666643  0.0720953767475526  T  T  T
0.3333333333333357  0.6666666666666643  0.1528779341907586  T  T  T
0.3333333333333357  0.6666666666666643  0.2358156756599190  T  T  T
0.3333333333333357  0.6666666666666643  0.0000000000000000  T  T  T
0.6666666666666643  0.3333333333333357  0.3013415471796813  T  T  T

0.00000000E+00  0.00000000E+00  0.00000000E+00
0.00000000E+00  0.00000000E+00  0.00000000E+00
0.00000000E+00  0.00000000E+00  0.00000000E+00
0.00000000E+00  0.00000000E+00  0.00000000E+00
0.00000000E+00  0.00000000E+00  0.00000000E+00
0.00000000E+00  0.00000000E+00  0.00000000E+00
0.00000000E+00  0.00000000E+00  0.00000000E+00
0.00000000E+00  0.00000000E+00  0.00000000E+00
0.00000000E+00  0.00000000E+00  0.00000000E+00
