Ta4C3  (n=3)
1.00000000000000
3.0511195172171535  -0.0000000000000001  0.0000000000000000
-1.5255597586085767  2.6423470122405401  0.0000000000000000
0.0000000000000000  -0.0000000000000001  35.8428576847053790
Ta  C  O
4  3  2
Selective  dynamics
Direct
0.0000000000000000  0.0000000000000000  0.0320888566198512  T  T  T
0.0000000000000000  0.0000000000000000  0.1129531854814746  T  T  T
0.0000000000000000  0.0000000000000000  0.1928831848558656  T  T  T
0.0000000000000000  0.0000000000000000  0.2722088416805524  T  T  T
0.3333333333333357  0.6666666666666643  0.0721207657677922  T  T  T
0.3333333333333357  0.6666666666666643  0.1534178004045670  T  T  T
0.3333333333333357  0.6666666666666643  0.2346275363370477  T  T  T
0.3333333333333357  0.6666666666666643  0.0000000000000000  T  T  T
0.6666666666666643  0.3333333333333357  0.3025109710862193  T  T  T

0.00000000E+00  0.00000000E+00  0.00000000E+00
0.00000000E+00  0.00000000E+00  0.00000000E+00
0.00000000E+00  0.00000000E+00  0.00000000E+00
0.00000000E+00  0.00000000E+00  0.00000000E+00
0.00000000E+00  0.00000000E+00  0.00000000E+00
0.00000000E+00  0.00000000E+00  0.00000000E+00
0.00000000E+00  0.00000000E+00  0.00000000E+00
0.00000000E+00  0.00000000E+00  0.00000000E+00
0.00000000E+00  0.00000000E+00  0.00000000E+00
