Zr4N3  (n=3)
1.00000000000000
3.1791154024832671  0.0000000000000002  0.0000000000000000
-1.5895577012416335  2.7531947005588102  0.0000000000000000
0.0000000000000008  -0.0000000000000005  35.9148298532842034
Zr  N  O
4  3  2
Selective  dynamics
Direct
0.0000000000000000  0.0000000000000000  0.0296830253635298  T  T  T
0.0000000000000000  0.0000000000000000  0.1135305365813088  T  T  T
0.0000000000000000  0.0000000000000000  0.1949020426469897  T  T  T
0.0000000000000000  0.0000000000000000  0.2760440569517233  T  T  T
0.3333333333333357  0.6666666666666643  0.0729193786218248  T  T  T
0.3333333333333357  0.6666666666666643  0.1543630515907542  T  T  T
0.3333333333333357  0.6666666666666643  0.2374820861968288  T  T  T
0.3333333333333357  0.6666666666666643  0.0000000000000000  T  T  T
0.6666666666666643  0.3333333333333357  0.3039087167577408  T  T  T

0.00000000E+00  0.00000000E+00  0.00000000E+00
0.00000000E+00  0.00000000E+00  0.00000000E+00
0.00000000E+00  0.00000000E+00  0.00000000E+00
0.00000000E+00  0.00000000E+00  0.00000000E+00
0.00000000E+00  0.00000000E+00  0.00000000E+00
0.00000000E+00  0.00000000E+00  0.00000000E+00
0.00000000E+00  0.00000000E+00  0.00000000E+00
0.00000000E+00  0.00000000E+00  0.00000000E+00
0.00000000E+00  0.00000000E+00  0.00000000E+00
