Nb4C3  (n=3)
1.00000000000000
3.1396606769314062  -0.0000000000000001  -0.0000000000000000
-1.5698303384657033  2.7190259059966526  0.0000000000000000
0.0000000000000003  0.0000000000000006  38.2139981824995658
Nb  C  Te
4  3  2
Selective  dynamics
Direct
0.0000000000000000  0.0000000000000000  0.0614206492462274  T  T  T
0.0000000000000000  0.0000000000000000  0.1352824718258466  T  T  T
-0.0000000000000000  -0.0000000000000000  0.2099927885211755  T  T  T
-0.0000000000000000  -0.0000000000000000  0.2840591628154061  T  T  T
0.3333333333333357  0.6666666666666643  0.0956879007640933  T  T  T
0.3333333333333357  0.6666666666666643  0.1726203368346301  T  T  T
0.3333333333333357  0.6666666666666643  0.2492953247309493  T  T  T
0.3333333333333357  0.6666666666666643  0.0000000000000000  T  T  T
0.6666666666666643  0.3333333333333357  0.3457894701149337  T  T  T

0.00000000E+00  0.00000000E+00  0.00000000E+00
0.00000000E+00  0.00000000E+00  0.00000000E+00
0.00000000E+00  0.00000000E+00  0.00000000E+00
0.00000000E+00  0.00000000E+00  0.00000000E+00
0.00000000E+00  0.00000000E+00  0.00000000E+00
0.00000000E+00  0.00000000E+00  0.00000000E+00
0.00000000E+00  0.00000000E+00  0.00000000E+00
0.00000000E+00  0.00000000E+00  0.00000000E+00
0.00000000E+00  0.00000000E+00  0.00000000E+00
