Ta4N3  (n=3)
1.00000000000000
3.0653298196016636  0.0000000000000000  0.0000000000000000
-1.5326649098008314  2.6546534949086946  0.0000000000000000
0.0000000000000000  0.0000000000000000  38.0583958113182632
Ta  N  Te
4  3  2
Selective  dynamics
Direct
-0.0000000000000000  0.0000000000000000  0.0574217981348751  T  T  T
-0.0000000000000000  0.0000000000000000  0.1329107370527588  T  T  T
-0.0000000000000000  0.0000000000000000  0.2081694478351043  T  T  T
-0.0000000000000000  0.0000000000000000  0.2837862793294969  T  T  T
0.3333333333333357  0.6666666666666643  0.0960422622562463  T  T  T
0.3333333333333357  0.6666666666666643  0.1705341983330735  T  T  T
0.3333333333333357  0.6666666666666643  0.2448074687379313  T  T  T
0.3333333333333357  0.6666666666666643  0.0000000000000000  T  T  T
0.6666666666666643  0.3333333333333357  0.3431147197075186  T  T  T

0.00000000E+00  0.00000000E+00  0.00000000E+00
0.00000000E+00  0.00000000E+00  0.00000000E+00
0.00000000E+00  0.00000000E+00  0.00000000E+00
0.00000000E+00  0.00000000E+00  0.00000000E+00
0.00000000E+00  0.00000000E+00  0.00000000E+00
0.00000000E+00  0.00000000E+00  0.00000000E+00
0.00000000E+00  0.00000000E+00  0.00000000E+00
0.00000000E+00  0.00000000E+00  0.00000000E+00
0.00000000E+00  0.00000000E+00  0.00000000E+00
