Zr4C3  (n=3)
1.00000000000000
3.3634702763904682  0.0000000000000000  -0.0000000000000001
-1.6817351381952341  2.9128507061817124  0.0000000000000001
0.0000000000000004  0.0000000000000008  38.2364290494766976
Zr  C  Te
4  3  2
Selective  dynamics
Direct
-0.0000000000000000  -0.0000000000000000  0.0615677700727503  T  T  T
-0.0000000000000000  -0.0000000000000000  0.1369937230902221  T  T  T
-0.0000000000000000  -0.0000000000000000  0.2110710576226375  T  T  T
-0.0000000000000000  -0.0000000000000000  0.2862989518522066  T  T  T
0.3333333333333357  0.6666666666666643  0.0943424046526223  T  T  T
0.3333333333333357  0.6666666666666643  0.1741209532654814  T  T  T
0.3333333333333357  0.6666666666666643  0.2540193377774165  T  T  T
0.3333333333333357  0.6666666666666643  0.0000000000000000  T  T  T
0.6666666666666643  0.3333333333333357  0.3461732535836227  T  T  T

0.00000000E+00  0.00000000E+00  0.00000000E+00
0.00000000E+00  0.00000000E+00  0.00000000E+00
0.00000000E+00  0.00000000E+00  0.00000000E+00
0.00000000E+00  0.00000000E+00  0.00000000E+00
0.00000000E+00  0.00000000E+00  0.00000000E+00
0.00000000E+00  0.00000000E+00  0.00000000E+00
0.00000000E+00  0.00000000E+00  0.00000000E+00
0.00000000E+00  0.00000000E+00  0.00000000E+00
0.00000000E+00  0.00000000E+00  0.00000000E+00
