Nb4N3  (n=3)
1.00000000000000
3.0856821339192009  -0.0000000000000002  0.0000000000000000
-1.5428410669596004  2.6722791162312416  0.0000000000000001
0.0000000000000007  -0.0000000000000006  38.0517045317280775
Nb  N  Te
4  3  2
Selective  dynamics
Direct
0.0000000000000000  0.0000000000000000  0.0576034697149020  T  T  T
0.0000000000000000  0.0000000000000000  0.1329508662593502  T  T  T
0.0000000000000000  0.0000000000000000  0.2083243988937037  T  T  T
0.0000000000000000  0.0000000000000000  0.2836223849571713  T  T  T
0.3333333333333357  0.6666666666666643  0.0959557957166993  T  T  T
0.3333333333333357  0.6666666666666643  0.1706040155449735  T  T  T
0.3333333333333357  0.6666666666666643  0.2448426156791930  T  T  T
0.3333333333333357  0.6666666666666643  0.0000000000000000  T  T  T
0.6666666666666643  0.3333333333333357  0.3429992083756819  T  T  T

0.00000000E+00  0.00000000E+00  0.00000000E+00
0.00000000E+00  0.00000000E+00  0.00000000E+00
0.00000000E+00  0.00000000E+00  0.00000000E+00
0.00000000E+00  0.00000000E+00  0.00000000E+00
0.00000000E+00  0.00000000E+00  0.00000000E+00
0.00000000E+00  0.00000000E+00  0.00000000E+00
0.00000000E+00  0.00000000E+00  0.00000000E+00
0.00000000E+00  0.00000000E+00  0.00000000E+00
0.00000000E+00  0.00000000E+00  0.00000000E+00
