Mo4C3  (n=3)
1.00000000000000
3.0695040892911223  0.0000000000000000  0.0000000000000000
-1.5347520446455611  2.6582685186746158  0.0000000000000000
0.0000000000000003  -0.0000000000000003  37.4800122477739421
Mo  C  Te
4  3  2
Selective  dynamics
Direct
-0.0000000000000000  -0.0000000000000000  0.0547139361807656  T  T  T
0.0000000000000000  -0.0000000000000000  0.1283554934006247  T  T  T
0.0000000000000000  -0.0000000000000000  0.2027946221190839  T  T  T
-0.0000000000000000  -0.0000000000000000  0.2763909818625173  T  T  T
0.3333333333333357  0.6666666666666643  0.0909546569839323  T  T  T
0.3333333333333357  0.6666666666666643  0.1654687143240934  T  T  T
0.3333333333333357  0.6666666666666643  0.2395480009452239  T  T  T
0.3333333333333357  0.6666666666666643  0.0000000000000000  T  T  T
0.6666666666666643  0.3333333333333357  0.3329778060175306  T  T  T

0.00000000E+00  0.00000000E+00  0.00000000E+00
0.00000000E+00  0.00000000E+00  0.00000000E+00
0.00000000E+00  0.00000000E+00  0.00000000E+00
0.00000000E+00  0.00000000E+00  0.00000000E+00
0.00000000E+00  0.00000000E+00  0.00000000E+00
0.00000000E+00  0.00000000E+00  0.00000000E+00
0.00000000E+00  0.00000000E+00  0.00000000E+00
0.00000000E+00  0.00000000E+00  0.00000000E+00
0.00000000E+00  0.00000000E+00  0.00000000E+00
