Ti4C3  (n=3)
1.00000000000000
3.1602464476434586  0.0000000000000000  0.0000000000000000
-1.5801232238217293  2.7368537060263884  0.0000000000000000
-0.0000000000000002  -0.0000000000000003  37.3429866984475609
Ti  C  Te
4  3  2
Selective  dynamics
Direct
0.0000000000000000  0.0000000000000000  0.0632349446388589  T  T  T
0.0000000000000000  0.0000000000000000  0.1330276366630575  T  T  T
0.0000000000000000  0.0000000000000000  0.2015649438870233  T  T  T
0.0000000000000000  0.0000000000000000  0.2710282193036476  T  T  T
0.3333333333333357  0.6666666666666643  0.0927169459284020  T  T  T
0.3333333333333357  0.6666666666666643  0.1672710116870680  T  T  T
0.3333333333333357  0.6666666666666643  0.2416900563149573  T  T  T
0.3333333333333357  0.6666666666666643  0.0000000000000000  T  T  T
0.6666666666666643  0.3333333333333357  0.3305302491769008  T  T  T

0.00000000E+00  0.00000000E+00  0.00000000E+00
0.00000000E+00  0.00000000E+00  0.00000000E+00
0.00000000E+00  0.00000000E+00  0.00000000E+00
0.00000000E+00  0.00000000E+00  0.00000000E+00
0.00000000E+00  0.00000000E+00  0.00000000E+00
0.00000000E+00  0.00000000E+00  0.00000000E+00
0.00000000E+00  0.00000000E+00  0.00000000E+00
0.00000000E+00  0.00000000E+00  0.00000000E+00
0.00000000E+00  0.00000000E+00  0.00000000E+00
