Cr4N3  (n=3)
1.00000000000000
2.9032782969981721  0.0000000000000000  0.0000000000000000
-1.4516391484990860  2.5143127594571282  0.0000000000000000
0.0000000000000000  0.0000000000000000  36.6524958968546954
Cr  N  Te
4  3  2
Selective  dynamics
Direct
0.0000000000000000  -0.0000000000000000  0.0571662608727785  T  T  T
0.0000000000000000  -0.0000000000000000  0.1242998660030780  T  T  T
0.0000000000000000  -0.0000000000000000  0.1928909356486445  T  T  T
-0.0000000000000000  -0.0000000000000000  0.2599574593413632  T  T  T
0.3333333333333357  0.6666666666666643  0.0887730220974653  T  T  T
0.3333333333333357  0.6666666666666643  0.1587408462615408  T  T  T
0.3333333333333357  0.6666666666666643  0.2288183904489424  T  T  T
0.3333333333333357  0.6666666666666643  0.0000000000000000  T  T  T
0.6666666666666643  0.3333333333333357  0.3179182102535791  T  T  T

0.00000000E+00  0.00000000E+00  0.00000000E+00
0.00000000E+00  0.00000000E+00  0.00000000E+00
0.00000000E+00  0.00000000E+00  0.00000000E+00
0.00000000E+00  0.00000000E+00  0.00000000E+00
0.00000000E+00  0.00000000E+00  0.00000000E+00
0.00000000E+00  0.00000000E+00  0.00000000E+00
0.00000000E+00  0.00000000E+00  0.00000000E+00
0.00000000E+00  0.00000000E+00  0.00000000E+00
0.00000000E+00  0.00000000E+00  0.00000000E+00
