Sc4C3  (n=3)
1.00000000000000
3.3541084373584220  0.0000000000000000  0.0000000000000000
-1.6770542186792110  2.9047431147943565  -0.0000000000000002
-0.0000000000000001  0.0000000000000009  38.0400298827416350
Sc  C  Te
4  3  2
Selective  dynamics
Direct
-0.0000000000000000  -0.0000000000000000  0.0658645078701960  T  T  T
-0.0000000000000000  -0.0000000000000000  0.1372150651896759  T  T  T
-0.0000000000000000  -0.0000000000000000  0.2082250665340222  T  T  T
-0.0000000000000000  -0.0000000000000000  0.2792985086097242  T  T  T
0.3333333333333357  0.6666666666666643  0.0971260797236120  T  T  T
0.3333333333333357  0.6666666666666643  0.1717875482351112  T  T  T
0.3333333333333357  0.6666666666666643  0.2477257265733286  T  T  T
0.3333333333333357  0.6666666666666643  0.0000000000000000  T  T  T
0.6666666666666643  0.3333333333333357  0.3427975720034270  T  T  T

0.00000000E+00  0.00000000E+00  0.00000000E+00
0.00000000E+00  0.00000000E+00  0.00000000E+00
0.00000000E+00  0.00000000E+00  0.00000000E+00
0.00000000E+00  0.00000000E+00  0.00000000E+00
0.00000000E+00  0.00000000E+00  0.00000000E+00
0.00000000E+00  0.00000000E+00  0.00000000E+00
0.00000000E+00  0.00000000E+00  0.00000000E+00
0.00000000E+00  0.00000000E+00  0.00000000E+00
0.00000000E+00  0.00000000E+00  0.00000000E+00
