Mo4N3  (n=3)
1.00000000000000
3.0328229530656365  0.0000000000000000  0.0000000000000000
-1.5164114765328183  2.6265017226178062  0.0000000000000000
-0.0000000000000002  0.0000000000000000  37.5280059683349450
Mo  N  Te
4  3  2
Selective  dynamics
Direct
0.0000000000000000  0.0000000000000000  0.0561093517872236  T  T  T
0.0000000000000000  0.0000000000000000  0.1294181861952925  T  T  T
0.0000000000000000  0.0000000000000000  0.2038523964815480  T  T  T
0.0000000000000000  -0.0000000000000000  0.2772689946529260  T  T  T
0.3333333333333357  0.6666666666666643  0.0932041540731701  T  T  T
0.3333333333333357  0.6666666666666643  0.1661868818028963  T  T  T
0.3333333333333357  0.6666666666666643  0.2391546975370529  T  T  T
0.3333333333333357  0.6666666666666643  0.0000000000000000  T  T  T
0.6666666666666643  0.3333333333333357  0.3338308456597912  T  T  T

0.00000000E+00  0.00000000E+00  0.00000000E+00
0.00000000E+00  0.00000000E+00  0.00000000E+00
0.00000000E+00  0.00000000E+00  0.00000000E+00
0.00000000E+00  0.00000000E+00  0.00000000E+00
0.00000000E+00  0.00000000E+00  0.00000000E+00
0.00000000E+00  0.00000000E+00  0.00000000E+00
0.00000000E+00  0.00000000E+00  0.00000000E+00
0.00000000E+00  0.00000000E+00  0.00000000E+00
0.00000000E+00  0.00000000E+00  0.00000000E+00
