Hf4C3  (n=3)
1.00000000000000
3.3198066490461815  0.0000000000000000  0.0000000000000000
-1.6599033245230908  2.8750368943473039  0.0000000000000000
0.0000000000000000  0.0000000000000000  38.0654322476950426
Hf  C  Te
4  3  2
Selective  dynamics
Direct
0.0000000000000000  -0.0000000000000000  0.0612329983505099  T  T  T
-0.0000000000000000  -0.0000000000000000  0.1359421352868183  T  T  T
-0.0000000000000000  -0.0000000000000000  0.2094436234232084  T  T  T
-0.0000000000000000  -0.0000000000000000  0.2838684663100849  T  T  T
0.3333333333333357  0.6666666666666643  0.0936659799075275  T  T  T
0.3333333333333357  0.6666666666666643  0.1727445177769460  T  T  T
0.3333333333333357  0.6666666666666643  0.2520040386672145  T  T  T
0.3333333333333357  0.6666666666666643  0.0000000000000000  T  T  T
0.6666666666666643  0.3333333333333357  0.3432361456630034  T  T  T

0.00000000E+00  0.00000000E+00  0.00000000E+00
0.00000000E+00  0.00000000E+00  0.00000000E+00
0.00000000E+00  0.00000000E+00  0.00000000E+00
0.00000000E+00  0.00000000E+00  0.00000000E+00
0.00000000E+00  0.00000000E+00  0.00000000E+00
0.00000000E+00  0.00000000E+00  0.00000000E+00
0.00000000E+00  0.00000000E+00  0.00000000E+00
0.00000000E+00  0.00000000E+00  0.00000000E+00
0.00000000E+00  0.00000000E+00  0.00000000E+00
