Ta4C3  (n=3)
1.00000000000000
3.1223709783684779  0.0000000000000002  0.0000000000000000
-1.5611854891842387  2.7040525878897941  0.0000000000000000
-0.0000000000000001  0.0000000000000006  38.1935035510565442
Ta  C  Te
4  3  2
Selective  dynamics
Direct
0.0000000000000000  0.0000000000000000  0.0612742040405294  T  T  T
0.0000000000000000  0.0000000000000000  0.1353065471299047  T  T  T
0.0000000000000000  0.0000000000000000  0.2097152575698279  T  T  T
0.0000000000000000  0.0000000000000000  0.2839996938284642  T  T  T
0.3333333333333357  0.6666666666666643  0.0958636121242968  T  T  T
0.3333333333333357  0.6666666666666643  0.1723613092263165  T  T  T
0.3333333333333357  0.6666666666666643  0.2488348960057714  T  T  T
0.3333333333333357  0.6666666666666643  0.0000000000000000  T  T  T
0.6666666666666643  0.3333333333333357  0.3454384207884897  T  T  T

0.00000000E+00  0.00000000E+00  0.00000000E+00
0.00000000E+00  0.00000000E+00  0.00000000E+00
0.00000000E+00  0.00000000E+00  0.00000000E+00
0.00000000E+00  0.00000000E+00  0.00000000E+00
0.00000000E+00  0.00000000E+00  0.00000000E+00
0.00000000E+00  0.00000000E+00  0.00000000E+00
0.00000000E+00  0.00000000E+00  0.00000000E+00
0.00000000E+00  0.00000000E+00  0.00000000E+00
0.00000000E+00  0.00000000E+00  0.00000000E+00
