Ti4N3  (n=3)
1.00000000000000
3.0443361547531644  0.0000000000000000  0.0000000000000000
-1.5221680773765822  2.6364724477463626  0.0000000000000001
0.0000000000000002  -0.0000000000000004  37.4892005419150465
Ti  N  Te
4  3  2
Selective  dynamics
Direct
0.0000000000000000  -0.0000000000000000  0.0616098986226490  T  T  T
0.0000000000000000  -0.0000000000000000  0.1315862905987168  T  T  T
0.0000000000000000  -0.0000000000000000  0.2021412026224635  T  T  T
0.0000000000000000  -0.0000000000000000  0.2724583611953032  T  T  T
0.3333333333333357  0.6666666666666643  0.0939944103081122  T  T  T
0.3333333333333357  0.6666666666666643  0.1668233392423310  T  T  T
0.3333333333333357  0.6666666666666643  0.2399870986228958  T  T  T
0.3333333333333357  0.6666666666666643  0.0000000000000000  T  T  T
0.6666666666666643  0.3333333333333357  0.3331412876610003  T  T  T

0.00000000E+00  0.00000000E+00  0.00000000E+00
0.00000000E+00  0.00000000E+00  0.00000000E+00
0.00000000E+00  0.00000000E+00  0.00000000E+00
0.00000000E+00  0.00000000E+00  0.00000000E+00
0.00000000E+00  0.00000000E+00  0.00000000E+00
0.00000000E+00  0.00000000E+00  0.00000000E+00
0.00000000E+00  0.00000000E+00  0.00000000E+00
0.00000000E+00  0.00000000E+00  0.00000000E+00
0.00000000E+00  0.00000000E+00  0.00000000E+00
