Zr4N3  (n=3)
1.00000000000000
3.2468387172624196  0.0000000000000001  0.0000000000000000
-1.6234193586312098  2.8118448113979166  0.0000000000000000
-0.0000000000000002  0.0000000000000017  38.3128154385508068
Zr  N  Te
4  3  2
Selective  dynamics
Direct
-0.0000000000000000  -0.0000000000000000  0.0604445756488620  T  T  T
-0.0000000000000000  -0.0000000000000000  0.1362224203048662  T  T  T
-0.0000000000000000  -0.0000000000000000  0.2118981855692431  T  T  T
-0.0000000000000000  -0.0000000000000000  0.2877661619633265  T  T  T
0.3333333333333357  0.6666666666666643  0.0975925227452418  T  T  T
0.3333333333333357  0.6666666666666643  0.1739737335998258  T  T  T
0.3333333333333357  0.6666666666666643  0.2508402361549702  T  T  T
0.3333333333333357  0.6666666666666643  0.0000000000000000  T  T  T
0.6666666666666643  0.3333333333333357  0.3474768242992473  T  T  T

0.00000000E+00  0.00000000E+00  0.00000000E+00
0.00000000E+00  0.00000000E+00  0.00000000E+00
0.00000000E+00  0.00000000E+00  0.00000000E+00
0.00000000E+00  0.00000000E+00  0.00000000E+00
0.00000000E+00  0.00000000E+00  0.00000000E+00
0.00000000E+00  0.00000000E+00  0.00000000E+00
0.00000000E+00  0.00000000E+00  0.00000000E+00
0.00000000E+00  0.00000000E+00  0.00000000E+00
0.00000000E+00  0.00000000E+00  0.00000000E+00
