Hf4N3  (n=3)
1.00000000000000
3.1834757144030177  -0.0000000000000002  0.0000000000000002
-1.5917378572015088  2.7569708412220173  0.0000000000000000
0.0000000000000034  -0.0000000000000009  38.2902700116968120
Hf  N  Te
4  3  2
Selective  dynamics
Direct
-0.0000000000000000  -0.0000000000000000  0.0608782823895827  T  T  T
-0.0000000000000000  -0.0000000000000000  0.1361833347799447  T  T  T
-0.0000000000000000  -0.0000000000000000  0.2116105393188927  T  T  T
-0.0000000000000000  -0.0000000000000000  0.2870551954453872  T  T  T
0.3333333333333357  0.6666666666666643  0.0980762776194096  T  T  T
0.3333333333333357  0.6666666666666643  0.1738939964302901  T  T  T
0.3333333333333357  0.6666666666666643  0.2497521529351127  T  T  T
0.3333333333333357  0.6666666666666643  0.0000000000000000  T  T  T
0.6666666666666643  0.3333333333333357  0.3470926166787786  T  T  T

0.00000000E+00  0.00000000E+00  0.00000000E+00
0.00000000E+00  0.00000000E+00  0.00000000E+00
0.00000000E+00  0.00000000E+00  0.00000000E+00
0.00000000E+00  0.00000000E+00  0.00000000E+00
0.00000000E+00  0.00000000E+00  0.00000000E+00
0.00000000E+00  0.00000000E+00  0.00000000E+00
0.00000000E+00  0.00000000E+00  0.00000000E+00
0.00000000E+00  0.00000000E+00  0.00000000E+00
0.00000000E+00  0.00000000E+00  0.00000000E+00
