Sc4N3  (n=3)
1.00000000000000
3.2310548886223223  0.0000000000000000  0.0000000000000000
-1.6155274443111614  2.7981756148021653  0.0000000000000000
-0.0000000000000002  0.0000000000000004  37.8933638900338536
Sc  N  Te
4  3  2
Selective  dynamics
Direct
0.0000000000000000  0.0000000000000000  0.0626459101773711  T  T  T
0.0000000000000000  0.0000000000000000  0.1349753321557028  T  T  T
0.0000000000000000  0.0000000000000000  0.2066736822845992  T  T  T
0.0000000000000000  0.0000000000000000  0.2787898153348020  T  T  T
0.3333333333333357  0.6666666666666643  0.0941053121907883  T  T  T
0.3333333333333357  0.6666666666666643  0.1711203364830023  T  T  T
0.3333333333333357  0.6666666666666643  0.2482677505839811  T  T  T
0.3333333333333357  0.6666666666666643  0.0000000000000000  T  T  T
0.6666666666666643  0.3333333333333357  0.3402538747272547  T  T  T

0.00000000E+00  0.00000000E+00  0.00000000E+00
0.00000000E+00  0.00000000E+00  0.00000000E+00
0.00000000E+00  0.00000000E+00  0.00000000E+00
0.00000000E+00  0.00000000E+00  0.00000000E+00
0.00000000E+00  0.00000000E+00  0.00000000E+00
0.00000000E+00  0.00000000E+00  0.00000000E+00
0.00000000E+00  0.00000000E+00  0.00000000E+00
0.00000000E+00  0.00000000E+00  0.00000000E+00
0.00000000E+00  0.00000000E+00  0.00000000E+00
