Cr4C3  (n=3)
1.00000000000000
2.9502729651999759  -0.0000000000000003  0.0000000000000001
-1.4751364825999882  2.5550113359557338  0.0000000000000000
-0.0000000000000006  0.0000000000000006  36.5948032403802728
Cr  C  Te
4  3  2
Selective  dynamics
Direct
0.0000000000000000  0.0000000000000000  0.0537257465641044  T  T  T
0.0000000000000000  0.0000000000000000  0.1216628473937833  T  T  T
0.0000000000000000  0.0000000000000000  0.1904364102837951  T  T  T
0.0000000000000000  0.0000000000000000  0.2575152923366844  T  T  T
0.3333333333333357  0.6666666666666643  0.0864632673847842  T  T  T
0.3333333333333357  0.6666666666666643  0.1560692870839723  T  T  T
0.3333333333333357  0.6666666666666643  0.2261374398030019  T  T  T
0.3333333333333357  0.6666666666666643  0.0000000000000000  T  T  T
0.6666666666666643  0.3333333333333357  0.3168428906207663  T  T  T

0.00000000E+00  0.00000000E+00  0.00000000E+00
0.00000000E+00  0.00000000E+00  0.00000000E+00
0.00000000E+00  0.00000000E+00  0.00000000E+00
0.00000000E+00  0.00000000E+00  0.00000000E+00
0.00000000E+00  0.00000000E+00  0.00000000E+00
0.00000000E+00  0.00000000E+00  0.00000000E+00
0.00000000E+00  0.00000000E+00  0.00000000E+00
0.00000000E+00  0.00000000E+00  0.00000000E+00
0.00000000E+00  0.00000000E+00  0.00000000E+00
