Sc3N2Br2  (n=2)
1.00000000000000
3.3523252277736146  0.0000000000000000  0.0000000000000000
-1.6761626138868073  2.9031988096226677  0.0000000000000000
0.0000000000000002  0.0000000000000002  33.6713474650161899
Sc  N  Br
3  2  2
Selective  dynamics
Direct
0.0000000000000000  -0.0000000000000000  0.0562803347068589  T  T  T
0.6666666666666643  0.3333333333333357  0.1287644855024847  T  T  T
0.3333333333333357  0.6666666666666643  0.2012486362981044  T  T  T
0.3333333333333357  0.6666666666666643  0.0890320737015849  T  T  T
0.0000000000000000  0.0000000000000000  0.1684968973033846  T  T  T
0.6666666666666643  0.3333333333333357  0.0000000000000000  T  T  T
0.6666666666666643  0.3333333333333357  0.2575289710049631  T  T  T

0.00000000E+00  0.00000000E+00  0.00000000E+00
0.00000000E+00  0.00000000E+00  0.00000000E+00
0.00000000E+00  0.00000000E+00  0.00000000E+00
0.00000000E+00  0.00000000E+00  0.00000000E+00
0.00000000E+00  0.00000000E+00  0.00000000E+00
0.00000000E+00  0.00000000E+00  0.00000000E+00
0.00000000E+00  0.00000000E+00  0.00000000E+00
