Mo3C2Br2  (n=2)
1.00000000000000
3.1794430646457972  -0.0000000000000001  0.0000000000000000
-1.5897215323228986  2.7534784642529830  0.0000000000000000
0.0000000000000002  0.0000000000000005  33.8286275544617894
Mo  C  Br
3  2  2
Selective  dynamics
Direct
0.0000000000000000  0.0000000000000000  0.0608737700863696  T  T  T
0.6666666666666643  0.3333333333333357  0.1304904779280291  T  T  T
0.3333333333333357  0.6666666666666643  0.2001071857696816  T  T  T
0.3333333333333357  0.6666666666666643  0.0926386494542074  T  T  T
-0.0000000000000000  -0.0000000000000000  0.1683423064018508  T  T  T
0.6666666666666643  0.3333333333333357  0.0000000000000000  T  T  T
0.6666666666666643  0.3333333333333357  0.2609809558560513  T  T  T

0.00000000E+00  0.00000000E+00  0.00000000E+00
0.00000000E+00  0.00000000E+00  0.00000000E+00
0.00000000E+00  0.00000000E+00  0.00000000E+00
0.00000000E+00  0.00000000E+00  0.00000000E+00
0.00000000E+00  0.00000000E+00  0.00000000E+00
0.00000000E+00  0.00000000E+00  0.00000000E+00
0.00000000E+00  0.00000000E+00  0.00000000E+00
