Zr3N2Br2  (n=2)
1.00000000000000
3.4256014303528368  0.0000000000000002  0.0000000000000000
-1.7128007151764184  2.9666578623366697  0.0000000000000000
0.0000000000000003  0.0000000000000000  33.7946850159587484
Zr  N  Br
3  2  2
Selective  dynamics
Direct
-0.0000000000000000  0.0000000000000000  0.0590151560351925  T  T  T
0.6666666666666643  0.3333333333333357  0.1301193517827710  T  T  T
0.3333333333333357  0.6666666666666643  0.2012235475303434  T  T  T
0.3333333333333357  0.6666666666666643  0.0903584217653375  T  T  T
-0.0000000000000000  0.0000000000000000  0.1698802818002045  T  T  T
0.6666666666666643  0.3333333333333357  0.0000000000000000  T  T  T
0.6666666666666643  0.3333333333333357  0.2602387035655360  T  T  T

0.00000000E+00  0.00000000E+00  0.00000000E+00
0.00000000E+00  0.00000000E+00  0.00000000E+00
0.00000000E+00  0.00000000E+00  0.00000000E+00
0.00000000E+00  0.00000000E+00  0.00000000E+00
0.00000000E+00  0.00000000E+00  0.00000000E+00
0.00000000E+00  0.00000000E+00  0.00000000E+00
0.00000000E+00  0.00000000E+00  0.00000000E+00
