Cr3C2Br2  (n=2)
1.00000000000000
3.1781161041370791  -0.0000000000000003  -0.0000000000000001
-1.5890580520685402  2.7523292824988506  0.0000000000000001
-0.0000000000000001  0.0000000000000001  32.6943932438795670
Cr  C  Br
3  2  2
Selective  dynamics
Direct
0.0000000000000000  0.0000000000000000  0.0566429517379483  T  T  T
0.6666666666666643  0.3333333333333357  0.1176714488396295  T  T  T
0.3333333333333357  0.6666666666666643  0.1786999459413035  T  T  T
0.3333333333333357  0.6666666666666643  0.0826551339551479  T  T  T
0.0000000000000000  0.0000000000000000  0.1526877637241111  T  T  T
0.6666666666666643  0.3333333333333357  0.0000000000000000  T  T  T
0.6666666666666643  0.3333333333333357  0.2353428976792517  T  T  T

0.00000000E+00  0.00000000E+00  0.00000000E+00
0.00000000E+00  0.00000000E+00  0.00000000E+00
0.00000000E+00  0.00000000E+00  0.00000000E+00
0.00000000E+00  0.00000000E+00  0.00000000E+00
0.00000000E+00  0.00000000E+00  0.00000000E+00
0.00000000E+00  0.00000000E+00  0.00000000E+00
0.00000000E+00  0.00000000E+00  0.00000000E+00
