Nb3N2Br2  (n=2)
1.00000000000000
3.2420569589398975  -0.0000000000000001  0.0000000000000000
-1.6210284794699490  2.8077036873584333  0.0000000000000000
0.0000000000000001  -0.0000000000000001  33.8334855559436178
Nb  N  Br
3  2  2
Selective  dynamics
Direct
-0.0000000000000000  -0.0000000000000000  0.0589384883324934  T  T  T
0.6666666666666643  0.3333333333333357  0.1305435341761889  T  T  T
0.3333333333333357  0.6666666666666643  0.2021485800198778  T  T  T
0.3333333333333357  0.6666666666666643  0.0948769749153457  T  T  T
-0.0000000000000000  0.0000000000000000  0.1662100934370322  T  T  T
0.6666666666666643  0.3333333333333357  0.0000000000000000  T  T  T
0.6666666666666643  0.3333333333333357  0.2610870683523712  T  T  T

0.00000000E+00  0.00000000E+00  0.00000000E+00
0.00000000E+00  0.00000000E+00  0.00000000E+00
0.00000000E+00  0.00000000E+00  0.00000000E+00
0.00000000E+00  0.00000000E+00  0.00000000E+00
0.00000000E+00  0.00000000E+00  0.00000000E+00
0.00000000E+00  0.00000000E+00  0.00000000E+00
0.00000000E+00  0.00000000E+00  0.00000000E+00
