Mo3N2Br2  (n=2)
1.00000000000000
3.2930160216009581  -0.0000000000000001  0.0000000000000000
-1.6465080108004795  2.8518355301093585  0.0000000000000000
-0.0000000000000001  -0.0000000000000001  33.1722583971617695
Mo  N  Br
3  2  2
Selective  dynamics
Direct
-0.0000000000000000  0.0000000000000000  0.0593464435969997  T  T  T
0.6666666666666643  0.3333333333333357  0.1231791079660289  T  T  T
0.3333333333333357  0.6666666666666643  0.1870117723350513  T  T  T
0.3333333333333357  0.6666666666666643  0.0889281158942448  T  T  T
0.0000000000000000  -0.0000000000000000  0.1574301000378129  T  T  T
0.6666666666666643  0.3333333333333357  0.0000000000000000  T  T  T
0.6666666666666643  0.3333333333333357  0.2463582159320511  T  T  T

0.00000000E+00  0.00000000E+00  0.00000000E+00
0.00000000E+00  0.00000000E+00  0.00000000E+00
0.00000000E+00  0.00000000E+00  0.00000000E+00
0.00000000E+00  0.00000000E+00  0.00000000E+00
0.00000000E+00  0.00000000E+00  0.00000000E+00
0.00000000E+00  0.00000000E+00  0.00000000E+00
0.00000000E+00  0.00000000E+00  0.00000000E+00
