Ti3C2Br2  (n=2)
1.00000000000000
3.2463938001406061  -0.0000000000000002  0.0000000000000000
-1.6231969000703035  2.8114595019760977  -0.0000000000000000
0.0000000000000001  -0.0000000000000001  33.2502839865277764
Ti  C  Br
3  2  2
Selective  dynamics
Direct
-0.0000000000000000  -0.0000000000000000  0.0559385170565612  T  T  T
0.6666666666666643  0.3333333333333357  0.1240633612313029  T  T  T
0.3333333333333357  0.6666666666666643  0.1921882054060380  T  T  T
0.3333333333333357  0.6666666666666643  0.0862225746898820  T  T  T
0.0000000000000000  0.0000000000000000  0.1619041477727239  T  T  T
0.6666666666666643  0.3333333333333357  0.0000000000000000  T  T  T
0.6666666666666643  0.3333333333333357  0.2481267224625991  T  T  T

0.00000000E+00  0.00000000E+00  0.00000000E+00
0.00000000E+00  0.00000000E+00  0.00000000E+00
0.00000000E+00  0.00000000E+00  0.00000000E+00
0.00000000E+00  0.00000000E+00  0.00000000E+00
0.00000000E+00  0.00000000E+00  0.00000000E+00
0.00000000E+00  0.00000000E+00  0.00000000E+00
0.00000000E+00  0.00000000E+00  0.00000000E+00
