Hf3C2Br2  (n=2)
1.00000000000000
3.4104213668198633  -0.0000000000000009  -0.0000000000000000
-1.7052106834099325  2.9535115421678637  -0.0000000000000000
-0.0000000000000003  0.0000000000000003  33.8552232628600507
Hf  C  Br
3  2  2
Selective  dynamics
Direct
-0.0000000000000000  0.0000000000000000  0.0582860063284816  T  T  T
0.6666666666666643  0.3333333333333357  0.1307807541853465  T  T  T
0.3333333333333357  0.6666666666666643  0.2032755020422054  T  T  T
0.3333333333333357  0.6666666666666643  0.0902263851320694  T  T  T
0.0000000000000000  -0.0000000000000000  0.1713351232386237  T  T  T
0.6666666666666643  0.3333333333333357  0.0000000000000000  T  T  T
0.6666666666666643  0.3333333333333357  0.2615615083706870  T  T  T

0.00000000E+00  0.00000000E+00  0.00000000E+00
0.00000000E+00  0.00000000E+00  0.00000000E+00
0.00000000E+00  0.00000000E+00  0.00000000E+00
0.00000000E+00  0.00000000E+00  0.00000000E+00
0.00000000E+00  0.00000000E+00  0.00000000E+00
0.00000000E+00  0.00000000E+00  0.00000000E+00
0.00000000E+00  0.00000000E+00  0.00000000E+00
