Ta3C2Br2  (n=2)
1.00000000000000
3.3270060631449532  0.0000000000000001  0.0000000000000000
-1.6635030315724766  2.8812717699051613  -0.0000000000000000
0.0000000000000002  0.0000000000000005  33.6339958504743208
Ta  C  Br
3  2  2
Selective  dynamics
Direct
0.0000000000000000  0.0000000000000000  0.0607556236320601  T  T  T
0.6666666666666643  0.3333333333333357  0.1283522167401465  T  T  T
0.3333333333333357  0.6666666666666643  0.1959488098482265  T  T  T
0.3333333333333357  0.6666666666666643  0.0893398183137366  T  T  T
-0.0000000000000000  -0.0000000000000000  0.1673646151665564  T  T  T
0.6666666666666643  0.3333333333333357  0.0000000000000000  T  T  T
0.6666666666666643  0.3333333333333357  0.2567044334802866  T  T  T

0.00000000E+00  0.00000000E+00  0.00000000E+00
0.00000000E+00  0.00000000E+00  0.00000000E+00
0.00000000E+00  0.00000000E+00  0.00000000E+00
0.00000000E+00  0.00000000E+00  0.00000000E+00
0.00000000E+00  0.00000000E+00  0.00000000E+00
0.00000000E+00  0.00000000E+00  0.00000000E+00
0.00000000E+00  0.00000000E+00  0.00000000E+00
