Hf3N2Br2  (n=2)
1.00000000000000
3.3782436727998473  -0.0000000000000001  0.0000000000000000
-1.6891218363999236  2.9256448416028089  0.0000000000000000
0.0000000000000000  0.0000000000000003  33.6460652201613755
Hf  N  Br
3  2  2
Selective  dynamics
Direct
-0.0000000000000000  0.0000000000000000  0.0586684254239343  T  T  T
0.6666666666666643  0.3333333333333357  0.1284855326111163  T  T  T
0.3333333333333357  0.6666666666666643  0.1983026397982922  T  T  T
0.3333333333333357  0.6666666666666643  0.0893500771131305  T  T  T
-0.0000000000000000  -0.0000000000000000  0.1676209881091021  T  T  T
0.6666666666666643  0.3333333333333357  0.0000000000000000  T  T  T
0.6666666666666643  0.3333333333333357  0.2569710652222264  T  T  T

0.00000000E+00  0.00000000E+00  0.00000000E+00
0.00000000E+00  0.00000000E+00  0.00000000E+00
0.00000000E+00  0.00000000E+00  0.00000000E+00
0.00000000E+00  0.00000000E+00  0.00000000E+00
0.00000000E+00  0.00000000E+00  0.00000000E+00
0.00000000E+00  0.00000000E+00  0.00000000E+00
0.00000000E+00  0.00000000E+00  0.00000000E+00
