Zr3C2Br2  (n=2)
1.00000000000000
3.4544152451056003  0.0000000000000001  0.0000000000000000
-1.7272076225528001  2.9916113585995929  -0.0000000000000000
-0.0000000000000001  -0.0000000000000001  33.9939879901368300
Zr  C  Br
3  2  2
Selective  dynamics
Direct
-0.0000000000000000  -0.0000000000000000  0.0584070893938852  T  T  T
0.6666666666666643  0.3333333333333357  0.1322879209221729  T  T  T
0.3333333333333357  0.6666666666666643  0.2061687524504547  T  T  T
0.3333333333333357  0.6666666666666643  0.0912168550114407  T  T  T
0.0000000000000000  0.0000000000000000  0.1733589868329051  T  T  T
0.6666666666666643  0.3333333333333357  0.0000000000000000  T  T  T
0.6666666666666643  0.3333333333333357  0.2645758418443400  T  T  T

0.00000000E+00  0.00000000E+00  0.00000000E+00
0.00000000E+00  0.00000000E+00  0.00000000E+00
0.00000000E+00  0.00000000E+00  0.00000000E+00
0.00000000E+00  0.00000000E+00  0.00000000E+00
0.00000000E+00  0.00000000E+00  0.00000000E+00
0.00000000E+00  0.00000000E+00  0.00000000E+00
0.00000000E+00  0.00000000E+00  0.00000000E+00
