Sc3C2Br2  (n=2)
1.00000000000000
3.4177085339211537  0.0000000000000000  -0.0000000000000001
-1.7088542669605769  2.9598224138803992  -0.0000000000000000
-0.0000000000000007  -0.0000000000000016  33.9628597408176987
Sc  C  Br
3  2  2
Selective  dynamics
Direct
-0.0000000000000000  -0.0000000000000000  0.0554135273932522  T  T  T
0.6666666666666643  0.3333333333333357  0.1319508988526964  T  T  T
0.3333333333333357  0.6666666666666643  0.2084882703121346  T  T  T
0.3333333333333357  0.6666666666666643  0.0908149371469094  T  T  T
0.0000000000000000  0.0000000000000000  0.1730868605584834  T  T  T
0.6666666666666643  0.3333333333333357  0.0000000000000000  T  T  T
0.6666666666666643  0.3333333333333357  0.2639017977053868  T  T  T

0.00000000E+00  0.00000000E+00  0.00000000E+00
0.00000000E+00  0.00000000E+00  0.00000000E+00
0.00000000E+00  0.00000000E+00  0.00000000E+00
0.00000000E+00  0.00000000E+00  0.00000000E+00
0.00000000E+00  0.00000000E+00  0.00000000E+00
0.00000000E+00  0.00000000E+00  0.00000000E+00
0.00000000E+00  0.00000000E+00  0.00000000E+00
