Ti3N2Br2  (n=2)
1.00000000000000
3.2406710402348278  -0.0000000000000001  0.0000000000000000
-1.6203355201174139  2.8065034463896432  0.0000000000000000
0.0000000000000001  0.0000000000000000  33.0422692460988330
Ti  N  Br
3  2  2
Selective  dynamics
Direct
0.0000000000000000  0.0000000000000000  0.0573226805237685  T  T  T
0.6666666666666643  0.3333333333333357  0.1216966847252565  T  T  T
0.3333333333333357  0.6666666666666643  0.1860706889267377  T  T  T
0.3333333333333357  0.6666666666666643  0.0843818010189803  T  T  T
0.0000000000000000  0.0000000000000000  0.1590115684315327  T  T  T
0.6666666666666643  0.3333333333333357  0.0000000000000000  T  T  T
0.6666666666666643  0.3333333333333357  0.2433933694505062  T  T  T

0.00000000E+00  0.00000000E+00  0.00000000E+00
0.00000000E+00  0.00000000E+00  0.00000000E+00
0.00000000E+00  0.00000000E+00  0.00000000E+00
0.00000000E+00  0.00000000E+00  0.00000000E+00
0.00000000E+00  0.00000000E+00  0.00000000E+00
0.00000000E+00  0.00000000E+00  0.00000000E+00
0.00000000E+00  0.00000000E+00  0.00000000E+00
