Ta3N2Br2  (n=2)
1.00000000000000
3.2177681692423237  0.0000000000000001  0.0000000000000000
-1.6088840846211616  2.7866689784108889  0.0000000000000000
0.0000000000000000  0.0000000000000000  33.8125043746806213
Ta  N  Br
3  2  2
Selective  dynamics
Direct
0.0000000000000000  0.0000000000000000  0.0589137526910164  T  T  T
0.6666666666666643  0.3333333333333357  0.1303142807321868  T  T  T
0.3333333333333357  0.6666666666666643  0.2017148087733504  T  T  T
0.3333333333333357  0.6666666666666643  0.0953524390598668  T  T  T
0.0000000000000000  0.0000000000000000  0.1652761224045068  T  T  T
0.6666666666666643  0.3333333333333357  0.0000000000000000  T  T  T
0.6666666666666643  0.3333333333333357  0.2606285614643668  T  T  T

0.00000000E+00  0.00000000E+00  0.00000000E+00
0.00000000E+00  0.00000000E+00  0.00000000E+00
0.00000000E+00  0.00000000E+00  0.00000000E+00
0.00000000E+00  0.00000000E+00  0.00000000E+00
0.00000000E+00  0.00000000E+00  0.00000000E+00
0.00000000E+00  0.00000000E+00  0.00000000E+00
0.00000000E+00  0.00000000E+00  0.00000000E+00
