Nb3C2Br2  (n=2)
1.00000000000000
3.3530344156476035  0.0000000000000000  0.0000000000000000
-1.6765172078238018  2.9038129844506555  0.0000000000000001
-0.0000000000000001  0.0000000000000003  33.6428989969075616
Nb  C  Br
3  2  2
Selective  dynamics
Direct
0.0000000000000000  0.0000000000000000  0.0605019857015720  T  T  T
0.6666666666666643  0.3333333333333357  0.1284505683904087  T  T  T
0.3333333333333357  0.6666666666666643  0.1963991510792392  T  T  T
0.3333333333333357  0.6666666666666643  0.0891190589976584  T  T  T
-0.0000000000000000  -0.0000000000000000  0.1677820777831589  T  T  T
0.6666666666666643  0.3333333333333357  0.0000000000000000  T  T  T
0.6666666666666643  0.3333333333333357  0.2569011367808111  T  T  T

0.00000000E+00  0.00000000E+00  0.00000000E+00
0.00000000E+00  0.00000000E+00  0.00000000E+00
0.00000000E+00  0.00000000E+00  0.00000000E+00
0.00000000E+00  0.00000000E+00  0.00000000E+00
0.00000000E+00  0.00000000E+00  0.00000000E+00
0.00000000E+00  0.00000000E+00  0.00000000E+00
0.00000000E+00  0.00000000E+00  0.00000000E+00
