Cr3N2Br2  (n=2)
1.00000000000000
3.1542802477251262  0.0000000000000000  0.0000000000000000
-1.5771401238625631  2.7316868253414524  0.0000000000000000
-0.0000000000000001  0.0000000000000001  32.8089227856010766
Cr  N  Br
3  2  2
Selective  dynamics
Direct
0.0000000000000000  0.0000000000000000  0.0561720608440484  T  T  T
0.6666666666666643  0.3333333333333357  0.1190060831413282  T  T  T
0.3333333333333357  0.6666666666666643  0.1818401054386009  T  T  T
0.3333333333333357  0.6666666666666643  0.0833614954720800  T  T  T
-0.0000000000000000  -0.0000000000000000  0.1546506708105764  T  T  T
0.6666666666666643  0.3333333333333357  0.0000000000000000  T  T  T
0.6666666666666643  0.3333333333333357  0.2380121662826491  T  T  T

0.00000000E+00  0.00000000E+00  0.00000000E+00
0.00000000E+00  0.00000000E+00  0.00000000E+00
0.00000000E+00  0.00000000E+00  0.00000000E+00
0.00000000E+00  0.00000000E+00  0.00000000E+00
0.00000000E+00  0.00000000E+00  0.00000000E+00
0.00000000E+00  0.00000000E+00  0.00000000E+00
0.00000000E+00  0.00000000E+00  0.00000000E+00
