Ti2N  (n=1)
1.00000000000000
3.1575680657799530  0.0000000000000001  0.0000000000000000
-1.5787840328899763  2.7345341593195540  0.0000000000000000
0.0000000000000005  0.0000000000000002  30.5116959305833646
Ti  N  S
2  1  2
Selective  dynamics
Direct
-0.0000000000000000  -0.0000000000000000  0.0512004336955768  T  T  T
0.6666666666666643  0.3333333333333357  0.1295763812156165  T  T  T
0.3333333333333357  0.6666666666666643  0.0923936260264268  T  T  T
0.3333333333333357  0.6666666666666643  0.0000000000000000  T  T  T
-0.0000000000000000  -0.0000000000000000  0.1806420706054141  T  T  T

0.00000000E+00  0.00000000E+00  0.00000000E+00
0.00000000E+00  0.00000000E+00  0.00000000E+00
0.00000000E+00  0.00000000E+00  0.00000000E+00
0.00000000E+00  0.00000000E+00  0.00000000E+00
0.00000000E+00  0.00000000E+00  0.00000000E+00
