Zr2C  (n=1)
1.00000000000000
3.4640464626429361  -0.0000000000000019  0.0000000000000006
-1.7320232313214694  2.9999522368681886  -0.0000000000000003
0.0000000000000052  -0.0000000000000024  30.9102814017970715
Zr  C  S
2  1  2
Selective  dynamics
Direct
0.0000000000000000  -0.0000000000000000  0.0518775319119114  T  T  T
0.6666666666666643  0.3333333333333357  0.1397832375799510  T  T  T
0.3333333333333357  0.6666666666666643  0.0976852505492455  T  T  T
0.3333333333333357  0.6666666666666643  0.0000000000000000  T  T  T
-0.0000000000000000  0.0000000000000000  0.1912076219873384  T  T  T

0.00000000E+00  0.00000000E+00  0.00000000E+00
0.00000000E+00  0.00000000E+00  0.00000000E+00
0.00000000E+00  0.00000000E+00  0.00000000E+00
0.00000000E+00  0.00000000E+00  0.00000000E+00
0.00000000E+00  0.00000000E+00  0.00000000E+00
