Ta2N  (n=1)
1.00000000000000
3.1839592509080101  0.0000000000000000  0.0000000000000000
-1.5919796254540051  2.7573895961533963  0.0000000000000000
0.0000000000000000  0.0000000000000001  30.8525917333050614
Ta  N  S
2  1  2
Selective  dynamics
Direct
-0.0000000000000000  -0.0000000000000000  0.0533607863698999  T  T  T
0.6666666666666643  0.3333333333333357  0.1371375396205980  T  T  T
0.3333333333333357  0.6666666666666643  0.0950930250059397  T  T  T
0.3333333333333357  0.6666666666666643  0.0000000000000000  T  T  T
-0.0000000000000000  -0.0000000000000000  0.1896953028742558  T  T  T

0.00000000E+00  0.00000000E+00  0.00000000E+00
0.00000000E+00  0.00000000E+00  0.00000000E+00
0.00000000E+00  0.00000000E+00  0.00000000E+00
0.00000000E+00  0.00000000E+00  0.00000000E+00
0.00000000E+00  0.00000000E+00  0.00000000E+00
