Zr2N  (n=1)
1.00000000000000
3.4216447313452818  0.0000000000000007  -0.0000000000000003
-1.7108223656726400  2.9632312603679338  0.0000000000000006
-0.0000000000000024  0.0000000000000051  30.8417148482586363
Zr  N  S
2  1  2
Selective  dynamics
Direct
-0.0000000000000000  -0.0000000000000000  0.0519192476146881  T  T  T
0.6666666666666643  0.3333333333333357  0.1375041153194005  T  T  T
0.3333333333333357  0.6666666666666643  0.0975631429350476  T  T  T
0.3333333333333357  0.6666666666666643  0.0000000000000000  T  T  T
-0.0000000000000000  -0.0000000000000000  0.1894095343595483  T  T  T

0.00000000E+00  0.00000000E+00  0.00000000E+00
0.00000000E+00  0.00000000E+00  0.00000000E+00
0.00000000E+00  0.00000000E+00  0.00000000E+00
0.00000000E+00  0.00000000E+00  0.00000000E+00
0.00000000E+00  0.00000000E+00  0.00000000E+00
