Nb2N  (n=1)
1.00000000000000
3.2063540015777972  0.0000000000000000  0.0000000000000000
-1.6031770007888986  2.7767840191509197  0.0000000000000000
0.0000000000000000  0.0000000000000001  30.8591787071138945
Nb  N  S
2  1  2
Selective  dynamics
Direct
-0.0000000000000000  -0.0000000000000000  0.0537217880661682  T  T  T
0.6666666666666643  0.3333333333333357  0.1369698003988026  T  T  T
0.3333333333333357  0.6666666666666643  0.0948402882454072  T  T  T
0.3333333333333357  0.6666666666666643  0.0000000000000000  T  T  T
-0.0000000000000000  -0.0000000000000000  0.1898682645680130  T  T  T

0.00000000E+00  0.00000000E+00  0.00000000E+00
0.00000000E+00  0.00000000E+00  0.00000000E+00
0.00000000E+00  0.00000000E+00  0.00000000E+00
0.00000000E+00  0.00000000E+00  0.00000000E+00
0.00000000E+00  0.00000000E+00  0.00000000E+00
