Nb2C  (n=1)
1.00000000000000
3.2790981468261426  -0.0000000000000000  0.0000000000000000
-1.6395490734130713  2.8397822969654865  -0.0000000000000000
0.0000000000000001  0.0000000000000000  30.7036624481377771
Nb  C  S
2  1  2
Selective  dynamics
Direct
0.0000000000000000  0.0000000000000000  0.0535590257444180  T  T  T
0.6666666666666643  0.3333333333333357  0.1321919498205859  T  T  T
0.3333333333333357  0.6666666666666643  0.0940453615912586  T  T  T
0.3333333333333357  0.6666666666666643  0.0000000000000000  T  T  T
0.0000000000000000  0.0000000000000000  0.1857648890510035  T  T  T

0.00000000E+00  0.00000000E+00  0.00000000E+00
0.00000000E+00  0.00000000E+00  0.00000000E+00
0.00000000E+00  0.00000000E+00  0.00000000E+00
0.00000000E+00  0.00000000E+00  0.00000000E+00
0.00000000E+00  0.00000000E+00  0.00000000E+00
