Sc2N
1.00000000000000
3.2900562705343988  -0.0000000000000004  0.0000000000000004
-1.6450281352672000  2.8492723103369948  0.0000000000000000
0.0000000000000025  0.0000000000000023  31.0504022394569787
Sc  N  S
2  1  2
Selective  dynamics
Direct
-0.0000000000000000  0.0000000000000000  0.0548525264532670  T  T  T
0.6666666666666643  0.3333333333333357  0.1388771174468099  T  T  T
0.3333333333333357  0.6666666666666643  0.0995477050383331  T  T  T
0.3333333333333357  0.6666666666666643  0.0000000000000000  T  T  T
-0.0000000000000000  0.0000000000000000  0.1948574512110021  T  T  T

0.00000000E+00  0.00000000E+00  0.00000000E+00
0.00000000E+00  0.00000000E+00  0.00000000E+00
0.00000000E+00  0.00000000E+00  0.00000000E+00
0.00000000E+00  0.00000000E+00  0.00000000E+00
0.00000000E+00  0.00000000E+00  0.00000000E+00
