Cr2N  (n=1)
1.00000000000000
2.9030378299364696  0.0000000000000000  0.0000000000000000
-1.4515189149682348  2.5141045090365122  0.0000000000000000
0.0000000000000000  -0.0000000000000001  30.4676358860763479
Cr  N  S
2  1  2
Selective  dynamics
Direct
-0.0000000000000000  -0.0000000000000000  0.0503375624441694  T  T  T
0.6666666666666643  0.3333333333333357  0.1296874909059624  T  T  T
0.3333333333333357  0.6666666666666643  0.0886190833677870  T  T  T
0.3333333333333357  0.6666666666666643  0.0000000000000000  T  T  T
-0.0000000000000000  -0.0000000000000000  0.1794571756903215  T  T  T

0.00000000E+00  0.00000000E+00  0.00000000E+00
0.00000000E+00  0.00000000E+00  0.00000000E+00
0.00000000E+00  0.00000000E+00  0.00000000E+00
0.00000000E+00  0.00000000E+00  0.00000000E+00
0.00000000E+00  0.00000000E+00  0.00000000E+00
