Sc2C  (n=1)
1.00000000000000
3.7747438751705436  0.0000000000000001  0.0000000000000000
-1.8873719375852718  3.2690240890649904  0.0000000000000001
0.0000000000000000  0.0000000000000002  29.6717171705337144
Sc  C  S
2  1  2
Selective  dynamics
Direct
0.0000000000000000  0.0000000000000000  0.0408426422913309  T  T  T
0.6666666666666643  0.3333333333333357  0.1182746455763055  T  T  T
0.3333333333333357  0.6666666666666643  0.0661072999582210  T  T  T
0.3333333333333357  0.6666666666666643  0.0000000000000000  T  T  T
0.0000000000000000  0.0000000000000000  0.1574468084770330  T  T  T

0.00000000E+00  0.00000000E+00  0.00000000E+00
0.00000000E+00  0.00000000E+00  0.00000000E+00
0.00000000E+00  0.00000000E+00  0.00000000E+00
0.00000000E+00  0.00000000E+00  0.00000000E+00
0.00000000E+00  0.00000000E+00  0.00000000E+00
