Hf2N  (n=1)
1.00000000000000
3.3701411433301942  -0.0000000000000014  0.0000000000000000
-1.6850705716650982  2.9186278447494010  0.0000000000000000
-0.0000000000000003  0.0000000000000002  30.7711819153238011
Hf  N  S
2  1  2
Selective  dynamics
Direct
-0.0000000000000000  -0.0000000000000000  0.0514555318328713  T  T  T
0.6666666666666643  0.3333333333333357  0.1361861633655424  T  T  T
0.3333333333333357  0.6666666666666643  0.0969507286317785  T  T  T
0.3333333333333357  0.6666666666666643  0.0000000000000000  T  T  T
-0.0000000000000000  -0.0000000000000000  0.1875515191845717  T  T  T

0.00000000E+00  0.00000000E+00  0.00000000E+00
0.00000000E+00  0.00000000E+00  0.00000000E+00
0.00000000E+00  0.00000000E+00  0.00000000E+00
0.00000000E+00  0.00000000E+00  0.00000000E+00
0.00000000E+00  0.00000000E+00  0.00000000E+00
