Cr2C  (n=1)
1.00000000000000
2.9617943094500685  -0.0000000000000000  -0.0000000000000000
-1.4808971547250342  2.5649891127986475  0.0000000000000000
-0.0000000000000001  -0.0000000000000000  30.3055767842161004
Cr  C  S
2  1  2
Selective  dynamics
Direct
-0.0000000000000000  -0.0000000000000000  0.0508782346067808  T  T  T
0.6666666666666643  0.3333333333333357  0.1254747339869356  T  T  T
0.3333333333333357  0.6666666666666643  0.0867534891808207  T  T  T
0.3333333333333357  0.6666666666666643  0.0000000000000000  T  T  T
0.0000000000000000  -0.0000000000000000  0.1750693221248763  T  T  T

0.00000000E+00  0.00000000E+00  0.00000000E+00
0.00000000E+00  0.00000000E+00  0.00000000E+00
0.00000000E+00  0.00000000E+00  0.00000000E+00
0.00000000E+00  0.00000000E+00  0.00000000E+00
0.00000000E+00  0.00000000E+00  0.00000000E+00
