Hf2C  (n=1)
1.00000000000000
3.4138517713638659  0.0000000000000015  -0.0000000000000000
-1.7069258856819318  2.9564823590873379  -0.0000000000000004
-0.0000000000000002  -0.0000000000000076  30.8449335562971854
Hf  C  S
2  1  2
Selective  dynamics
Direct
-0.0000000000000000  -0.0000000000000000  0.0516731572853076  T  T  T
0.6666666666666643  0.3333333333333357  0.1383802238934037  T  T  T
0.3333333333333357  0.6666666666666643  0.0969377803781132  T  T  T
0.3333333333333357  0.6666666666666643  0.0000000000000000  T  T  T
0.0000000000000000  0.0000000000000000  0.1894941205053725  T  T  T

0.00000000E+00  0.00000000E+00  0.00000000E+00
0.00000000E+00  0.00000000E+00  0.00000000E+00
0.00000000E+00  0.00000000E+00  0.00000000E+00
0.00000000E+00  0.00000000E+00  0.00000000E+00
0.00000000E+00  0.00000000E+00  0.00000000E+00
