Ti2C  (n=1)
1.00000000000000
3.1852196098791357  0.0000000000000000  0.0000000000000000
-1.5926098049395678  2.7584810990011883  -0.0000000000000000
-0.0000000000000000  -0.0000000000000003  30.5934294894009611
Ti  C  S
2  1  2
Selective  dynamics
Direct
-0.0000000000000000  -0.0000000000000000  0.0507877964163069  T  T  T
0.6666666666666643  0.3333333333333357  0.1307425951310776  T  T  T
0.3333333333333357  0.6666666666666643  0.0930204459036983  T  T  T
0.3333333333333357  0.6666666666666643  0.0000000000000000  T  T  T
0.0000000000000000  0.0000000000000000  0.1828310713363728  T  T  T

0.00000000E+00  0.00000000E+00  0.00000000E+00
0.00000000E+00  0.00000000E+00  0.00000000E+00
0.00000000E+00  0.00000000E+00  0.00000000E+00
0.00000000E+00  0.00000000E+00  0.00000000E+00
0.00000000E+00  0.00000000E+00  0.00000000E+00
