Ta2C  (n=1)
1.00000000000000
3.2671375955304596  -0.0000000000000002  0.0000000000000006
-1.6335687977652296  2.8294241556503730  -0.0000000000000018
0.0000000000000064  -0.0000000000000149  30.6724560941555175
Ta  C  S
2  1  2
Selective  dynamics
Direct
-0.0000000000000000  -0.0000000000000000  0.0532604410008992  T  T  T
0.6666666666666643  0.3333333333333357  0.1315993358586967  T  T  T
0.3333333333333357  0.6666666666666643  0.0942636682978693  T  T  T
0.3333333333333357  0.6666666666666643  0.0000000000000000  T  T  T
-0.0000000000000000  -0.0000000000000000  0.1849364810154990  T  T  T

0.00000000E+00  0.00000000E+00  0.00000000E+00
0.00000000E+00  0.00000000E+00  0.00000000E+00
0.00000000E+00  0.00000000E+00  0.00000000E+00
0.00000000E+00  0.00000000E+00  0.00000000E+00
0.00000000E+00  0.00000000E+00  0.00000000E+00
