Mo2N  (n=1)
1.00000000000000
3.0272034114280988  -0.0000000000000002  0.0000000000000003
-1.5136017057140494  2.6216350569752103  -0.0000000000000009
0.0000000000000030  -0.0000000000000102  31.0668264570699222
Mo  N  S
2  1  2
Selective  dynamics
Direct
-0.0000000000000000  -0.0000000000000000  0.0522979544837267  T  T  T
0.6666666666666643  0.3333333333333357  0.1434268674175151  T  T  T
0.3333333333333357  0.6666666666666643  0.0933173029216421  T  T  T
0.3333333333333357  0.6666666666666643  0.0000000000000000  T  T  T
-0.0000000000000000  -0.0000000000000000  0.1952831089925919  T  T  T

0.00000000E+00  0.00000000E+00  0.00000000E+00
0.00000000E+00  0.00000000E+00  0.00000000E+00
0.00000000E+00  0.00000000E+00  0.00000000E+00
0.00000000E+00  0.00000000E+00  0.00000000E+00
0.00000000E+00  0.00000000E+00  0.00000000E+00
