Mo2C  (n=1)
1.00000000000000
3.1051908099934491  0.0000000000000000  0.0000000000000000
-1.5525954049967245  2.6891741252565122  0.0000000000000000
-0.0000000000000000  0.0000000000000003  30.8167834557070641
Mo  C  S
2  1  2
Selective  dynamics
Direct
-0.0000000000000000  -0.0000000000000000  0.0528997435652229  T  T  T
0.6666666666666643  0.3333333333333357  0.1368403660748815  T  T  T
0.3333333333333357  0.6666666666666643  0.0928519357027266  T  T  T
0.3333333333333357  0.6666666666666643  0.0000000000000000  T  T  T
-0.0000000000000000  -0.0000000000000000  0.1887537505031154  T  T  T

0.00000000E+00  0.00000000E+00  0.00000000E+00
0.00000000E+00  0.00000000E+00  0.00000000E+00
0.00000000E+00  0.00000000E+00  0.00000000E+00
0.00000000E+00  0.00000000E+00  0.00000000E+00
0.00000000E+00  0.00000000E+00  0.00000000E+00
