Cr2C  (n=1)
1.00000000000000
2.9679532251366925  0.0000000000000004  0.0000000000000000
-1.4839766125683469  2.5703228900855146  0.0000000000000000
0.0000000000000000  0.0000000000000000  30.8482554114842316
Cr  C  Se
2  1  2
Selective  dynamics
Direct
0.0000000000000000  0.0000000000000000  0.0544072789949839  T  T  T
0.0000000000000000  0.0000000000000000  0.1351741198061693  T  T  T
0.3333333333333357  0.6666666666666643  0.0947906994005766  T  T  T
0.3333333333333357  0.6666666666666643  0.0000000000000000  T  T  T
0.3333333333333357  0.6666666666666643  0.1895813988011470  T  T  T

0.00000000E+00  0.00000000E+00  0.00000000E+00
0.00000000E+00  0.00000000E+00  0.00000000E+00
0.00000000E+00  0.00000000E+00  0.00000000E+00
0.00000000E+00  0.00000000E+00  0.00000000E+00
0.00000000E+00  0.00000000E+00  0.00000000E+00
