Cr2N  (n=1)
1.00000000000000
2.9607935301565402  0.0000000000000003  0.0000000000000000
-1.4803967650782701  2.5641224124890827  0.0000000000000000
0.0000000000000000  0.0000000000000000  30.7946286284478710
Cr  N  Se
2  1  2
Selective  dynamics
Direct
0.0000000000000000  0.0000000000000000  0.0539032266218747  T  T  T
0.0000000000000000  0.0000000000000000  0.1342668824696450  T  T  T
0.3333333333333357  0.6666666666666643  0.0940850545457598  T  T  T
0.3333333333333357  0.6666666666666643  0.0000000000000000  T  T  T
0.3333333333333357  0.6666666666666643  0.1881701090915197  T  T  T

0.00000000E+00  0.00000000E+00  0.00000000E+00
0.00000000E+00  0.00000000E+00  0.00000000E+00
0.00000000E+00  0.00000000E+00  0.00000000E+00
0.00000000E+00  0.00000000E+00  0.00000000E+00
0.00000000E+00  0.00000000E+00  0.00000000E+00
