Ta2C  (n=1)
1.00000000000000
3.2509037328060018  -0.0000000000000047  0.0000000000000000
-1.6254518664030042  2.8153652184110012  0.0000000000000000
0.0000000000000000  -0.0000000000000000  31.3535305789096874
Ta  C  Se
2  1  2
Selective  dynamics
Direct
-0.0000000000000000  0.0000000000000000  0.0571858677376213  T  T  T
-0.0000000000000000  -0.0000000000000000  0.1454557634151862  T  T  T
0.3333333333333357  0.6666666666666643  0.1013208155764038  T  T  T
0.3333333333333357  0.6666666666666643  0.0000000000000000  T  T  T
0.3333333333333357  0.6666666666666643  0.2026416311528074  T  T  T

0.00000000E+00  0.00000000E+00  0.00000000E+00
0.00000000E+00  0.00000000E+00  0.00000000E+00
0.00000000E+00  0.00000000E+00  0.00000000E+00
0.00000000E+00  0.00000000E+00  0.00000000E+00
0.00000000E+00  0.00000000E+00  0.00000000E+00
