Ta2N  (n=1)
1.00000000000000
3.1973514926058755  0.0000000000000000  0.0000000000000000
-1.5986757463029375  2.7689876174909105  0.0000000000000000
0.0000000000000000  0.0000000000000000  31.3789035160063783
Ta  N  Se
2  1  2
Selective  dynamics
Direct
0.0000000000000000  0.0000000000000000  0.0566791979534138  T  T  T
0.0000000000000000  -0.0000000000000000  0.1466071760510985  T  T  T
0.3333333333333357  0.6666666666666643  0.1016431870022562  T  T  T
0.3333333333333357  0.6666666666666643  0.0000000000000000  T  T  T
0.3333333333333357  0.6666666666666643  0.2032863740045123  T  T  T

0.00000000E+00  0.00000000E+00  0.00000000E+00
0.00000000E+00  0.00000000E+00  0.00000000E+00
0.00000000E+00  0.00000000E+00  0.00000000E+00
0.00000000E+00  0.00000000E+00  0.00000000E+00
0.00000000E+00  0.00000000E+00  0.00000000E+00
