Zr2N  (n=1)
1.00000000000000
3.4088814481458742  -0.0000000000000002  0.0000000000000000
-1.7044407240729373  2.9521779335571803  0.0000000000000000
0.0000000000000000  0.0000000000000000  31.4867705209140425
Zr  N  Se
2  1  2
Selective  dynamics
Direct
-0.0000000000000000  -0.0000000000000000  0.0570801461984492  T  T  T
-0.0000000000000000  -0.0000000000000000  0.1489355998941970  T  T  T
0.3333333333333357  0.6666666666666643  0.1030078730463264  T  T  T
0.3333333333333357  0.6666666666666643  0.0000000000000000  T  T  T
0.3333333333333357  0.6666666666666643  0.2060157460926462  T  T  T

0.00000000E+00  0.00000000E+00  0.00000000E+00
0.00000000E+00  0.00000000E+00  0.00000000E+00
0.00000000E+00  0.00000000E+00  0.00000000E+00
0.00000000E+00  0.00000000E+00  0.00000000E+00
0.00000000E+00  0.00000000E+00  0.00000000E+00
