Ti2N  (n=1)
1.00000000000000
3.1639658511552828  0.0000000000000001  -0.0000000000000000
-1.5819829255776414  2.7400748041143710  -0.0000000000000000
0.0000000000000000  -0.0000000000000000  31.1113820644063068
Ti  N  Se
2  1  2
Selective  dynamics
Direct
0.0000000000000000  0.0000000000000000  0.0562125963022230  T  T  T
0.0000000000000000  0.0000000000000000  0.1402229735401846  T  T  T
0.3333333333333357  0.6666666666666643  0.0982177849212038  T  T  T
0.3333333333333357  0.6666666666666643  0.0000000000000000  T  T  T
0.3333333333333357  0.6666666666666643  0.1964355698424010  T  T  T

0.00000000E+00  0.00000000E+00  0.00000000E+00
0.00000000E+00  0.00000000E+00  0.00000000E+00
0.00000000E+00  0.00000000E+00  0.00000000E+00
0.00000000E+00  0.00000000E+00  0.00000000E+00
0.00000000E+00  0.00000000E+00  0.00000000E+00
