Nb2C  (n=1)
1.00000000000000
3.2579228386606673  0.0000000000000000  0.0000000000000000
-1.6289614193303337  2.8214439424661117  0.0000000000000000
0.0000000000000000  0.0000000000000000  31.3825786310628025
Nb  C  Se
2  1  2
Selective  dynamics
Direct
-0.0000000000000000  -0.0000000000000000  0.0574127053180680  T  T  T
-0.0000000000000000  -0.0000000000000000  0.1459669693127878  T  T  T
0.3333333333333357  0.6666666666666643  0.1016898373154279  T  T  T
0.3333333333333357  0.6666666666666643  0.0000000000000000  T  T  T
0.3333333333333357  0.6666666666666643  0.2033796746308558  T  T  T

0.00000000E+00  0.00000000E+00  0.00000000E+00
0.00000000E+00  0.00000000E+00  0.00000000E+00
0.00000000E+00  0.00000000E+00  0.00000000E+00
0.00000000E+00  0.00000000E+00  0.00000000E+00
0.00000000E+00  0.00000000E+00  0.00000000E+00
