Ti2C  (n=1)
1.00000000000000
3.1448224244165432  -0.0000000000000000  -0.0000000000000000
-1.5724112122082716  2.7234961102841413  -0.0000000000000000
0.0000000000000000  -0.0000000000000000  31.3842208520317953
Ti  C  Se
2  1  2
Selective  dynamics
Direct
-0.0000000000000000  -0.0000000000000000  0.0598583521016232  T  T  T
0.0000000000000000  0.0000000000000000  0.1435630067440110  T  T  T
0.3333333333333357  0.6666666666666643  0.1017106794228134  T  T  T
0.3333333333333357  0.6666666666666643  0.0000000000000000  T  T  T
0.3333333333333357  0.6666666666666643  0.2034213588456342  T  T  T

0.00000000E+00  0.00000000E+00  0.00000000E+00
0.00000000E+00  0.00000000E+00  0.00000000E+00
0.00000000E+00  0.00000000E+00  0.00000000E+00
0.00000000E+00  0.00000000E+00  0.00000000E+00
0.00000000E+00  0.00000000E+00  0.00000000E+00
