Zr2C  (n=1)
1.00000000000000
3.3835021100860110  -0.0000000000000001  0.0000000000000000
-1.6917510550430055  2.9301987819753945  -0.0000000000000000
0.0000000000000000  -0.0000000000000000  31.7513588039611925
Zr  C  Se
2  1  2
Selective  dynamics
Direct
0.0000000000000000  0.0000000000000000  0.0605528160033447  T  T  T
-0.0000000000000000  0.0000000000000000  0.1520793061570120  T  T  T
0.3333333333333357  0.6666666666666643  0.1063160610801783  T  T  T
0.3333333333333357  0.6666666666666643  0.0000000000000000  T  T  T
0.3333333333333357  0.6666666666666643  0.2126321221603567  T  T  T

0.00000000E+00  0.00000000E+00  0.00000000E+00
0.00000000E+00  0.00000000E+00  0.00000000E+00
0.00000000E+00  0.00000000E+00  0.00000000E+00
0.00000000E+00  0.00000000E+00  0.00000000E+00
0.00000000E+00  0.00000000E+00  0.00000000E+00
