Nb2N  (n=1)
1.00000000000000
3.2075771014729120  -0.0000000000000000  -0.0000000000000000
-1.6037885507364560  2.7778432550200494  -0.0000000000000000
0.0000000000000000  -0.0000000000000000  31.3884888590021696
Nb  N  Se
2  1  2
Selective  dynamics
Direct
0.0000000000000000  -0.0000000000000000  0.0569341038067554  T  T  T
-0.0000000000000000  0.0000000000000000  0.1465955687333725  T  T  T
0.3333333333333357  0.6666666666666643  0.1017648362700673  T  T  T
0.3333333333333357  0.6666666666666643  0.0000000000000000  T  T  T
0.3333333333333357  0.6666666666666643  0.2035296725401280  T  T  T

0.00000000E+00  0.00000000E+00  0.00000000E+00
0.00000000E+00  0.00000000E+00  0.00000000E+00
0.00000000E+00  0.00000000E+00  0.00000000E+00
0.00000000E+00  0.00000000E+00  0.00000000E+00
0.00000000E+00  0.00000000E+00  0.00000000E+00
