Sc2N  (n=1)
1.00000000000000
3.2929927086330930  0.0000000000000000  0.0000000000000000
-1.6464963543165465  2.8518153406838009  0.0000000000000000
0.0000000000000000  0.0000000000000000  31.6076393746395787
Sc  N  Se
2  1  2
Selective  dynamics
Direct
-0.0000000000000000  -0.0000000000000000  0.0605683035561228  T  T  T
-0.0000000000000000  -0.0000000000000000  0.1484836694912927  T  T  T
0.3333333333333357  0.6666666666666643  0.1045259865237041  T  T  T
0.3333333333333357  0.6666666666666643  0.0000000000000000  T  T  T
0.3333333333333357  0.6666666666666643  0.2090519730474154  T  T  T

0.00000000E+00  0.00000000E+00  0.00000000E+00
0.00000000E+00  0.00000000E+00  0.00000000E+00
0.00000000E+00  0.00000000E+00  0.00000000E+00
0.00000000E+00  0.00000000E+00  0.00000000E+00
0.00000000E+00  0.00000000E+00  0.00000000E+00
