Hf2C  (n=1)
1.00000000000000
3.4354795002025411  0.0000000000000003  0.0000000000000000
-1.7177397501012706  2.9752125226767920  0.0000000000000000
0.0000000000000000  0.0000000000000000  31.4482557747405558
Hf  C  Se
2  1  2
Selective  dynamics
Direct
0.0000000000000000  0.0000000000000000  0.0558444908470298  T  T  T
-0.0000000000000000  -0.0000000000000000  0.1491988610300507  T  T  T
0.3333333333333357  0.6666666666666643  0.1025216759385436  T  T  T
0.3333333333333357  0.6666666666666643  0.0000000000000000  T  T  T
0.3333333333333357  0.6666666666666643  0.2050433518770804  T  T  T

0.00000000E+00  0.00000000E+00  0.00000000E+00
0.00000000E+00  0.00000000E+00  0.00000000E+00
0.00000000E+00  0.00000000E+00  0.00000000E+00
0.00000000E+00  0.00000000E+00  0.00000000E+00
0.00000000E+00  0.00000000E+00  0.00000000E+00
