Sc2C  (n=1)
1.00000000000000
3.7835237183610628  0.0000000000000000  0.0000000000000000
-1.8917618591805314  3.2766276560393326  0.0000000000000000
0.0000000000000000  0.0000000000000000  30.4708315026226018
Sc  C  Se
2  1  2
Selective  dynamics
Direct
-0.0000000000000000  0.0000000000000000  0.0453822298716261  T  T  T
-0.0000000000000000  0.0000000000000000  0.1341609999267474  T  T  T
0.3333333333333357  0.6666666666666643  0.0897716148991821  T  T  T
0.3333333333333357  0.6666666666666643  0.0000000000000000  T  T  T
0.3333333333333357  0.6666666666666643  0.1795432297983641  T  T  T

0.00000000E+00  0.00000000E+00  0.00000000E+00
0.00000000E+00  0.00000000E+00  0.00000000E+00
0.00000000E+00  0.00000000E+00  0.00000000E+00
0.00000000E+00  0.00000000E+00  0.00000000E+00
0.00000000E+00  0.00000000E+00  0.00000000E+00
