Mo2N  (n=1)
1.00000000000000
3.1285484951091553  0.0000000000000000  0.0000000000000000
-1.5642742475545779  2.7094024737476685  0.0000000000000000
0.0000000000000000  0.0000000000000000  31.1903377568171400
Mo  N  Se
2  1  2
Selective  dynamics
Direct
0.0000000000000000  0.0000000000000000  0.0554060916261170  T  T  T
0.0000000000000000  0.0000000000000000  0.1430636333599214  T  T  T
0.3333333333333357  0.6666666666666643  0.0992348624930224  T  T  T
0.3333333333333357  0.6666666666666643  0.0000000000000000  T  T  T
0.3333333333333357  0.6666666666666643  0.1984697249860382  T  T  T

0.00000000E+00  0.00000000E+00  0.00000000E+00
0.00000000E+00  0.00000000E+00  0.00000000E+00
0.00000000E+00  0.00000000E+00  0.00000000E+00
0.00000000E+00  0.00000000E+00  0.00000000E+00
0.00000000E+00  0.00000000E+00  0.00000000E+00
