Hf2N  (n=1)
1.00000000000000
3.3625190718616045  -0.0000000000000000  -0.0000000000000000
-1.6812595359308022  2.9120269377771111  0.0000000000000000
-0.0000000000000000  0.0000000000000000  31.4098162852947844
Hf  N  Se
2  1  2
Selective  dynamics
Direct
-0.0000000000000000  -0.0000000000000000  0.0564691408853761  T  T  T
0.0000000000000000  0.0000000000000000  0.1476013390905188  T  T  T
0.3333333333333357  0.6666666666666643  0.1020352399879442  T  T  T
0.3333333333333357  0.6666666666666643  0.0000000000000000  T  T  T
0.3333333333333357  0.6666666666666643  0.2040704799758949  T  T  T

0.00000000E+00  0.00000000E+00  0.00000000E+00
0.00000000E+00  0.00000000E+00  0.00000000E+00
0.00000000E+00  0.00000000E+00  0.00000000E+00
0.00000000E+00  0.00000000E+00  0.00000000E+00
0.00000000E+00  0.00000000E+00  0.00000000E+00
