Mo2C  (n=1)
1.00000000000000
3.1179588526570861  0.0000000000000011  0.0000000000000000
-1.5589794263285421  2.7002315729007615  0.0000000000000000
0.0000000000000000  0.0000000000000000  31.2733039525754926
Mo  C  Se
2  1  2
Selective  dynamics
Direct
0.0000000000000000  0.0000000000000000  0.0564232297090660  T  T  T
0.0000000000000000  0.0000000000000000  0.1441729069219936  T  T  T
0.3333333333333357  0.6666666666666643  0.1002980683155298  T  T  T
0.3333333333333357  0.6666666666666643  0.0000000000000000  T  T  T
0.3333333333333357  0.6666666666666643  0.2005961366310597  T  T  T

0.00000000E+00  0.00000000E+00  0.00000000E+00
0.00000000E+00  0.00000000E+00  0.00000000E+00
0.00000000E+00  0.00000000E+00  0.00000000E+00
0.00000000E+00  0.00000000E+00  0.00000000E+00
0.00000000E+00  0.00000000E+00  0.00000000E+00
