Nb4N3  (n=3)
1.00000000000000
3.3009198858844204  -0.0000000000000002  0.0000000000000000
-1.6504599429422102  2.8586804773225056  0.0000000000000000
0.0000000000000002  0.0000000000000003  36.6791420663883372
Nb  N  I
4  3  2
Selective  dynamics
Direct
0.0000000000000000  0.0000000000000000  0.0618398497612263  T  T  T
0.6666666666666643  0.3333333333333357  0.1243925379666557  T  T  T
0.3333333333333357  0.6666666666666643  0.1940211818866978  T  T  T
-0.0000000000000000  -0.0000000000000000  0.2565738700921346  T  T  T
0.3333333333333357  0.6666666666666643  0.0901369804825767  T  T  T
-0.0000000000000000  -0.0000000000000000  0.1592068599266805  T  T  T
0.6666666666666643  0.3333333333333357  0.2282767393707696  T  T  T
0.3333333333333357  0.6666666666666643  0.0000000000000000  T  T  T
0.6666666666666643  0.3333333333333357  0.3184137198533536  T  T  T

0.00000000E+00  0.00000000E+00  0.00000000E+00
0.00000000E+00  0.00000000E+00  0.00000000E+00
0.00000000E+00  0.00000000E+00  0.00000000E+00
0.00000000E+00  0.00000000E+00  0.00000000E+00
0.00000000E+00  0.00000000E+00  0.00000000E+00
0.00000000E+00  0.00000000E+00  0.00000000E+00
0.00000000E+00  0.00000000E+00  0.00000000E+00
0.00000000E+00  0.00000000E+00  0.00000000E+00
0.00000000E+00  0.00000000E+00  0.00000000E+00
