Cr4N3  (n=3)
1.00000000000000
3.1091425343670327  -0.0000000000000000  0.0000000000000000
-1.5545712671835163  2.6925964187837388  -0.0000000000000000
0.0000000000000002  0.0000000000000007  35.7549741840491322
Cr  N  I
4  3  2
Selective  dynamics
Direct
0.0000000000000000  0.0000000000000000  0.0625611571897279  T  T  T
0.6666666666666643  0.3333333333333357  0.1178893062773663  T  T  T
0.3333333333333357  0.6666666666666643  0.1829072801972330  T  T  T
-0.0000000000000000  -0.0000000000000000  0.2382354292848712  T  T  T
0.3333333333333357  0.6666666666666643  0.0860054249867103  T  T  T
0.0000000000000000  -0.0000000000000000  0.1503982932373034  T  T  T
0.6666666666666643  0.3333333333333357  0.2147911614878812  T  T  T
0.3333333333333357  0.6666666666666643  0.0000000000000000  T  T  T
0.6666666666666643  0.3333333333333357  0.3007965864745918  T  T  T

0.00000000E+00  0.00000000E+00  0.00000000E+00
0.00000000E+00  0.00000000E+00  0.00000000E+00
0.00000000E+00  0.00000000E+00  0.00000000E+00
0.00000000E+00  0.00000000E+00  0.00000000E+00
0.00000000E+00  0.00000000E+00  0.00000000E+00
0.00000000E+00  0.00000000E+00  0.00000000E+00
0.00000000E+00  0.00000000E+00  0.00000000E+00
0.00000000E+00  0.00000000E+00  0.00000000E+00
0.00000000E+00  0.00000000E+00  0.00000000E+00
