Hf4N3  (n=3)
1.00000000000000
3.3574740739067042  -0.0000000000000000  0.0000000000000000
-1.6787370369533521  2.9076578411893639  -0.0000000000000000
-0.0000000000000001  -0.0000000000000004  36.8038507106427559
Hf  N  I
4  3  2
Selective  dynamics
Direct
-0.0000000000000000  0.0000000000000000  0.0589755101195357  T  T  T
0.6666666666666643  0.3333333333333357  0.1258183924101564  T  T  T
0.3333333333333357  0.6666666666666643  0.1949048602583306  T  T  T
0.0000000000000000  -0.0000000000000000  0.2617477425489514  T  T  T
0.3333333333333357  0.6666666666666643  0.0920660555004789  T  T  T
-0.0000000000000000  -0.0000000000000000  0.1603616263342436  T  T  T
0.6666666666666643  0.3333333333333357  0.2286571971680011  T  T  T
0.3333333333333357  0.6666666666666643  0.0000000000000000  T  T  T
0.6666666666666643  0.3333333333333357  0.3207232526684871  T  T  T

0.00000000E+00  0.00000000E+00  0.00000000E+00
0.00000000E+00  0.00000000E+00  0.00000000E+00
0.00000000E+00  0.00000000E+00  0.00000000E+00
0.00000000E+00  0.00000000E+00  0.00000000E+00
0.00000000E+00  0.00000000E+00  0.00000000E+00
0.00000000E+00  0.00000000E+00  0.00000000E+00
0.00000000E+00  0.00000000E+00  0.00000000E+00
0.00000000E+00  0.00000000E+00  0.00000000E+00
0.00000000E+00  0.00000000E+00  0.00000000E+00
