Mo4N3  (n=3)
1.00000000000000
3.3167594089569974  -0.0000000000000003  0.0000000000000001
-1.6583797044784987  2.8723979065048759  -0.0000000000000001
0.0000000000000015  -0.0000000000000018  36.1247160871821720
Mo  N  I
4  3  2
Selective  dynamics
Direct
-0.0000000000000000  -0.0000000000000000  0.0644925848726280  T  T  T
0.6666666666666643  0.3333333333333357  0.1199621747747392  T  T  T
0.3333333333333357  0.6666666666666643  0.1879908638134163  T  T  T
0.0000000000000000  0.0000000000000000  0.2434604537155274  T  T  T
0.3333333333333357  0.6666666666666643  0.0864136736019684  T  T  T
-0.0000000000000000  -0.0000000000000000  0.1539765192940815  T  T  T
0.6666666666666643  0.3333333333333357  0.2215393649861796  T  T  T
0.3333333333333357  0.6666666666666643  0.0000000000000000  T  T  T
0.6666666666666643  0.3333333333333357  0.3079530385881555  T  T  T

0.00000000E+00  0.00000000E+00  0.00000000E+00
0.00000000E+00  0.00000000E+00  0.00000000E+00
0.00000000E+00  0.00000000E+00  0.00000000E+00
0.00000000E+00  0.00000000E+00  0.00000000E+00
0.00000000E+00  0.00000000E+00  0.00000000E+00
0.00000000E+00  0.00000000E+00  0.00000000E+00
0.00000000E+00  0.00000000E+00  0.00000000E+00
0.00000000E+00  0.00000000E+00  0.00000000E+00
0.00000000E+00  0.00000000E+00  0.00000000E+00
