Ti4C3  (n=3)
1.00000000000000
3.2723492554260600  0.0000000000000003  0.0000000000000000
-1.6361746277130302  2.8339375855362494  0.0000000000000000
-0.0000000000000001  0.0000000000000002  36.1788046027106702
Ti  C  I
4  3  2
Selective  dynamics
Direct
-0.0000000000000000  -0.0000000000000000  0.0584456491624779  T  T  T
0.6666666666666643  0.3333333333333357  0.1226531049646607  T  T  T
0.3333333333333357  0.6666666666666643  0.1863345668356703  T  T  T
0.0000000000000000  0.0000000000000000  0.2505420226378461  T  T  T
0.3333333333333357  0.6666666666666643  0.0865620167503465  T  T  T
0.0000000000000000  0.0000000000000000  0.1544938359001656  T  T  T
0.6666666666666643  0.3333333333333357  0.2224256550499775  T  T  T
0.3333333333333357  0.6666666666666643  0.0000000000000000  T  T  T
0.6666666666666643  0.3333333333333357  0.3089876718003312  T  T  T

0.00000000E+00  0.00000000E+00  0.00000000E+00
0.00000000E+00  0.00000000E+00  0.00000000E+00
0.00000000E+00  0.00000000E+00  0.00000000E+00
0.00000000E+00  0.00000000E+00  0.00000000E+00
0.00000000E+00  0.00000000E+00  0.00000000E+00
0.00000000E+00  0.00000000E+00  0.00000000E+00
0.00000000E+00  0.00000000E+00  0.00000000E+00
0.00000000E+00  0.00000000E+00  0.00000000E+00
0.00000000E+00  0.00000000E+00  0.00000000E+00
