Zr4N3  (n=3)
1.00000000000000
3.4254092810988510  0.0000000000000000  0.0000000000000000
-1.7127046405494257  2.9664914560244289  0.0000000000000000
0.0000000000000003  -0.0000000000000005  36.8932175659362755
Zr  N  I
4  3  2
Selective  dynamics
Direct
0.0000000000000000  0.0000000000000000  0.0594329236680714  T  T  T
0.6666666666666643  0.3333333333333357  0.1264813876099665  T  T  T
0.3333333333333357  0.6666666666666643  0.1958872847532107  T  T  T
-0.0000000000000000  0.0000000000000000  0.2629357486951058  T  T  T
0.3333333333333357  0.6666666666666643  0.0918754687186117  T  T  T
0.0000000000000000  -0.0000000000000000  0.1611843361815916  T  T  T
0.6666666666666643  0.3333333333333357  0.2304932036445655  T  T  T
0.3333333333333357  0.6666666666666643  0.0000000000000000  T  T  T
0.6666666666666643  0.3333333333333357  0.3223686723631650  T  T  T

0.00000000E+00  0.00000000E+00  0.00000000E+00
0.00000000E+00  0.00000000E+00  0.00000000E+00
0.00000000E+00  0.00000000E+00  0.00000000E+00
0.00000000E+00  0.00000000E+00  0.00000000E+00
0.00000000E+00  0.00000000E+00  0.00000000E+00
0.00000000E+00  0.00000000E+00  0.00000000E+00
0.00000000E+00  0.00000000E+00  0.00000000E+00
0.00000000E+00  0.00000000E+00  0.00000000E+00
0.00000000E+00  0.00000000E+00  0.00000000E+00
