Ta4N3  (n=3)
1.00000000000000
3.2785050650179919  -0.0000000000000001  0.0000000000000000
-1.6392525325089957  2.8392686729157952  0.0000000000000000
0.0000000000000001  0.0000000000000001  36.5916198135541180
Ta  N  I
4  3  2
Selective  dynamics
Direct
-0.0000000000000000  0.0000000000000000  0.0611201270763204  T  T  T
0.6666666666666643  0.3333333333333357  0.1243657330511957  T  T  T
0.3333333333333357  0.6666666666666643  0.1924177237243549  T  T  T
-0.0000000000000000  -0.0000000000000000  0.2556633296992146  T  T  T
0.3333333333333357  0.6666666666666643  0.0912091449456524  T  T  T
-0.0000000000000000  -0.0000000000000000  0.1583917283877714  T  T  T
0.6666666666666643  0.3333333333333357  0.2255743118298905  T  T  T
0.3333333333333357  0.6666666666666643  0.0000000000000000  T  T  T
0.6666666666666643  0.3333333333333357  0.3167834567755428  T  T  T

0.00000000E+00  0.00000000E+00  0.00000000E+00
0.00000000E+00  0.00000000E+00  0.00000000E+00
0.00000000E+00  0.00000000E+00  0.00000000E+00
0.00000000E+00  0.00000000E+00  0.00000000E+00
0.00000000E+00  0.00000000E+00  0.00000000E+00
0.00000000E+00  0.00000000E+00  0.00000000E+00
0.00000000E+00  0.00000000E+00  0.00000000E+00
0.00000000E+00  0.00000000E+00  0.00000000E+00
0.00000000E+00  0.00000000E+00  0.00000000E+00
