Hf4C3  (n=3)
1.00000000000000
3.4288420205110217  0.0000000000000000  0.0000000000000000
-1.7144210102555109  2.9694642961269371  -0.0000000000000002
-0.0000000000000012  0.0000000000000056  36.9950004135513169
Hf  C  I
4  3  2
Selective  dynamics
Direct
-0.0000000000000000  -0.0000000000000000  0.0596528685573544  T  T  T
0.6666666666666643  0.3333333333333357  0.1281569349861389  T  T  T
0.3333333333333357  0.6666666666666643  0.1960760770280340  T  T  T
0.0000000000000000  0.0000000000000000  0.2645801434568184  T  T  T
0.3333333333333357  0.6666666666666643  0.0899260448028396  T  T  T
0.0000000000000000  0.0000000000000000  0.1621165060070864  T  T  T
0.6666666666666643  0.3333333333333357  0.2343069672113332  T  T  T
0.3333333333333357  0.6666666666666643  0.0000000000000000  T  T  T
0.6666666666666643  0.3333333333333357  0.3242330120141729  T  T  T

0.00000000E+00  0.00000000E+00  0.00000000E+00
0.00000000E+00  0.00000000E+00  0.00000000E+00
0.00000000E+00  0.00000000E+00  0.00000000E+00
0.00000000E+00  0.00000000E+00  0.00000000E+00
0.00000000E+00  0.00000000E+00  0.00000000E+00
0.00000000E+00  0.00000000E+00  0.00000000E+00
0.00000000E+00  0.00000000E+00  0.00000000E+00
0.00000000E+00  0.00000000E+00  0.00000000E+00
0.00000000E+00  0.00000000E+00  0.00000000E+00
