Sc4C3  (n=3)
1.00000000000000
3.4240660304329102  0.0000000000000001  0.0000000000000000
-1.7120330152164551  2.9653281668724047  -0.0000000000000002
0.0000000000000006  -0.0000000000000001  37.5380313546410775
Sc  C  I
4  3  2
Selective  dynamics
Direct
-0.0000000000000000  0.0000000000000000  0.0644202890836158  T  T  T
0.6666666666666643  0.3333333333333357  0.1309981537013620  T  T  T
0.3333333333333357  0.6666666666666643  0.2030106076049554  T  T  T
0.0000000000000000  -0.0000000000000000  0.2695884722227015  T  T  T
0.3333333333333357  0.6666666666666643  0.0937059184208796  T  T  T
-0.0000000000000000  -0.0000000000000000  0.1670043806531587  T  T  T
0.6666666666666643  0.3333333333333357  0.2403028428854298  T  T  T
0.3333333333333357  0.6666666666666643  0.0000000000000000  T  T  T
0.6666666666666643  0.3333333333333357  0.3340087613063095  T  T  T

0.00000000E+00  0.00000000E+00  0.00000000E+00
0.00000000E+00  0.00000000E+00  0.00000000E+00
0.00000000E+00  0.00000000E+00  0.00000000E+00
0.00000000E+00  0.00000000E+00  0.00000000E+00
0.00000000E+00  0.00000000E+00  0.00000000E+00
0.00000000E+00  0.00000000E+00  0.00000000E+00
0.00000000E+00  0.00000000E+00  0.00000000E+00
0.00000000E+00  0.00000000E+00  0.00000000E+00
0.00000000E+00  0.00000000E+00  0.00000000E+00
