Nb4C3  (n=3)
1.00000000000000
3.2939000435015560  0.0000000000000000  0.0000000000000000
-1.6469500217507778  2.8526011156953106  0.0000000000000001
0.0000000000000001  0.0000000000000005  36.8775796516761716
Nb  C  I
4  3  2
Selective  dynamics
Direct
0.0000000000000000  0.0000000000000000  0.0598336270195263  T  T  T
0.6666666666666643  0.3333333333333357  0.1261994435379007  T  T  T
0.3333333333333357  0.6666666666666643  0.1958818796905969  T  T  T
-0.0000000000000000  -0.0000000000000000  0.2622476962089713  T  T  T
0.3333333333333357  0.6666666666666643  0.0906774155730924  T  T  T
0.0000000000000000  0.0000000000000000  0.1610406616142489  T  T  T
0.6666666666666643  0.3333333333333357  0.2314039076553980  T  T  T
0.3333333333333357  0.6666666666666643  0.0000000000000000  T  T  T
0.6666666666666643  0.3333333333333357  0.3220813232284974  T  T  T

0.00000000E+00  0.00000000E+00  0.00000000E+00
0.00000000E+00  0.00000000E+00  0.00000000E+00
0.00000000E+00  0.00000000E+00  0.00000000E+00
0.00000000E+00  0.00000000E+00  0.00000000E+00
0.00000000E+00  0.00000000E+00  0.00000000E+00
0.00000000E+00  0.00000000E+00  0.00000000E+00
0.00000000E+00  0.00000000E+00  0.00000000E+00
0.00000000E+00  0.00000000E+00  0.00000000E+00
0.00000000E+00  0.00000000E+00  0.00000000E+00
