Cr4C3  (n=3)
1.00000000000000
3.1752703107455700  0.0000000000000000  0.0000000000000000
-1.5876351553727850  2.7498647529782789  0.0000000000000001
-0.0000000000000014  0.0000000000000016  35.6247003326341627
Cr  C  I
4  3  2
Selective  dynamics
Direct
0.0000000000000000  0.0000000000000000  0.0627242778506900  T  T  T
0.6666666666666643  0.3333333333333357  0.1206506460004570  T  T  T
0.3333333333333357  0.6666666666666643  0.1775890650267078  T  T  T
-0.0000000000000000  -0.0000000000000000  0.2355154331764749  T  T  T
0.3333333333333357  0.6666666666666643  0.0862597187977589  T  T  T
-0.0000000000000000  -0.0000000000000000  0.1491198555135824  T  T  T
0.6666666666666643  0.3333333333333357  0.2119799922293987  T  T  T
0.3333333333333357  0.6666666666666643  0.0000000000000000  T  T  T
0.6666666666666643  0.3333333333333357  0.2982397110271650  T  T  T

0.00000000E+00  0.00000000E+00  0.00000000E+00
0.00000000E+00  0.00000000E+00  0.00000000E+00
0.00000000E+00  0.00000000E+00  0.00000000E+00
0.00000000E+00  0.00000000E+00  0.00000000E+00
0.00000000E+00  0.00000000E+00  0.00000000E+00
0.00000000E+00  0.00000000E+00  0.00000000E+00
0.00000000E+00  0.00000000E+00  0.00000000E+00
0.00000000E+00  0.00000000E+00  0.00000000E+00
0.00000000E+00  0.00000000E+00  0.00000000E+00
