Ta4C3  (n=3)
1.00000000000000
3.2772827044530719  0.0000000000000000  0.0000000000000000
-1.6386413522265360  2.8382100776739994  -0.0000000000000001
-0.0000000000000001  -0.0000000000000012  36.8462426795908158
Ta  C  I
4  3  2
Selective  dynamics
Direct
0.0000000000000000  -0.0000000000000000  0.0598547679776429  T  T  T
0.6666666666666643  0.3333333333333357  0.1260823179375337  T  T  T
0.3333333333333357  0.6666666666666643  0.1954224493898680  T  T  T
0.0000000000000000  0.0000000000000000  0.2616499993497586  T  T  T
0.3333333333333357  0.6666666666666643  0.0909671818431633  T  T  T
0.0000000000000000  0.0000000000000000  0.1607523836637008  T  T  T
0.6666666666666643  0.3333333333333357  0.2305375854842384  T  T  T
0.3333333333333357  0.6666666666666643  0.0000000000000000  T  T  T
0.6666666666666643  0.3333333333333357  0.3215047673274015  T  T  T

0.00000000E+00  0.00000000E+00  0.00000000E+00
0.00000000E+00  0.00000000E+00  0.00000000E+00
0.00000000E+00  0.00000000E+00  0.00000000E+00
0.00000000E+00  0.00000000E+00  0.00000000E+00
0.00000000E+00  0.00000000E+00  0.00000000E+00
0.00000000E+00  0.00000000E+00  0.00000000E+00
0.00000000E+00  0.00000000E+00  0.00000000E+00
0.00000000E+00  0.00000000E+00  0.00000000E+00
0.00000000E+00  0.00000000E+00  0.00000000E+00
