Mo4C3  (n=3)
1.00000000000000
3.2450095575701994  0.0000000000000000  0.0000000000000000
-1.6225047787850999  2.8102607126715466  0.0000000000000000
0.0000000000000003  -0.0000000000000010  36.6425667391375498
Mo  C  I
4  3  2
Selective  dynamics
Direct
-0.0000000000000000  0.0000000000000000  0.0639713275761278  T  T  T
0.6666666666666643  0.3333333333333357  0.1244082086334004  T  T  T
0.3333333333333357  0.6666666666666643  0.1933251756576690  T  T  T
-0.0000000000000000  -0.0000000000000000  0.2537620567149345  T  T  T
0.3333333333333357  0.6666666666666643  0.0893051588647110  T  T  T
-0.0000000000000000  0.0000000000000000  0.1588666921455311  T  T  T
0.6666666666666643  0.3333333333333357  0.2284282254263513  T  T  T
0.3333333333333357  0.6666666666666643  0.0000000000000000  T  T  T
0.6666666666666643  0.3333333333333357  0.3177333842910694  T  T  T

0.00000000E+00  0.00000000E+00  0.00000000E+00
0.00000000E+00  0.00000000E+00  0.00000000E+00
0.00000000E+00  0.00000000E+00  0.00000000E+00
0.00000000E+00  0.00000000E+00  0.00000000E+00
0.00000000E+00  0.00000000E+00  0.00000000E+00
0.00000000E+00  0.00000000E+00  0.00000000E+00
0.00000000E+00  0.00000000E+00  0.00000000E+00
0.00000000E+00  0.00000000E+00  0.00000000E+00
0.00000000E+00  0.00000000E+00  0.00000000E+00
