Sc4N3  (n=3)
1.00000000000000
3.3895305498840318  0.0000000000000001  -0.0000000000000001
-1.6947652749420159  2.9354195632914570  0.0000000000000000
-0.0000000000000013  -0.0000000000000028  36.7065103775020631
Sc  N  I
4  3  2
Selective  dynamics
Direct
-0.0000000000000000  0.0000000000000000  0.0589379568614187  T  T  T
0.6666666666666643  0.3333333333333357  0.1261219415157037  T  T  T
0.3333333333333357  0.6666666666666643  0.1927999678978607  T  T  T
-0.0000000000000000  -0.0000000000000000  0.2599839525521536  T  T  T
0.3333333333333357  0.6666666666666643  0.0890146923758328  T  T  T
-0.0000000000000000  -0.0000000000000000  0.1594609547067821  T  T  T
0.6666666666666643  0.3333333333333357  0.2299072170377314  T  T  T
0.3333333333333357  0.6666666666666643  0.0000000000000000  T  T  T
0.6666666666666643  0.3333333333333357  0.3189219094135723  T  T  T

0.00000000E+00  0.00000000E+00  0.00000000E+00
0.00000000E+00  0.00000000E+00  0.00000000E+00
0.00000000E+00  0.00000000E+00  0.00000000E+00
0.00000000E+00  0.00000000E+00  0.00000000E+00
0.00000000E+00  0.00000000E+00  0.00000000E+00
0.00000000E+00  0.00000000E+00  0.00000000E+00
0.00000000E+00  0.00000000E+00  0.00000000E+00
0.00000000E+00  0.00000000E+00  0.00000000E+00
0.00000000E+00  0.00000000E+00  0.00000000E+00
