Ti4N3  (n=3)
1.00000000000000
3.2198674722093168  0.0000000000000000  -0.0000000000000000
-1.6099337361046584  2.7884870278034222  0.0000000000000000
-0.0000000000000001  0.0000000000000003  36.0362225551740636
Ti  N  I
4  3  2
Selective  dynamics
Direct
0.0000000000000000  -0.0000000000000000  0.0587197405039070  T  T  T
0.6666666666666643  0.3333333333333357  0.1204739959035083  T  T  T
0.3333333333333357  0.6666666666666643  0.1857795948627412  T  T  T
-0.0000000000000000  0.0000000000000000  0.2475338502623506  T  T  T
0.3333333333333357  0.6666666666666643  0.0876730488805342  T  T  T
-0.0000000000000000  0.0000000000000000  0.1531267953831248  T  T  T
0.6666666666666643  0.3333333333333357  0.2185805418857153  T  T  T
0.3333333333333357  0.6666666666666643  0.0000000000000000  T  T  T
0.6666666666666643  0.3333333333333357  0.3062535907662577  T  T  T

0.00000000E+00  0.00000000E+00  0.00000000E+00
0.00000000E+00  0.00000000E+00  0.00000000E+00
0.00000000E+00  0.00000000E+00  0.00000000E+00
0.00000000E+00  0.00000000E+00  0.00000000E+00
0.00000000E+00  0.00000000E+00  0.00000000E+00
0.00000000E+00  0.00000000E+00  0.00000000E+00
0.00000000E+00  0.00000000E+00  0.00000000E+00
0.00000000E+00  0.00000000E+00  0.00000000E+00
0.00000000E+00  0.00000000E+00  0.00000000E+00
