Zr4C3  (n=3)
1.00000000000000
3.4757887323253689  0.0000000000000000  -0.0000000000000001
-1.7378943661626844  3.0101213410815095  -0.0000000000000001
0.0000000000000022  0.0000000000000055  37.1378901364875986
Zr  C  I
4  3  2
Selective  dynamics
Direct
-0.0000000000000000  -0.0000000000000000  0.0595567379464220  T  T  T
0.6666666666666643  0.3333333333333357  0.1290114799082539  T  T  T
0.3333333333333357  0.6666666666666643  0.1978215763552804  T  T  T
0.0000000000000000  0.0000000000000000  0.2672763183171124  T  T  T
0.3333333333333357  0.6666666666666643  0.0902668726851778  T  T  T
-0.0000000000000000  -0.0000000000000000  0.1634165281317709  T  T  T
0.6666666666666643  0.3333333333333357  0.2365661835783565  T  T  T
0.3333333333333357  0.6666666666666643  0.0000000000000000  T  T  T
0.6666666666666643  0.3333333333333357  0.3268330562635340  T  T  T

0.00000000E+00  0.00000000E+00  0.00000000E+00
0.00000000E+00  0.00000000E+00  0.00000000E+00
0.00000000E+00  0.00000000E+00  0.00000000E+00
0.00000000E+00  0.00000000E+00  0.00000000E+00
0.00000000E+00  0.00000000E+00  0.00000000E+00
0.00000000E+00  0.00000000E+00  0.00000000E+00
0.00000000E+00  0.00000000E+00  0.00000000E+00
0.00000000E+00  0.00000000E+00  0.00000000E+00
0.00000000E+00  0.00000000E+00  0.00000000E+00
