Ta4C3  (n=3)
1.00000000000000
3.2226840424159890  0.0000000000000000  0.0000000000000000
-1.6113420212079945  2.7909262498159046  -0.0000000000000001
-0.0000000000000007  -0.0000000000000008  35.8405884077087862
Ta  C  S
4  3  2
Selective  dynamics
Direct
0.0000000000000000  0.0000000000000000  0.0457033329961447  T  T  T
0.6666666666666643  0.3333333333333357  0.1139759112671446  T  T  T
0.3333333333333357  0.6666666666666643  0.1884908977146353  T  T  T
0.0000000000000000  0.0000000000000000  0.2567634759856279  T  T  T
0.3333333333333357  0.6666666666666643  0.0797398887202295  T  T  T
0.0000000000000000  0.0000000000000000  0.1512334044908900  T  T  T
0.6666666666666643  0.3333333333333357  0.2227269202615431  T  T  T
0.6666666666666643  0.3333333333333357  0.0000000000000000  T  T  T
0.3333333333333357  0.6666666666666643  0.3024668089817726  T  T  T

0.00000000E+00  0.00000000E+00  0.00000000E+00
0.00000000E+00  0.00000000E+00  0.00000000E+00
0.00000000E+00  0.00000000E+00  0.00000000E+00
0.00000000E+00  0.00000000E+00  0.00000000E+00
0.00000000E+00  0.00000000E+00  0.00000000E+00
0.00000000E+00  0.00000000E+00  0.00000000E+00
0.00000000E+00  0.00000000E+00  0.00000000E+00
0.00000000E+00  0.00000000E+00  0.00000000E+00
0.00000000E+00  0.00000000E+00  0.00000000E+00
