Sc4N3  (n=3)
1.00000000000000
3.2451535511751506  0.0000000000000000  0.0000000000000000
-1.6225767755875753  2.8103854153696806  -0.0000000000000004
-0.0000000000000004  -0.0000000000000057  36.1809594520131768
Sc  N  S
4  3  2
Selective  dynamics
Direct
0.0000000000000000  0.0000000000000000  0.0472253062372518  T  T  T
0.6666666666666643  0.3333333333333357  0.1187164983568644  T  T  T
0.3333333333333357  0.6666666666666643  0.1903123284447785  T  T  T
-0.0000000000000000  0.0000000000000000  0.2618035205643912  T  T  T
0.3333333333333357  0.6666666666666643  0.0826477562977441  T  T  T
-0.0000000000000000  0.0000000000000000  0.1545144134008215  T  T  T
0.6666666666666643  0.3333333333333357  0.2263810705038913  T  T  T
0.6666666666666643  0.3333333333333357  0.0000000000000000  T  T  T
0.3333333333333357  0.6666666666666643  0.3090288268016356  T  T  T

0.00000000E+00  0.00000000E+00  0.00000000E+00
0.00000000E+00  0.00000000E+00  0.00000000E+00
0.00000000E+00  0.00000000E+00  0.00000000E+00
0.00000000E+00  0.00000000E+00  0.00000000E+00
0.00000000E+00  0.00000000E+00  0.00000000E+00
0.00000000E+00  0.00000000E+00  0.00000000E+00
0.00000000E+00  0.00000000E+00  0.00000000E+00
0.00000000E+00  0.00000000E+00  0.00000000E+00
0.00000000E+00  0.00000000E+00  0.00000000E+00
