Ti4N3  (n=3)
1.00000000000000
3.0799181359444709  0.0000000000000000  0.0000000000000000
-1.5399590679722355  2.6672873475130747  0.0000000000000000
0.0000000000000000  0.0000000000000006  35.3984669706370809
Ti  N  S
4  3  2
Selective  dynamics
Direct
-0.0000000000000000  -0.0000000000000000  0.0447114835448073  T  T  T
0.6666666666666643  0.3333333333333357  0.1121285040890164  T  T  T
0.3333333333333357  0.6666666666666643  0.1816262220482079  T  T  T
0.0000000000000000  0.0000000000000000  0.2490432425924170  T  T  T
0.3333333333333357  0.6666666666666643  0.0783712242457125  T  T  T
0.0000000000000000  -0.0000000000000000  0.1468773630686086  T  T  T
0.6666666666666643  0.3333333333333357  0.2153835018915045  T  T  T
0.6666666666666643  0.3333333333333357  0.0000000000000000  T  T  T
0.3333333333333357  0.6666666666666643  0.2937547261372244  T  T  T

0.00000000E+00  0.00000000E+00  0.00000000E+00
0.00000000E+00  0.00000000E+00  0.00000000E+00
0.00000000E+00  0.00000000E+00  0.00000000E+00
0.00000000E+00  0.00000000E+00  0.00000000E+00
0.00000000E+00  0.00000000E+00  0.00000000E+00
0.00000000E+00  0.00000000E+00  0.00000000E+00
0.00000000E+00  0.00000000E+00  0.00000000E+00
0.00000000E+00  0.00000000E+00  0.00000000E+00
0.00000000E+00  0.00000000E+00  0.00000000E+00
