Zr4N3  (n=3)
1.00000000000000
3.3480369236575838  0.0000000000000003  -0.0000000000000001
-1.6740184618287919  2.8994850297786909  -0.0000000000000001
-0.0000000000000006  -0.0000000000000017  36.1131355870833914
Zr  N  S
4  3  2
Selective  dynamics
Direct
0.0000000000000000  -0.0000000000000000  0.0448909778053737  T  T  T
0.6666666666666643  0.3333333333333357  0.1170277757015731  T  T  T
0.3333333333333357  0.6666666666666643  0.1907033422536961  T  T  T
-0.0000000000000000  -0.0000000000000000  0.2628401401499030  T  T  T
0.3333333333333357  0.6666666666666643  0.0813924010488589  T  T  T
-0.0000000000000000  -0.0000000000000000  0.1538655589776347  T  T  T
0.6666666666666643  0.3333333333333357  0.2263387169064031  T  T  T
0.6666666666666643  0.3333333333333357  0.0000000000000000  T  T  T
0.3333333333333357  0.6666666666666643  0.3077311179552693  T  T  T

0.00000000E+00  0.00000000E+00  0.00000000E+00
0.00000000E+00  0.00000000E+00  0.00000000E+00
0.00000000E+00  0.00000000E+00  0.00000000E+00
0.00000000E+00  0.00000000E+00  0.00000000E+00
0.00000000E+00  0.00000000E+00  0.00000000E+00
0.00000000E+00  0.00000000E+00  0.00000000E+00
0.00000000E+00  0.00000000E+00  0.00000000E+00
0.00000000E+00  0.00000000E+00  0.00000000E+00
0.00000000E+00  0.00000000E+00  0.00000000E+00
