Cr4C3  (n=3)
1.00000000000000
2.9526332889305582  0.0000000000000000  0.0000000000000000
-1.4763166444652791  2.5570554362550402  0.0000000000000003
-0.0000000000000004  0.0000000000000028  34.9805484394918693
Cr  C  S
4  3  2
Selective  dynamics
Direct
0.0000000000000000  0.0000000000000000  0.0444789460051765  T  T  T
0.6666666666666643  0.3333333333333357  0.1089078696550436  T  T  T
0.3333333333333357  0.6666666666666643  0.1764092246940023  T  T  T
-0.0000000000000000  -0.0000000000000000  0.2408381483438694  T  T  T
0.3333333333333357  0.6666666666666643  0.0760224787049478  T  T  T
0.0000000000000000  -0.0000000000000000  0.1426585471745229  T  T  T
0.6666666666666643  0.3333333333333357  0.2092946156440903  T  T  T
0.6666666666666643  0.3333333333333357  0.0000000000000000  T  T  T
0.3333333333333357  0.6666666666666643  0.2853170943490458  T  T  T

0.00000000E+00  0.00000000E+00  0.00000000E+00
0.00000000E+00  0.00000000E+00  0.00000000E+00
0.00000000E+00  0.00000000E+00  0.00000000E+00
0.00000000E+00  0.00000000E+00  0.00000000E+00
0.00000000E+00  0.00000000E+00  0.00000000E+00
0.00000000E+00  0.00000000E+00  0.00000000E+00
0.00000000E+00  0.00000000E+00  0.00000000E+00
0.00000000E+00  0.00000000E+00  0.00000000E+00
0.00000000E+00  0.00000000E+00  0.00000000E+00
