Mo4N3  (n=3)
1.00000000000000
2.9401292069413927  0.0000000000000001  0.0000000000000000
-1.4700646034706961  2.5462265838540326  -0.0000000000000001
-0.0000000000000011  -0.0000000000000008  36.8994963658267281
Mo  N  S
4  3  2
Selective  dynamics
Direct
-0.0000000000000000  0.0000000000000000  0.0449546435970498  T  T  T
0.6666666666666643  0.3333333333333357  0.1227342208155447  T  T  T
0.3333333333333357  0.6666666666666643  0.1997497569562240  T  T  T
-0.0000000000000000  -0.0000000000000000  0.2775293341747189  T  T  T
0.3333333333333357  0.6666666666666643  0.0864601565140261  T  T  T
-0.0000000000000000  0.0000000000000000  0.1612419888858844  T  T  T
0.6666666666666643  0.3333333333333357  0.2360238212577284  T  T  T
0.6666666666666643  0.3333333333333357  0.0000000000000000  T  T  T
0.3333333333333357  0.6666666666666643  0.3224839777717687  T  T  T

0.00000000E+00  0.00000000E+00  0.00000000E+00
0.00000000E+00  0.00000000E+00  0.00000000E+00
0.00000000E+00  0.00000000E+00  0.00000000E+00
0.00000000E+00  0.00000000E+00  0.00000000E+00
0.00000000E+00  0.00000000E+00  0.00000000E+00
0.00000000E+00  0.00000000E+00  0.00000000E+00
0.00000000E+00  0.00000000E+00  0.00000000E+00
0.00000000E+00  0.00000000E+00  0.00000000E+00
0.00000000E+00  0.00000000E+00  0.00000000E+00
