Nb4C3  (n=3)
1.00000000000000
3.2298383271182241  -0.0000000000000003  -0.0000000000000000
-1.6149191635591120  2.7971220422106078  0.0000000000000000
-0.0000000000000001  0.0000000000000005  35.9535749732636916
Nb  C  S
4  3  2
Selective  dynamics
Direct
0.0000000000000000  0.0000000000000000  0.0462018160556603  T  T  T
0.6666666666666643  0.3333333333333357  0.1147750491610854  T  T  T
0.3333333333333357  0.6666666666666643  0.1898838055260810  T  T  T
-0.0000000000000000  -0.0000000000000000  0.2584570386315062  T  T  T
0.3333333333333357  0.6666666666666643  0.0804007957324653  T  T  T
0.0000000000000000  0.0000000000000000  0.1523294273435869  T  T  T
0.6666666666666643  0.3333333333333357  0.2242580589546936  T  T  T
0.6666666666666643  0.3333333333333357  0.0000000000000000  T  T  T
0.3333333333333357  0.6666666666666643  0.3046588546871666  T  T  T

0.00000000E+00  0.00000000E+00  0.00000000E+00
0.00000000E+00  0.00000000E+00  0.00000000E+00
0.00000000E+00  0.00000000E+00  0.00000000E+00
0.00000000E+00  0.00000000E+00  0.00000000E+00
0.00000000E+00  0.00000000E+00  0.00000000E+00
0.00000000E+00  0.00000000E+00  0.00000000E+00
0.00000000E+00  0.00000000E+00  0.00000000E+00
0.00000000E+00  0.00000000E+00  0.00000000E+00
0.00000000E+00  0.00000000E+00  0.00000000E+00
