Ta4N3  (n=3)
1.00000000000000
3.2113666735328801  -0.0000000000000001  -0.0000000000000001
-1.6056833367664400  2.7811251205321961  0.0000000000000001
0.0000000000000005  0.0000000000000007  35.6136352726613410
Ta  N  S
4  3  2
Selective  dynamics
Direct
0.0000000000000000  0.0000000000000000  0.0453977794417093  T  T  T
0.6666666666666643  0.3333333333333357  0.1118235377056872  T  T  T
0.3333333333333357  0.6666666666666643  0.1861981383013424  T  T  T
0.0000000000000000  0.0000000000000000  0.2526238965653130  T  T  T
0.3333333333333357  0.6666666666666643  0.0800179649243972  T  T  T
0.0000000000000000  0.0000000000000000  0.1490108380035111  T  T  T
0.6666666666666643  0.3333333333333357  0.2180037110826180  T  T  T
0.6666666666666643  0.3333333333333357  0.0000000000000000  T  T  T
0.3333333333333357  0.6666666666666643  0.2980216760070225  T  T  T

0.00000000E+00  0.00000000E+00  0.00000000E+00
0.00000000E+00  0.00000000E+00  0.00000000E+00
0.00000000E+00  0.00000000E+00  0.00000000E+00
0.00000000E+00  0.00000000E+00  0.00000000E+00
0.00000000E+00  0.00000000E+00  0.00000000E+00
0.00000000E+00  0.00000000E+00  0.00000000E+00
0.00000000E+00  0.00000000E+00  0.00000000E+00
0.00000000E+00  0.00000000E+00  0.00000000E+00
0.00000000E+00  0.00000000E+00  0.00000000E+00
