Hf4C3  (n=3)
1.00000000000000
3.3490117546836085  0.0000000000000001  -0.0000000000000001
-1.6745058773418044  2.9003292584787199  0.0000000000000000
0.0000000000000001  0.0000000000000017  36.1931963249997182
Hf  C  S
4  3  2
Selective  dynamics
Direct
0.0000000000000000  0.0000000000000000  0.0448648432516789  T  T  T
0.6666666666666643  0.3333333333333357  0.1182102534695579  T  T  T
0.3333333333333357  0.6666666666666643  0.1910521897943504  T  T  T
-0.0000000000000000  -0.0000000000000000  0.2643976000122293  T  T  T
0.3333333333333357  0.6666666666666643  0.0803518765836585  T  T  T
0.0000000000000000  0.0000000000000000  0.1546312216319579  T  T  T
0.6666666666666643  0.3333333333333357  0.2289105666802422  T  T  T
0.6666666666666643  0.3333333333333357  0.0000000000000000  T  T  T
0.3333333333333357  0.6666666666666643  0.3092624432639082  T  T  T

0.00000000E+00  0.00000000E+00  0.00000000E+00
0.00000000E+00  0.00000000E+00  0.00000000E+00
0.00000000E+00  0.00000000E+00  0.00000000E+00
0.00000000E+00  0.00000000E+00  0.00000000E+00
0.00000000E+00  0.00000000E+00  0.00000000E+00
0.00000000E+00  0.00000000E+00  0.00000000E+00
0.00000000E+00  0.00000000E+00  0.00000000E+00
0.00000000E+00  0.00000000E+00  0.00000000E+00
0.00000000E+00  0.00000000E+00  0.00000000E+00
