Zr4C3  (n=3)
1.00000000000000
3.3995697621111560  -0.0000000000000000  -0.0000000000000000
-1.6997848810555780  2.9441137773050237  0.0000000000000000
-0.0000000000000002  0.0000000000000004  36.3529201347914750
Zr  C  S
4  3  2
Selective  dynamics
Direct
-0.0000000000000000  0.0000000000000000  0.0450780698606371  T  T  T
0.6666666666666643  0.3333333333333357  0.1192937154677646  T  T  T
0.3333333333333357  0.6666666666666643  0.1930036211064765  T  T  T
0.0000000000000000  -0.0000000000000000  0.2672192667136039  T  T  T
0.3333333333333357  0.6666666666666643  0.0810304260634036  T  T  T
0.0000000000000000  -0.0000000000000000  0.1561486682871205  T  T  T
0.6666666666666643  0.3333333333333357  0.2312669105108297  T  T  T
0.6666666666666643  0.3333333333333357  0.0000000000000000  T  T  T
0.3333333333333357  0.6666666666666643  0.3122973365742410  T  T  T

0.00000000E+00  0.00000000E+00  0.00000000E+00
0.00000000E+00  0.00000000E+00  0.00000000E+00
0.00000000E+00  0.00000000E+00  0.00000000E+00
0.00000000E+00  0.00000000E+00  0.00000000E+00
0.00000000E+00  0.00000000E+00  0.00000000E+00
0.00000000E+00  0.00000000E+00  0.00000000E+00
0.00000000E+00  0.00000000E+00  0.00000000E+00
0.00000000E+00  0.00000000E+00  0.00000000E+00
0.00000000E+00  0.00000000E+00  0.00000000E+00
