Ti4C3  (n=3)
1.00000000000000
3.1225318612642954  0.0000000000000000  0.0000000000000000
-1.5612659306321477  2.7041919162944956  -0.0000000000000001
0.0000000000000001  -0.0000000000000013  35.5906597920193590
Ti  C  S
4  3  2
Selective  dynamics
Direct
-0.0000000000000000  -0.0000000000000000  0.0452682053189173  T  T  T
0.6666666666666643  0.3333333333333357  0.1143497920617904  T  T  T
0.3333333333333357  0.6666666666666643  0.1832187232146290  T  T  T
0.0000000000000000  0.0000000000000000  0.2523003099575021  T  T  T
0.3333333333333357  0.6666666666666643  0.0782600877217479  T  T  T
0.0000000000000000  0.0000000000000000  0.1487842576382098  T  T  T
0.6666666666666643  0.3333333333333357  0.2193084275546639  T  T  T
0.6666666666666643  0.3333333333333357  0.0000000000000000  T  T  T
0.3333333333333357  0.6666666666666643  0.2975685152764194  T  T  T

0.00000000E+00  0.00000000E+00  0.00000000E+00
0.00000000E+00  0.00000000E+00  0.00000000E+00
0.00000000E+00  0.00000000E+00  0.00000000E+00
0.00000000E+00  0.00000000E+00  0.00000000E+00
0.00000000E+00  0.00000000E+00  0.00000000E+00
0.00000000E+00  0.00000000E+00  0.00000000E+00
0.00000000E+00  0.00000000E+00  0.00000000E+00
0.00000000E+00  0.00000000E+00  0.00000000E+00
0.00000000E+00  0.00000000E+00  0.00000000E+00
