Cr4N3  (n=3)
1.00000000000000
2.9553516742849926  0.0000000000000000  -0.0000000000000001
-1.4776758371424963  2.5594096271070459  0.0000000000000001
0.0000000000000002  0.0000000000000010  35.0551137232449861
Cr  N  S
4  3  2
Selective  dynamics
Direct
0.0000000000000000  0.0000000000000000  0.0431044097205541  T  T  T
0.6666666666666643  0.3333333333333357  0.1079027821236557  T  T  T
0.3333333333333357  0.6666666666666643  0.1789345050872462  T  T  T
-0.0000000000000000  -0.0000000000000000  0.2437328774903401  T  T  T
0.3333333333333357  0.6666666666666643  0.0772503724133630  T  T  T
-0.0000000000000000  0.0000000000000000  0.1434186436054547  T  T  T
0.6666666666666643  0.3333333333333357  0.2095869147975314  T  T  T
0.6666666666666643  0.3333333333333357  0.0000000000000000  T  T  T
0.3333333333333357  0.6666666666666643  0.2868372872108943  T  T  T

0.00000000E+00  0.00000000E+00  0.00000000E+00
0.00000000E+00  0.00000000E+00  0.00000000E+00
0.00000000E+00  0.00000000E+00  0.00000000E+00
0.00000000E+00  0.00000000E+00  0.00000000E+00
0.00000000E+00  0.00000000E+00  0.00000000E+00
0.00000000E+00  0.00000000E+00  0.00000000E+00
0.00000000E+00  0.00000000E+00  0.00000000E+00
0.00000000E+00  0.00000000E+00  0.00000000E+00
0.00000000E+00  0.00000000E+00  0.00000000E+00
