Nb4N3  (n=3)
1.00000000000000
3.2460202380077030  0.0000000000000001  0.0000000000000000
-1.6230101190038513  2.8111359879073898  0.0000000000000000
-0.0000000000000001  -0.0000000000000001  35.6058822302327869
Nb  N  S
4  3  2
Selective  dynamics
Direct
0.0000000000000000  0.0000000000000000  0.0457222248923161  T  T  T
0.6666666666666643  0.3333333333333357  0.1107025006371450  T  T  T
0.3333333333333357  0.6666666666666643  0.1871663223189505  T  T  T
-0.0000000000000000  -0.0000000000000000  0.2521465980637793  T  T  T
0.3333333333333357  0.6666666666666643  0.0798991447205987  T  T  T
0.0000000000000000  0.0000000000000000  0.1489344114780515  T  T  T
0.6666666666666643  0.3333333333333357  0.2179696782354966  T  T  T
0.6666666666666643  0.3333333333333357  0.0000000000000000  T  T  T
0.3333333333333357  0.6666666666666643  0.2978688229560952  T  T  T

0.00000000E+00  0.00000000E+00  0.00000000E+00
0.00000000E+00  0.00000000E+00  0.00000000E+00
0.00000000E+00  0.00000000E+00  0.00000000E+00
0.00000000E+00  0.00000000E+00  0.00000000E+00
0.00000000E+00  0.00000000E+00  0.00000000E+00
0.00000000E+00  0.00000000E+00  0.00000000E+00
0.00000000E+00  0.00000000E+00  0.00000000E+00
0.00000000E+00  0.00000000E+00  0.00000000E+00
0.00000000E+00  0.00000000E+00  0.00000000E+00
