Mo4C3  (n=3)
1.00000000000000
3.1374879615599296  -0.0000000000000003  0.0000000000000000
-1.5687439807799648  2.7171442792338873  0.0000000000000001
-0.0000000000000006  -0.0000000000000007  35.6771038535384264
Mo  C  S
4  3  2
Selective  dynamics
Direct
0.0000000000000000  0.0000000000000000  0.0462617397416534  T  T  T
0.6666666666666643  0.3333333333333357  0.1138874630427743  T  T  T
0.3333333333333357  0.6666666666666643  0.1853830129849414  T  T  T
0.0000000000000000  -0.0000000000000000  0.2530087362860550  T  T  T
0.3333333333333357  0.6666666666666643  0.0797169836790022  T  T  T
0.0000000000000000  0.0000000000000000  0.1496352380138541  T  T  T
0.6666666666666643  0.3333333333333357  0.2195534923487061  T  T  T
0.6666666666666643  0.3333333333333357  0.0000000000000000  T  T  T
0.3333333333333357  0.6666666666666643  0.2992704760277082  T  T  T

0.00000000E+00  0.00000000E+00  0.00000000E+00
0.00000000E+00  0.00000000E+00  0.00000000E+00
0.00000000E+00  0.00000000E+00  0.00000000E+00
0.00000000E+00  0.00000000E+00  0.00000000E+00
0.00000000E+00  0.00000000E+00  0.00000000E+00
0.00000000E+00  0.00000000E+00  0.00000000E+00
0.00000000E+00  0.00000000E+00  0.00000000E+00
0.00000000E+00  0.00000000E+00  0.00000000E+00
0.00000000E+00  0.00000000E+00  0.00000000E+00
