Sc4C3  (n=3)
1.00000000000000
3.4294115972522303  0.0000000000000006  0.0000000000000005
-1.7147057986261143  2.9699575644977410  -0.0000000000000006
0.0000000000000010  -0.0000000000000008  35.8934140932738472
Sc  C  S
4  3  2
Selective  dynamics
Direct
0.0000000000000000  0.0000000000000000  0.0415964950487406  T  T  T
0.6666666666666643  0.3333333333333357  0.1156160798647763  T  T  T
0.3333333333333357  0.6666666666666643  0.1878773149113754  T  T  T
-0.0000000000000000  -0.0000000000000000  0.2618968997274036  T  T  T
0.3333333333333357  0.6666666666666643  0.0804910932688587  T  T  T
0.0000000000000000  0.0000000000000000  0.1517466973880758  T  T  T
0.6666666666666643  0.3333333333333357  0.2230023015072854  T  T  T
0.6666666666666643  0.3333333333333357  0.0000000000000000  T  T  T
0.3333333333333357  0.6666666666666643  0.3034933947761517  T  T  T

0.00000000E+00  0.00000000E+00  0.00000000E+00
0.00000000E+00  0.00000000E+00  0.00000000E+00
0.00000000E+00  0.00000000E+00  0.00000000E+00
0.00000000E+00  0.00000000E+00  0.00000000E+00
0.00000000E+00  0.00000000E+00  0.00000000E+00
0.00000000E+00  0.00000000E+00  0.00000000E+00
0.00000000E+00  0.00000000E+00  0.00000000E+00
0.00000000E+00  0.00000000E+00  0.00000000E+00
0.00000000E+00  0.00000000E+00  0.00000000E+00
