Hf4N3  (n=3)
1.00000000000000
3.2967024994033713  0.0000000000000000  0.0000000000000000
-1.6483512497016859  2.8550281139955409  0.0000000000000000
0.0000000000000008  -0.0000000000000010  35.9382688138866939
Hf  N  S
4  3  2
Selective  dynamics
Direct
-0.0000000000000000  -0.0000000000000000  0.0445315158700951  T  T  T
0.6666666666666643  0.3333333333333357  0.1157995270448214  T  T  T
0.3333333333333357  0.6666666666666643  0.1885631808678191  T  T  T
0.0000000000000000  0.0000000000000000  0.2598311920425454  T  T  T
0.3333333333333357  0.6666666666666643  0.0807217420203764  T  T  T
0.0000000000000000  -0.0000000000000000  0.1521813539563203  T  T  T
0.6666666666666643  0.3333333333333357  0.2236409658922496  T  T  T
0.6666666666666643  0.3333333333333357  0.0000000000000000  T  T  T
0.3333333333333357  0.6666666666666643  0.3043627079126334  T  T  T

0.00000000E+00  0.00000000E+00  0.00000000E+00
0.00000000E+00  0.00000000E+00  0.00000000E+00
0.00000000E+00  0.00000000E+00  0.00000000E+00
0.00000000E+00  0.00000000E+00  0.00000000E+00
0.00000000E+00  0.00000000E+00  0.00000000E+00
0.00000000E+00  0.00000000E+00  0.00000000E+00
0.00000000E+00  0.00000000E+00  0.00000000E+00
0.00000000E+00  0.00000000E+00  0.00000000E+00
0.00000000E+00  0.00000000E+00  0.00000000E+00
