Cr2C  (n=1)
1.00000000000000
2.8872688869948755  0.0000000000000004  0.0000000000000000
-1.4436344434974373  2.5004482038520970  0.0000000000000001
-0.0000000000000009  0.0000000000000011  30.5968532871421139
Cr  C  S
2  1  2
Selective  dynamics
Direct
-0.0000000000000000  -0.0000000000000000  0.0499255277170233  T  T  T
0.0000000000000000  -0.0000000000000000  0.1328836742731273  T  T  T
0.3333333333333357  0.6666666666666643  0.0901454834344738  T  T  T
0.3333333333333357  0.6666666666666643  0.0000000000000000  T  T  T
0.6666666666666643  0.3333333333333357  0.1829225128027826  T  T  T

0.00000000E+00  0.00000000E+00  0.00000000E+00
0.00000000E+00  0.00000000E+00  0.00000000E+00
0.00000000E+00  0.00000000E+00  0.00000000E+00
0.00000000E+00  0.00000000E+00  0.00000000E+00
0.00000000E+00  0.00000000E+00  0.00000000E+00
