Ti2N  (n=1)
1.00000000000000
3.1388112161988246  -0.0000000000000002  0.0000000000000000
-1.5694056080994123  2.7182902510900959  0.0000000000000000
0.0000000000000000  0.0000000000000003  30.7209150114872998
Ti  N  S
2  1  2
Selective  dynamics
Direct
-0.0000000000000000  0.0000000000000000  0.0504666944869300  T  T  T
-0.0000000000000000  0.0000000000000000  0.1364088804682098  T  T  T
0.3333333333333357  0.6666666666666643  0.0952703989465067  T  T  T
0.3333333333333357  0.6666666666666643  0.0000000000000000  T  T  T
0.6666666666666643  0.3333333333333357  0.1862221554712193  T  T  T

0.00000000E+00  0.00000000E+00  0.00000000E+00
0.00000000E+00  0.00000000E+00  0.00000000E+00
0.00000000E+00  0.00000000E+00  0.00000000E+00
0.00000000E+00  0.00000000E+00  0.00000000E+00
0.00000000E+00  0.00000000E+00  0.00000000E+00
