Zr2C  (n=1)
1.00000000000000
3.4697282318680722  -0.0000000000000000  0.0000000000000000
-1.7348641159340361  3.0048727939396422  -0.0000000000000001
-0.0000000000000000  -0.0000000000000002  31.0744512285339027
Zr  C  S
2  1  2
Selective  dynamics
Direct
-0.0000000000000000  -0.0000000000000000  0.0500498503033342  T  T  T
0.0000000000000000  0.0000000000000000  0.1459252120368935  T  T  T
0.3333333333333357  0.6666666666666643  0.0995655584634581  T  T  T
0.3333333333333357  0.6666666666666643  0.0000000000000000  T  T  T
0.6666666666666643  0.3333333333333357  0.1954805632401991  T  T  T

0.00000000E+00  0.00000000E+00  0.00000000E+00
0.00000000E+00  0.00000000E+00  0.00000000E+00
0.00000000E+00  0.00000000E+00  0.00000000E+00
0.00000000E+00  0.00000000E+00  0.00000000E+00
0.00000000E+00  0.00000000E+00  0.00000000E+00
