Cr2N  (n=1)
1.00000000000000
2.8731925069555380  0.0000000000000000  0.0000000000000000
-1.4365962534777690  2.4882577012423006  0.0000000000000000
0.0000000000000000  0.0000000000000003  30.5653817959272196
Cr  N  S
2  1  2
Selective  dynamics
Direct
-0.0000000000000000  0.0000000000000000  0.0502301816453194  T  T  T
-0.0000000000000000  0.0000000000000000  0.1324273225086646  T  T  T
0.3333333333333357  0.6666666666666643  0.0895800205866297  T  T  T
0.3333333333333357  0.6666666666666643  0.0000000000000000  T  T  T
0.6666666666666643  0.3333333333333357  0.1820812130888808  T  T  T

0.00000000E+00  0.00000000E+00  0.00000000E+00
0.00000000E+00  0.00000000E+00  0.00000000E+00
0.00000000E+00  0.00000000E+00  0.00000000E+00
0.00000000E+00  0.00000000E+00  0.00000000E+00
0.00000000E+00  0.00000000E+00  0.00000000E+00
