Mo2N  (n=1)
1.00000000000000
3.0387210860275138  -0.0000000000000000  -0.0000000000000001
-1.5193605430137569  2.6316096556928974  0.0000000000000000
-0.0000000000000007  0.0000000000000007  31.0396353029884153
Mo  N  S
2  1  2
Selective  dynamics
Direct
0.0000000000000000  0.0000000000000000  0.0525932385698307  T  T  T
-0.0000000000000000  -0.0000000000000000  0.1429484058927723  T  T  T
0.3333333333333357  0.6666666666666643  0.0934137040228082  T  T  T
0.3333333333333357  0.6666666666666643  0.0000000000000000  T  T  T
0.6666666666666643  0.3333333333333357  0.1945781657559273  T  T  T

0.00000000E+00  0.00000000E+00  0.00000000E+00
0.00000000E+00  0.00000000E+00  0.00000000E+00
0.00000000E+00  0.00000000E+00  0.00000000E+00
0.00000000E+00  0.00000000E+00  0.00000000E+00
0.00000000E+00  0.00000000E+00  0.00000000E+00
