Ta2N  (n=1)
1.00000000000000
3.1374772588053839  -0.0000000000000001  -0.0000000000000000
-1.5687386294026919  2.7171350102127847  -0.0000000000000001
-0.0000000000000000  -0.0000000000000004  31.1125303645948534
Ta  N  S
2  1  2
Selective  dynamics
Direct
-0.0000000000000000  -0.0000000000000000  0.0524595013175528  T  T  T
0.0000000000000000  0.0000000000000000  0.1439534537383020  T  T  T
0.3333333333333357  0.6666666666666643  0.0977536605155496  T  T  T
0.3333333333333357  0.6666666666666643  0.0000000000000000  T  T  T
0.6666666666666643  0.3333333333333357  0.1964652277704399  T  T  T

0.00000000E+00  0.00000000E+00  0.00000000E+00
0.00000000E+00  0.00000000E+00  0.00000000E+00
0.00000000E+00  0.00000000E+00  0.00000000E+00
0.00000000E+00  0.00000000E+00  0.00000000E+00
0.00000000E+00  0.00000000E+00  0.00000000E+00
