Hf2N  (n=1)
1.00000000000000
3.3597968039280368  -0.0000000000000004  0.0000000000000000
-1.6798984019640195  2.9096693842934318  0.0000000000000000
-0.0000000000000002  0.0000000000000002  30.9950117874968996
Hf  N  S
2  1  2
Selective  dynamics
Direct
-0.0000000000000000  -0.0000000000000000  0.0503758675833972  T  T  T
-0.0000000000000000  -0.0000000000000000  0.1433462710020952  T  T  T
0.3333333333333357  0.6666666666666643  0.1003582628064495  T  T  T
0.3333333333333357  0.6666666666666643  0.0000000000000000  T  T  T
0.6666666666666643  0.3333333333333357  0.1934186000185756  T  T  T

0.00000000E+00  0.00000000E+00  0.00000000E+00
0.00000000E+00  0.00000000E+00  0.00000000E+00
0.00000000E+00  0.00000000E+00  0.00000000E+00
0.00000000E+00  0.00000000E+00  0.00000000E+00
0.00000000E+00  0.00000000E+00  0.00000000E+00
