Ta2C  (n=1)
1.00000000000000
3.2245179873349867  -0.0000000000000023  0.0000000000000000
-1.6122589936674943  2.7925144923142589  -0.0000000000000000
-0.0000000000000002  -0.0000000000000001  30.9881563016683081
Ta  C  S
2  1  2
Selective  dynamics
Direct
0.0000000000000000  0.0000000000000000  0.0525920549907060  T  T  T
-0.0000000000000000  -0.0000000000000000  0.1415618252349146  T  T  T
0.3333333333333357  0.6666666666666643  0.0982478445439630  T  T  T
0.3333333333333357  0.6666666666666643  0.0000000000000000  T  T  T
0.6666666666666643  0.3333333333333357  0.1932401606398869  T  T  T

0.00000000E+00  0.00000000E+00  0.00000000E+00
0.00000000E+00  0.00000000E+00  0.00000000E+00
0.00000000E+00  0.00000000E+00  0.00000000E+00
0.00000000E+00  0.00000000E+00  0.00000000E+00
0.00000000E+00  0.00000000E+00  0.00000000E+00
