Nb2N  (n=1)
1.00000000000000
3.1546221679412172  -0.0000000000000001  0.0000000000000000
-1.5773110839706086  2.7319829371223432  -0.0000000000000001
-0.0000000000000001  -0.0000000000000010  31.1266986637106768
Nb  N  S
2  1  2
Selective  dynamics
Direct
0.0000000000000000  0.0000000000000000  0.0526350067694190  T  T  T
0.0000000000000000  -0.0000000000000000  0.1439277738903174  T  T  T
0.3333333333333357  0.6666666666666643  0.0976369479782724  T  T  T
0.3333333333333357  0.6666666666666643  0.0000000000000000  T  T  T
0.6666666666666643  0.3333333333333357  0.1968309819779745  T  T  T

0.00000000E+00  0.00000000E+00  0.00000000E+00
0.00000000E+00  0.00000000E+00  0.00000000E+00
0.00000000E+00  0.00000000E+00  0.00000000E+00
0.00000000E+00  0.00000000E+00  0.00000000E+00
0.00000000E+00  0.00000000E+00  0.00000000E+00
