Sc2C  (n=1)
1.00000000000000
3.7444668058166157  0.0000000000000001  0.0000000000000000
-1.8722334029083076  3.2428033781560632  -0.0000000000000000
0.0000000000000002  -0.0000000000000004  30.0852484505138129
Sc  C  S
2  1  2
Selective  dynamics
Direct
-0.0000000000000000  -0.0000000000000000  0.0369647264465221  T  T  T
0.0000000000000000  0.0000000000000000  0.1294344890560631  T  T  T
0.3333333333333357  0.6666666666666643  0.0679582654471880  T  T  T
0.3333333333333357  0.6666666666666643  0.0000000000000000  T  T  T
0.6666666666666643  0.3333333333333357  0.1690279692680073  T  T  T

0.00000000E+00  0.00000000E+00  0.00000000E+00
0.00000000E+00  0.00000000E+00  0.00000000E+00
0.00000000E+00  0.00000000E+00  0.00000000E+00
0.00000000E+00  0.00000000E+00  0.00000000E+00
0.00000000E+00  0.00000000E+00  0.00000000E+00
