Mo2C  (n=1)
1.00000000000000
3.0630937166338206  0.0000000000000001  -0.0000000000000000
-1.5315468583169103  2.6527169729745150  -0.0000000000000000
-0.0000000000000002  -0.0000000000000001  31.0212669137847854
Mo  C  S
2  1  2
Selective  dynamics
Direct
0.0000000000000000  0.0000000000000000  0.0520820687055287  T  T  T
-0.0000000000000000  -0.0000000000000000  0.1416753006584213  T  T  T
0.3333333333333357  0.6666666666666643  0.0953219864020413  T  T  T
0.3333333333333357  0.6666666666666643  0.0000000000000000  T  T  T
0.6666666666666643  0.3333333333333357  0.1941012573896246  T  T  T

0.00000000E+00  0.00000000E+00  0.00000000E+00
0.00000000E+00  0.00000000E+00  0.00000000E+00
0.00000000E+00  0.00000000E+00  0.00000000E+00
0.00000000E+00  0.00000000E+00  0.00000000E+00
0.00000000E+00  0.00000000E+00  0.00000000E+00
