Sc2N  (n=1)
1.00000000000000
3.2759199936258150  0.0000000000000001  0.0000000000000000
-1.6379599968129073  2.8370299356362474  -0.0000000000000000
-0.0000000000000001  -0.0000000000000000  31.2034323021920557
Sc  N  S
2  1  2
Selective  dynamics
Direct
-0.0000000000000000  0.0000000000000000  0.0534947253488345  T  T  T
-0.0000000000000000  -0.0000000000000000  0.1431055890116322  T  T  T
0.3333333333333357  0.6666666666666643  0.1016614520995872  T  T  T
0.3333333333333357  0.6666666666666643  0.0000000000000000  T  T  T
0.6666666666666643  0.3333333333333357  0.1988060878083679  T  T  T

0.00000000E+00  0.00000000E+00  0.00000000E+00
0.00000000E+00  0.00000000E+00  0.00000000E+00
0.00000000E+00  0.00000000E+00  0.00000000E+00
0.00000000E+00  0.00000000E+00  0.00000000E+00
0.00000000E+00  0.00000000E+00  0.00000000E+00
