Nb2C  (n=1)
1.00000000000000
3.2347447979471409  0.0000000000000000  0.0000000000000000
-1.6173723989735704  2.8013711701867288  0.0000000000000001
-0.0000000000000000  0.0000000000000002  31.0230273725681371
Nb  C  S
2  1  2
Selective  dynamics
Direct
-0.0000000000000000  0.0000000000000000  0.0528073834369551  T  T  T
0.0000000000000000  -0.0000000000000000  0.1421187659713912  T  T  T
0.3333333333333357  0.6666666666666643  0.0981652996832409  T  T  T
0.3333333333333357  0.6666666666666643  0.0000000000000000  T  T  T
0.6666666666666643  0.3333333333333357  0.1941469895969583  T  T  T

0.00000000E+00  0.00000000E+00  0.00000000E+00
0.00000000E+00  0.00000000E+00  0.00000000E+00
0.00000000E+00  0.00000000E+00  0.00000000E+00
0.00000000E+00  0.00000000E+00  0.00000000E+00
0.00000000E+00  0.00000000E+00  0.00000000E+00
