Ti2C  (n=1)
1.00000000000000
3.2091789095020080  0.0000000000000000  0.0000000000000000
-1.6045894547510040  2.7792304612230616  -0.0000000000000000
0.0000000000000001  -0.0000000000000002  30.7163073910555333
Ti  C  S
2  1  2
Selective  dynamics
Direct
0.0000000000000000  -0.0000000000000000  0.0488362452832589  T  T  T
-0.0000000000000000  0.0000000000000000  0.1371467563292504  T  T  T
0.3333333333333357  0.6666666666666643  0.0946701632454319  T  T  T
0.3333333333333357  0.6666666666666643  0.0000000000000000  T  T  T
0.6666666666666643  0.3333333333333357  0.1861000841761370  T  T  T

0.00000000E+00  0.00000000E+00  0.00000000E+00
0.00000000E+00  0.00000000E+00  0.00000000E+00
0.00000000E+00  0.00000000E+00  0.00000000E+00
0.00000000E+00  0.00000000E+00  0.00000000E+00
0.00000000E+00  0.00000000E+00  0.00000000E+00
