Hf2C  (n=1)
1.00000000000000
3.4153548885457119  -0.0000000000000000  -0.0000000000000000
-1.7076774442728557  2.9577840971404625  0.0000000000000000
-0.0000000000000000  -0.0000000000000000  31.0186562946884692
Hf  C  S
2  1  2
Selective  dynamics
Direct
-0.0000000000000000  -0.0000000000000000  0.0501306675424772  T  T  T
0.0000000000000000  0.0000000000000000  0.1444994190348269  T  T  T
0.3333333333333357  0.6666666666666643  0.0990094272904017  T  T  T
0.3333333333333357  0.6666666666666643  0.0000000000000000  T  T  T
0.6666666666666643  0.3333333333333357  0.1940334306395820  T  T  T

0.00000000E+00  0.00000000E+00  0.00000000E+00
0.00000000E+00  0.00000000E+00  0.00000000E+00
0.00000000E+00  0.00000000E+00  0.00000000E+00
0.00000000E+00  0.00000000E+00  0.00000000E+00
0.00000000E+00  0.00000000E+00  0.00000000E+00
