Zr2N  (n=1)
1.00000000000000
3.3984774677815150  -0.0000000000000000  -0.0000000000000000
-1.6992387338907573  2.9431678219540824  -0.0000000000000000
-0.0000000000000002  0.0000000000000001  31.0681610797695775
Zr  N  S
2  1  2
Selective  dynamics
Direct
-0.0000000000000000  0.0000000000000000  0.0507836121811516  T  T  T
0.0000000000000000  -0.0000000000000000  0.1445926447897821  T  T  T
0.3333333333333357  0.6666666666666643  0.1006953826721492  T  T  T
0.3333333333333357  0.6666666666666643  0.0000000000000000  T  T  T
0.6666666666666643  0.3333333333333357  0.1953176779336623  T  T  T

0.00000000E+00  0.00000000E+00  0.00000000E+00
0.00000000E+00  0.00000000E+00  0.00000000E+00
0.00000000E+00  0.00000000E+00  0.00000000E+00
0.00000000E+00  0.00000000E+00  0.00000000E+00
0.00000000E+00  0.00000000E+00  0.00000000E+00
