Nb2N  (n=1)
1.00000000000000
3.4722297447655586  0.0000000000000004  -0.0000000000000000
-1.7361148723827793  3.0070391670805048  -0.0000000000000000
-0.0000000000000004  0.0000000000000006  30.8241780399298477
Nb  N  Br
2  1  2
Selective  dynamics
Direct
-0.0000000000000000  -0.0000000000000000  0.0639562072011623  T  T  T
0.6666666666666643  0.3333333333333357  0.1249921576955485  T  T  T
0.3333333333333357  0.6666666666666643  0.0944741824483554  T  T  T
0.6666666666666643  0.3333333333333357  0.0000000000000000  T  T  T
0.0000000000000000  0.0000000000000000  0.1889483648967109  T  T  T

0.00000000E+00  0.00000000E+00  0.00000000E+00
0.00000000E+00  0.00000000E+00  0.00000000E+00
0.00000000E+00  0.00000000E+00  0.00000000E+00
0.00000000E+00  0.00000000E+00  0.00000000E+00
0.00000000E+00  0.00000000E+00  0.00000000E+00
