Sc2C  (n=1)
1.00000000000000
3.5202103461517487  -0.0000000000000000  0.0000000000000000
-1.7601051730758743  3.0485915870104550  -0.0000000000000000
0.0000000000000000  -0.0000000000000000  31.1170612650807605
Sc  C  Br
2  1  2
Selective  dynamics
Direct
-0.0000000000000000  -0.0000000000000000  0.0592572454902507  T  T  T
0.6666666666666643  0.3333333333333357  0.1373249835631484  T  T  T
0.3333333333333357  0.6666666666666643  0.0982911145267031  T  T  T
0.6666666666666643  0.3333333333333357  0.0000000000000000  T  T  T
0.0000000000000000  0.0000000000000000  0.1965822290533991  T  T  T

0.00000000E+00  0.00000000E+00  0.00000000E+00
0.00000000E+00  0.00000000E+00  0.00000000E+00
0.00000000E+00  0.00000000E+00  0.00000000E+00
0.00000000E+00  0.00000000E+00  0.00000000E+00
0.00000000E+00  0.00000000E+00  0.00000000E+00
