Ti2C  (n=1)
1.00000000000000
3.3198886805008168  0.0000000000000003  -0.0000000000000000
-1.6599443402504084  2.8751079353592752  -0.0000000000000000
-0.0000000000000000  -0.0000000000000004  30.7812409318382905
Ti  C  Br
2  1  2
Selective  dynamics
Direct
-0.0000000000000000  -0.0000000000000000  0.0591355700906789  T  T  T
0.6666666666666643  0.3333333333333357  0.1286814495233198  T  T  T
0.3333333333333357  0.6666666666666643  0.0939085098069994  T  T  T
0.6666666666666643  0.3333333333333357  0.0000000000000000  T  T  T
0.0000000000000000  0.0000000000000000  0.1878170196139987  T  T  T

0.00000000E+00  0.00000000E+00  0.00000000E+00
0.00000000E+00  0.00000000E+00  0.00000000E+00
0.00000000E+00  0.00000000E+00  0.00000000E+00
0.00000000E+00  0.00000000E+00  0.00000000E+00
0.00000000E+00  0.00000000E+00  0.00000000E+00
