Hf2C  (n=1)
1.00000000000000
3.4754089689827579  0.0000000000000021  -0.0000000000000001
-1.7377044844913774  3.0097924561544196  -0.0000000000000006
-0.0000000000000005  -0.0000000000000100  31.1680627764921638
Hf  C  Br
2  1  2
Selective  dynamics
Direct
-0.0000000000000000  -0.0000000000000000  0.0622520993351862  T  T  T
0.6666666666666643  0.3333333333333357  0.1356447934144171  T  T  T
0.3333333333333357  0.6666666666666643  0.0989484463748016  T  T  T
0.6666666666666643  0.3333333333333357  0.0000000000000000  T  T  T
-0.0000000000000000  0.0000000000000000  0.1978968927495966  T  T  T

0.00000000E+00  0.00000000E+00  0.00000000E+00
0.00000000E+00  0.00000000E+00  0.00000000E+00
0.00000000E+00  0.00000000E+00  0.00000000E+00
0.00000000E+00  0.00000000E+00  0.00000000E+00
0.00000000E+00  0.00000000E+00  0.00000000E+00
