Cr2N  (n=1)
1.00000000000000
3.2318138871437010  -0.0000000000000000  0.0000000000000000
-1.6159069435718505  2.7988329267936236  0.0000000000000000
0.0000000000000000  -0.0000000000000001  30.3073004978913261
Cr  N  Br
2  1  2
Selective  dynamics
Direct
0.0000000000000000  -0.0000000000000000  0.0614116456434636  T  T  T
0.6666666666666643  0.3333333333333357  0.1137045940315478  T  T  T
0.3333333333333357  0.6666666666666643  0.0875581198375027  T  T  T
0.6666666666666643  0.3333333333333357  0.0000000000000000  T  T  T
-0.0000000000000000  0.0000000000000000  0.1751162396750113  T  T  T

0.00000000E+00  0.00000000E+00  0.00000000E+00
0.00000000E+00  0.00000000E+00  0.00000000E+00
0.00000000E+00  0.00000000E+00  0.00000000E+00
0.00000000E+00  0.00000000E+00  0.00000000E+00
0.00000000E+00  0.00000000E+00  0.00000000E+00
