Zr2C  (n=1)
1.00000000000000
3.5131733288521052  -0.0000000000000026  0.0000000000000008
-1.7565866644260548  3.0424973511955944  -0.0000000000000004
0.0000000000000075  -0.0000000000000027  31.2687195648461298
Zr  C  Br
2  1  2
Selective  dynamics
Direct
0.0000000000000000  -0.0000000000000000  0.0620819846846943  T  T  T
0.6666666666666643  0.3333333333333357  0.1383969492814328  T  T  T
0.3333333333333357  0.6666666666666643  0.1002394669830635  T  T  T
0.6666666666666643  0.3333333333333357  0.0000000000000000  T  T  T
0.0000000000000000  -0.0000000000000000  0.2004789339661270  T  T  T

0.00000000E+00  0.00000000E+00  0.00000000E+00
0.00000000E+00  0.00000000E+00  0.00000000E+00
0.00000000E+00  0.00000000E+00  0.00000000E+00
0.00000000E+00  0.00000000E+00  0.00000000E+00
0.00000000E+00  0.00000000E+00  0.00000000E+00
