Cr2C  (n=1)
1.00000000000000
3.2297350624845467  0.0000000000000001  0.0000000000000000
-1.6148675312422733  2.7970326116507560  -0.0000000000000000
0.0000000000000001  -0.0000000000000003  30.3391996647504492
Cr  C  Br
2  1  2
Selective  dynamics
Direct
0.0000000000000000  -0.0000000000000000  0.0597296193905401  T  T  T
0.6666666666666643  0.3333333333333357  0.1162539175434877  T  T  T
0.3333333333333357  0.6666666666666643  0.0879917684670169  T  T  T
0.6666666666666643  0.3333333333333357  0.0000000000000000  T  T  T
0.0000000000000000  0.0000000000000000  0.1759835369340277  T  T  T

0.00000000E+00  0.00000000E+00  0.00000000E+00
0.00000000E+00  0.00000000E+00  0.00000000E+00
0.00000000E+00  0.00000000E+00  0.00000000E+00
0.00000000E+00  0.00000000E+00  0.00000000E+00
0.00000000E+00  0.00000000E+00  0.00000000E+00
