Mo2NBr2  (n=1)
1.00000000000000
3.4052688564072171  0.0000000000000000  0.0000000000000000
-1.7026344282036086  2.9490493363722212  0.0000000000000000
0.0000000000000000  0.0000000000000000  30.7461417486521142
Mo  N  Br
2  1  2
Selective  dynamics
Direct
0.0000000000000000  0.0000000000000000  0.0636930789671724  T  T  T
0.6666666666666643  0.3333333333333357  0.1231967687290520  T  T  T
0.3333333333333357  0.6666666666666643  0.0934449238481165  T  T  T
0.6666666666666643  0.3333333333333357  0.0000000000000000  T  T  T
0.0000000000000000  0.0000000000000000  0.1868898476962242  T  T  T

0.00000000E+00  0.00000000E+00  0.00000000E+00
0.00000000E+00  0.00000000E+00  0.00000000E+00
0.00000000E+00  0.00000000E+00  0.00000000E+00
0.00000000E+00  0.00000000E+00  0.00000000E+00
0.00000000E+00  0.00000000E+00  0.00000000E+00
