Nb2C  (n=1)
1.00000000000000
3.3981684746963174  -0.0000000000000001  0.0000000000000000
-1.6990842373481587  2.9429002259021044  -0.0000000000000000
0.0000000000000001  -0.0000000000000000  31.0481352677718547
Nb  C  Br
2  1  2
Selective  dynamics
Direct
0.0000000000000000  0.0000000000000000  0.0629020182507318  T  T  T
0.6666666666666643  0.3333333333333357  0.1318966456822310  T  T  T
0.3333333333333357  0.6666666666666643  0.0973993319664780  T  T  T
0.6666666666666643  0.3333333333333357  0.0000000000000000  T  T  T
-0.0000000000000000  -0.0000000000000000  0.1947986639329627  T  T  T

0.00000000E+00  0.00000000E+00  0.00000000E+00
0.00000000E+00  0.00000000E+00  0.00000000E+00
0.00000000E+00  0.00000000E+00  0.00000000E+00
0.00000000E+00  0.00000000E+00  0.00000000E+00
0.00000000E+00  0.00000000E+00  0.00000000E+00
