Ti2N  (n=1)
1.00000000000000
3.3077027328847453  0.0000000000000001  0.0000000000000000
-1.6538513664423726  2.8645545950865863  0.0000000000000000
0.0000000000000001  0.0000000000000000  30.6801161956208546
Ti  N  Br
2  1  2
Selective  dynamics
Direct
-0.0000000000000000  -0.0000000000000000  0.0600999618290165  T  T  T
0.6666666666666643  0.3333333333333357  0.1250400213250110  T  T  T
0.3333333333333357  0.6666666666666643  0.0925699915770138  T  T  T
0.6666666666666643  0.3333333333333357  0.0000000000000000  T  T  T
0.0000000000000000  0.0000000000000000  0.1851399831540275  T  T  T

0.00000000E+00  0.00000000E+00  0.00000000E+00
0.00000000E+00  0.00000000E+00  0.00000000E+00
0.00000000E+00  0.00000000E+00  0.00000000E+00
0.00000000E+00  0.00000000E+00  0.00000000E+00
0.00000000E+00  0.00000000E+00  0.00000000E+00
