Sc2N
1.00000000000000
3.4379011255454213  -0.0000000000000006  0.0000000000000007
-1.7189505627727117  2.9773097107582096  0.0000000000000001
0.0000000000000062  0.0000000000000043  31.0509052441017595
Sc  N  Br
2  1  2
Selective  dynamics
Direct
0.0000000000000000  0.0000000000000000  0.0597016440804862  T  T  T
0.6666666666666643  0.3333333333333357  0.1351688499206880  T  T  T
0.3333333333333357  0.6666666666666643  0.0974352470005871  T  T  T
0.6666666666666643  0.3333333333333357  0.0000000000000000  T  T  T
-0.0000000000000000  0.0000000000000000  0.1948704940011742  T  T  T

0.00000000E+00  0.00000000E+00  0.00000000E+00
0.00000000E+00  0.00000000E+00  0.00000000E+00
0.00000000E+00  0.00000000E+00  0.00000000E+00
0.00000000E+00  0.00000000E+00  0.00000000E+00
0.00000000E+00  0.00000000E+00  0.00000000E+00
