Ta2N  (n=1)
1.00000000000000
3.4644820600245270  -0.0000000000000001  0.0000000000000001
-1.7322410300122635  3.0003294753491199  -0.0000000000000001
-0.0000000000000001  -0.0000000000000004  30.8147559304411729
Ta  N  Br
2  1  2
Selective  dynamics
Direct
-0.0000000000000000  -0.0000000000000000  0.0642175717815587  T  T  T
0.6666666666666643  0.3333333333333357  0.1244828009738495  T  T  T
0.3333333333333357  0.6666666666666643  0.0943501863777041  T  T  T
0.6666666666666643  0.3333333333333357  0.0000000000000000  T  T  T
0.0000000000000000  0.0000000000000000  0.1887003727554081  T  T  T

0.00000000E+00  0.00000000E+00  0.00000000E+00
0.00000000E+00  0.00000000E+00  0.00000000E+00
0.00000000E+00  0.00000000E+00  0.00000000E+00
0.00000000E+00  0.00000000E+00  0.00000000E+00
0.00000000E+00  0.00000000E+00  0.00000000E+00
