Hf2N  (n=1)
1.00000000000000
3.4518684533442943  -0.0000000000000020  -0.0000000000000000
-1.7259342266721489  2.9894057715126521  0.0000000000000000
-0.0000000000000002  0.0000000000000002  31.0445256114813333
Hf  N  Br
2  1  2
Selective  dynamics
Direct
0.0000000000000000  0.0000000000000000  0.0623460132806136  T  T  T
0.6666666666666643  0.3333333333333357  0.1323590270581592  T  T  T
0.3333333333333357  0.6666666666666643  0.0973525201693864  T  T  T
0.6666666666666643  0.3333333333333357  0.0000000000000000  T  T  T
0.0000000000000000  0.0000000000000000  0.1947050403387662  T  T  T

0.00000000E+00  0.00000000E+00  0.00000000E+00
0.00000000E+00  0.00000000E+00  0.00000000E+00
0.00000000E+00  0.00000000E+00  0.00000000E+00
0.00000000E+00  0.00000000E+00  0.00000000E+00
0.00000000E+00  0.00000000E+00  0.00000000E+00
