Mo2C  (n=1)
1.00000000000000
3.4118553585004374  -0.0000000000000001  0.0000000000000000
-1.7059276792502185  2.9547534145583323  -0.0000000000000000
-0.0000000000000001  0.0000000000000000  30.7264416918138537
Mo  C  Br
2  1  2
Selective  dynamics
Direct
0.0000000000000000  -0.0000000000000000  0.0631691536568873  T  T  T
0.6666666666666643  0.3333333333333357  0.1231993737909067  T  T  T
0.3333333333333357  0.6666666666666643  0.0931842637238970  T  T  T
0.6666666666666643  0.3333333333333357  0.0000000000000000  T  T  T
0.0000000000000000  0.0000000000000000  0.1863685274477940  T  T  T

0.00000000E+00  0.00000000E+00  0.00000000E+00
0.00000000E+00  0.00000000E+00  0.00000000E+00
0.00000000E+00  0.00000000E+00  0.00000000E+00
0.00000000E+00  0.00000000E+00  0.00000000E+00
0.00000000E+00  0.00000000E+00  0.00000000E+00
