Ta2C  (n=1)
1.00000000000000
3.4274381475233429  0.0000000000000007  0.0000000000000009
-1.7137190737616708  2.9682485060796506  -0.0000000000000024
0.0000000000000094  -0.0000000000000215  30.9493967583881222
Ta  C  Br
2  1  2
Selective  dynamics
Direct
-0.0000000000000000  -0.0000000000000000  0.0637864071263352  T  T  T
0.6666666666666643  0.3333333333333357  0.1284434061017909  T  T  T
0.3333333333333357  0.6666666666666643  0.0961149066140630  T  T  T
0.6666666666666643  0.3333333333333357  0.0000000000000000  T  T  T
0.0000000000000000  0.0000000000000000  0.1922298132281261  T  T  T

0.00000000E+00  0.00000000E+00  0.00000000E+00
0.00000000E+00  0.00000000E+00  0.00000000E+00
0.00000000E+00  0.00000000E+00  0.00000000E+00
0.00000000E+00  0.00000000E+00  0.00000000E+00
0.00000000E+00  0.00000000E+00  0.00000000E+00
