Zr2N  (n=1)
1.00000000000000
3.4999113225064273  0.0000000000000010  -0.0000000000000004
-1.7499556612532132  3.0310121166970831  0.0000000000000008
-0.0000000000000035  0.0000000000000064  31.1400195163916287
Zr  N  Br
2  1  2
Selective  dynamics
Direct
-0.0000000000000000  -0.0000000000000000  0.0628056605737535  T  T  T
0.6666666666666643  0.3333333333333357  0.1343688952469269  T  T  T
0.3333333333333357  0.6666666666666643  0.0985872779103368  T  T  T
0.6666666666666643  0.3333333333333357  0.0000000000000000  T  T  T
-0.0000000000000000  -0.0000000000000000  0.1971745558206736  T  T  T

0.00000000E+00  0.00000000E+00  0.00000000E+00
0.00000000E+00  0.00000000E+00  0.00000000E+00
0.00000000E+00  0.00000000E+00  0.00000000E+00
0.00000000E+00  0.00000000E+00  0.00000000E+00
0.00000000E+00  0.00000000E+00  0.00000000E+00
