Ti3C2  (n=2)
1.00000000000000
3.1456078035375299  -0.0000000000000003  -0.0000000000000001
-1.5728039017687652  2.7241762684729034  0.0000000000000000
0.0000000000000013  0.0000000000000000  33.2367817234754384
Ti  C  Cl
3  2  2
Selective  dynamics
Direct
-0.0000000000000000  -0.0000000000000000  0.0528097053728597  T  T  T
0.6666666666666643  0.3333333333333357  0.1239106390023576  T  T  T
0.3333333333333357  0.6666666666666643  0.1950115726318630  T  T  T
0.3333333333333357  0.6666666666666643  0.0861512011505542  T  T  T
-0.0000000000000000  -0.0000000000000000  0.1616700768541533  T  T  T
0.3333333333333357  0.6666666666666643  0.0000000000000000  T  T  T
-0.0000000000000000  -0.0000000000000000  0.2478212780047151  T  T  T

0.00000000E+00  0.00000000E+00  0.00000000E+00
0.00000000E+00  0.00000000E+00  0.00000000E+00
0.00000000E+00  0.00000000E+00  0.00000000E+00
0.00000000E+00  0.00000000E+00  0.00000000E+00
0.00000000E+00  0.00000000E+00  0.00000000E+00
0.00000000E+00  0.00000000E+00  0.00000000E+00
0.00000000E+00  0.00000000E+00  0.00000000E+00
