Cr3C2  (n=2)
1.00000000000000
3.0558725208492992  0.0000000000000000  0.0000000000000000
-1.5279362604246496  2.6464632338308118  -0.0000000000000001
-0.0000000000000010  -0.0000000000000017  32.7297007981713506
Cr  C  Cl
3  2  2
Selective  dynamics
Direct
0.0000000000000000  0.0000000000000000  0.0539157339409201  T  T  T
0.6666666666666643  0.3333333333333357  0.1180838903147372  T  T  T
0.3333333333333357  0.6666666666666643  0.1822520466885617  T  T  T
0.3333333333333357  0.6666666666666643  0.0829372882141179  T  T  T
-0.0000000000000000  -0.0000000000000000  0.1532304924153639  T  T  T
0.3333333333333357  0.6666666666666643  0.0000000000000000  T  T  T
-0.0000000000000000  0.0000000000000000  0.2361677806294893  T  T  T

0.00000000E+00  0.00000000E+00  0.00000000E+00
0.00000000E+00  0.00000000E+00  0.00000000E+00
0.00000000E+00  0.00000000E+00  0.00000000E+00
0.00000000E+00  0.00000000E+00  0.00000000E+00
0.00000000E+00  0.00000000E+00  0.00000000E+00
0.00000000E+00  0.00000000E+00  0.00000000E+00
0.00000000E+00  0.00000000E+00  0.00000000E+00
