Ta3C2  (n=2)
1.00000000000000
3.1644924185038725  0.0000000000000000  0.0000000000000000
-1.5822462092519365  2.7405308249893823  0.0000000000000001
0.0000000000000005  0.0000000000000003  33.7579154971066870
Ta  C  Cl
3  2  2
Selective  dynamics
Direct
0.0000000000000000  0.0000000000000000  0.0543632036624026  T  T  T
0.6666666666666643  0.3333333333333357  0.1297164734276477  T  T  T
0.3333333333333357  0.6666666666666643  0.2050697431929003  T  T  T
0.3333333333333357  0.6666666666666643  0.0905924749364507  T  T  T
-0.0000000000000000  -0.0000000000000000  0.1688404719188448  T  T  T
0.3333333333333357  0.6666666666666643  0.0000000000000000  T  T  T
-0.0000000000000000  -0.0000000000000000  0.2594329468553029  T  T  T

0.00000000E+00  0.00000000E+00  0.00000000E+00
0.00000000E+00  0.00000000E+00  0.00000000E+00
0.00000000E+00  0.00000000E+00  0.00000000E+00
0.00000000E+00  0.00000000E+00  0.00000000E+00
0.00000000E+00  0.00000000E+00  0.00000000E+00
0.00000000E+00  0.00000000E+00  0.00000000E+00
0.00000000E+00  0.00000000E+00  0.00000000E+00
