Nb3C2  (n=2)
1.00000000000000
3.1878067076433618  0.0000000000000001  0.0000000000000000
-1.5939033538216809  2.7607215917187342  -0.0000000000000003
0.0000000000000002  -0.0000000000000014  33.7638895713003748
Nb  C  Cl
3  2  2
Selective  dynamics
Direct
0.0000000000000000  0.0000000000000000  0.0541293771783810  T  T  T
0.6666666666666643  0.3333333333333357  0.1297819902057398  T  T  T
0.3333333333333357  0.6666666666666643  0.2054346032330986  T  T  T
0.3333333333333357  0.6666666666666643  0.0903716654341696  T  T  T
0.0000000000000000  -0.0000000000000000  0.1691923149773024  T  T  T
0.3333333333333357  0.6666666666666643  0.0000000000000000  T  T  T
0.0000000000000000  0.0000000000000000  0.2595639804114798  T  T  T

0.00000000E+00  0.00000000E+00  0.00000000E+00
0.00000000E+00  0.00000000E+00  0.00000000E+00
0.00000000E+00  0.00000000E+00  0.00000000E+00
0.00000000E+00  0.00000000E+00  0.00000000E+00
0.00000000E+00  0.00000000E+00  0.00000000E+00
0.00000000E+00  0.00000000E+00  0.00000000E+00
0.00000000E+00  0.00000000E+00  0.00000000E+00
