Zr3N2  (n=2)
1.00000000000000
3.2883684791314196  0.0000000000000000  0.0000000000000000
-1.6441842395657100  2.8478106406988384  0.0000000000000000
-0.0000000000000002  0.0000000000000000  33.9025829823878979
Zr  N  Cl
3  2  2
Selective  dynamics
Direct
-0.0000000000000000  -0.0000000000000000  0.0534399516650920  T  T  T
0.6666666666666643  0.3333333333333357  0.1312965296333352  T  T  T
0.3333333333333357  0.6666666666666643  0.2091531076015931  T  T  T
0.3333333333333357  0.6666666666666643  0.0927314192583280  T  T  T
0.0000000000000000  -0.0000000000000000  0.1698616400083497  T  T  T
0.3333333333333357  0.6666666666666643  0.0000000000000000  T  T  T
-0.0000000000000000  -0.0000000000000000  0.2625930592666852  T  T  T

0.00000000E+00  0.00000000E+00  0.00000000E+00
0.00000000E+00  0.00000000E+00  0.00000000E+00
0.00000000E+00  0.00000000E+00  0.00000000E+00
0.00000000E+00  0.00000000E+00  0.00000000E+00
0.00000000E+00  0.00000000E+00  0.00000000E+00
0.00000000E+00  0.00000000E+00  0.00000000E+00
0.00000000E+00  0.00000000E+00  0.00000000E+00
