Ti3N2  (n=2)
1.00000000000000
3.0684257200147576  -0.0000000000000004  0.0000000000000000
-1.5342128600073794  2.6573346232844375  0.0000000000000000
-0.0000000000000001  -0.0000000000000019  33.2320623664635804
Ti  N  Cl
3  2  2
Selective  dynamics
Direct
-0.0000000000000000  0.0000000000000000  0.0515214081978046  T  T  T
0.6666666666666643  0.3333333333333357  0.1238572297392351  T  T  T
0.3333333333333357  0.6666666666666643  0.1961930512806729  T  T  T
0.3333333333333357  0.6666666666666643  0.0873052707245421  T  T  T
0.0000000000000000  0.0000000000000000  0.1604091887539354  T  T  T
0.3333333333333357  0.6666666666666643  0.0000000000000000  T  T  T
0.0000000000000000  0.0000000000000000  0.2477144594784774  T  T  T

0.00000000E+00  0.00000000E+00  0.00000000E+00
0.00000000E+00  0.00000000E+00  0.00000000E+00
0.00000000E+00  0.00000000E+00  0.00000000E+00
0.00000000E+00  0.00000000E+00  0.00000000E+00
0.00000000E+00  0.00000000E+00  0.00000000E+00
0.00000000E+00  0.00000000E+00  0.00000000E+00
0.00000000E+00  0.00000000E+00  0.00000000E+00
