Hf3N2  (n=2)
1.00000000000000
3.2285704329593909  -0.0000000000000002  0.0000000000000001
-1.6142852164796955  2.7960240134301606  -0.0000000000000001
0.0000000000000005  -0.0000000000000004  33.8146425685894201
Hf  N  Cl
3  2  2
Selective  dynamics
Direct
0.0000000000000000  0.0000000000000000  0.0530693808135684  T  T  T
0.6666666666666643  0.3333333333333357  0.1303376569885347  T  T  T
0.3333333333333357  0.6666666666666643  0.2076059331635084  T  T  T
0.3333333333333357  0.6666666666666643  0.0928410322770202  T  T  T
0.0000000000000000  0.0000000000000000  0.1678342817000419  T  T  T
0.3333333333333357  0.6666666666666643  0.0000000000000000  T  T  T
0.0000000000000000  -0.0000000000000000  0.2606753139770693  T  T  T

0.00000000E+00  0.00000000E+00  0.00000000E+00
0.00000000E+00  0.00000000E+00  0.00000000E+00
0.00000000E+00  0.00000000E+00  0.00000000E+00
0.00000000E+00  0.00000000E+00  0.00000000E+00
0.00000000E+00  0.00000000E+00  0.00000000E+00
0.00000000E+00  0.00000000E+00  0.00000000E+00
0.00000000E+00  0.00000000E+00  0.00000000E+00
