Cr3N2  (n=2)
1.00000000000000
3.0223970477854460  -0.0000000000000001  0.0000000000000000
-1.5111985238927230  2.6174726237281805  0.0000000000000000
0.0000000000000003  0.0000000000000004  32.8673847361770299
Cr  N  Cl
3  2  2
Selective  dynamics
Direct
0.0000000000000000  0.0000000000000000  0.0535365292397751  T  T  T
0.6666666666666643  0.3333333333333357  0.1196837655220733  T  T  T
0.3333333333333357  0.6666666666666643  0.1858310018043796  T  T  T
0.3333333333333357  0.6666666666666643  0.0843664790802831  T  T  T
0.0000000000000000  -0.0000000000000000  0.1550010519638636  T  T  T
0.3333333333333357  0.6666666666666643  0.0000000000000000  T  T  T
0.0000000000000000  0.0000000000000000  0.2393675310441546  T  T  T

0.00000000E+00  0.00000000E+00  0.00000000E+00
0.00000000E+00  0.00000000E+00  0.00000000E+00
0.00000000E+00  0.00000000E+00  0.00000000E+00
0.00000000E+00  0.00000000E+00  0.00000000E+00
0.00000000E+00  0.00000000E+00  0.00000000E+00
0.00000000E+00  0.00000000E+00  0.00000000E+00
0.00000000E+00  0.00000000E+00  0.00000000E+00
