Hf3C2  (n=2)
1.00000000000000
3.3259035446477343  -0.0000000000000003  0.0000000000000002
-1.6629517723238672  2.8803169608217143  -0.0000000000000002
0.0000000000000019  -0.0000000000000056  33.7946913718248823
Hf  C  Cl
3  2  2
Selective  dynamics
Direct
-0.0000000000000000  -0.0000000000000000  0.0547955876722418  T  T  T
0.6666666666666643  0.3333333333333357  0.1301194213472999  T  T  T
0.3333333333333357  0.6666666666666643  0.2054432550223580  T  T  T
0.3333333333333357  0.6666666666666643  0.0899236617992885  T  T  T
0.0000000000000000  0.0000000000000000  0.1703151808953037  T  T  T
0.3333333333333357  0.6666666666666643  0.0000000000000000  T  T  T
0.0000000000000000  0.0000000000000000  0.2602388426945998  T  T  T

0.00000000E+00  0.00000000E+00  0.00000000E+00
0.00000000E+00  0.00000000E+00  0.00000000E+00
0.00000000E+00  0.00000000E+00  0.00000000E+00
0.00000000E+00  0.00000000E+00  0.00000000E+00
0.00000000E+00  0.00000000E+00  0.00000000E+00
0.00000000E+00  0.00000000E+00  0.00000000E+00
0.00000000E+00  0.00000000E+00  0.00000000E+00
