Sc3C2  (n=2)
1.00000000000000
3.3418403862696224  -0.0000000000000003  0.0000000000000001
-1.6709201931348112  2.8941186707080897  -0.0000000000000002
0.0000000000000006  -0.0000000000000007  33.8958889122595437
Sc  C  Cl
3  2  2
Selective  dynamics
Direct
0.0000000000000000  -0.0000000000000000  0.0524237987649510  T  T  T
0.6666666666666643  0.3333333333333357  0.1312237147001337  T  T  T
0.3333333333333357  0.6666666666666643  0.2100236306353164  T  T  T
0.3333333333333357  0.6666666666666643  0.0903562117011148  T  T  T
-0.0000000000000000  0.0000000000000000  0.1720912176991447  T  T  T
0.3333333333333357  0.6666666666666643  0.0000000000000000  T  T  T
-0.0000000000000000  0.0000000000000000  0.2624474294002675  T  T  T

0.00000000E+00  0.00000000E+00  0.00000000E+00
0.00000000E+00  0.00000000E+00  0.00000000E+00
0.00000000E+00  0.00000000E+00  0.00000000E+00
0.00000000E+00  0.00000000E+00  0.00000000E+00
0.00000000E+00  0.00000000E+00  0.00000000E+00
0.00000000E+00  0.00000000E+00  0.00000000E+00
0.00000000E+00  0.00000000E+00  0.00000000E+00
