Mo3N2  (n=2)
1.00000000000000
3.1616367659598601  0.0000000000000001  0.0000000000000000
-1.5808183829799298  2.7380577572128835  0.0000000000000001
0.0000000000000000  0.0000000000000018  33.3734220354745830
Mo  N  Cl
3  2  2
Selective  dynamics
Direct
-0.0000000000000000  0.0000000000000000  0.0565575597771053  T  T  T
0.6666666666666643  0.3333333333333357  0.1254474825202154  T  T  T
0.3333333333333357  0.6666666666666643  0.1943433525289202  T  T  T
0.3333333333333357  0.6666666666666643  0.0874043572134994  T  T  T
0.0000000000000000  -0.0000000000000000  0.1634927667177462  T  T  T
0.3333333333333357  0.6666666666666643  0.0000000000000000  T  T  T
0.0000000000000000  0.0000000000000000  0.2509009123060254  T  T  T

0.00000000E+00  0.00000000E+00  0.00000000E+00
0.00000000E+00  0.00000000E+00  0.00000000E+00
0.00000000E+00  0.00000000E+00  0.00000000E+00
0.00000000E+00  0.00000000E+00  0.00000000E+00
0.00000000E+00  0.00000000E+00  0.00000000E+00
0.00000000E+00  0.00000000E+00  0.00000000E+00
0.00000000E+00  0.00000000E+00  0.00000000E+00
