Ta3N2  (n=2)
1.00000000000000
3.0939502724373038  -0.0000000000000001  0.0000000000000000
-1.5469751362186519  2.6794395343375546  0.0000000000000000
0.0000000000000001  -0.0000000000000004  33.9439914160230742
Ta  N  Cl
3  2  2
Selective  dynamics
Direct
-0.0000000000000000  -0.0000000000000000  0.0543364113077793  T  T  T
0.6666666666666643  0.3333333333333357  0.1317463127185613  T  T  T
0.3333333333333357  0.6666666666666643  0.2091562141293433  T  T  T
0.3333333333333357  0.6666666666666643  0.0908768807151218  T  T  T
0.0000000000000000  0.0000000000000000  0.1726157447219933  T  T  T
0.3333333333333357  0.6666666666666643  0.0000000000000000  T  T  T
-0.0000000000000000  -0.0000000000000000  0.2634926254371227  T  T  T

0.00000000E+00  0.00000000E+00  0.00000000E+00
0.00000000E+00  0.00000000E+00  0.00000000E+00
0.00000000E+00  0.00000000E+00  0.00000000E+00
0.00000000E+00  0.00000000E+00  0.00000000E+00
0.00000000E+00  0.00000000E+00  0.00000000E+00
0.00000000E+00  0.00000000E+00  0.00000000E+00
0.00000000E+00  0.00000000E+00  0.00000000E+00
