Sc3N2  (n=2)
1.00000000000000
3.2642603947566866  0.0000000000000002  0.0000000000000001
-1.6321301973783431  2.8269324268282676  0.0000000000000001
0.0000000000000004  0.0000000000000005  33.6008068546682210
Sc  N  Cl
3  2  2
Selective  dynamics
Direct
-0.0000000000000000  -0.0000000000000000  0.0531186927998272  T  T  T
0.6666666666666643  0.3333333333333357  0.1279851238672382  T  T  T
0.3333333333333357  0.6666666666666643  0.2028515549346567  T  T  T
0.3333333333333357  0.6666666666666643  0.0886432972715535  T  T  T
-0.0000000000000000  -0.0000000000000000  0.1673269504629304  T  T  T
0.3333333333333357  0.6666666666666643  0.0000000000000000  T  T  T
-0.0000000000000000  -0.0000000000000000  0.2559702477344913  T  T  T

0.00000000E+00  0.00000000E+00  0.00000000E+00
0.00000000E+00  0.00000000E+00  0.00000000E+00
0.00000000E+00  0.00000000E+00  0.00000000E+00
0.00000000E+00  0.00000000E+00  0.00000000E+00
0.00000000E+00  0.00000000E+00  0.00000000E+00
0.00000000E+00  0.00000000E+00  0.00000000E+00
0.00000000E+00  0.00000000E+00  0.00000000E+00
