Zr3C2  (n=2)
1.00000000000000
3.3770192456030554  0.0000000000000000  0.0000000000000001
-1.6885096228015277  2.9245844564929362  -0.0000000000000005
-0.0000000000000002  -0.0000000000000023  33.9125580336937134
Zr  C  Cl
3  2  2
Selective  dynamics
Direct
-0.0000000000000000  -0.0000000000000000  0.0548645160532575  T  T  T
0.6666666666666643  0.3333333333333357  0.1314049801969918  T  T  T
0.3333333333333357  0.6666666666666643  0.2079454443407263  T  T  T
0.3333333333333357  0.6666666666666643  0.0905604036663112  T  T  T
-0.0000000000000000  0.0000000000000000  0.1722495567276648  T  T  T
0.3333333333333357  0.6666666666666643  0.0000000000000000  T  T  T
0.0000000000000000  0.0000000000000000  0.2628099603939836  T  T  T

0.00000000E+00  0.00000000E+00  0.00000000E+00
0.00000000E+00  0.00000000E+00  0.00000000E+00
0.00000000E+00  0.00000000E+00  0.00000000E+00
0.00000000E+00  0.00000000E+00  0.00000000E+00
0.00000000E+00  0.00000000E+00  0.00000000E+00
0.00000000E+00  0.00000000E+00  0.00000000E+00
0.00000000E+00  0.00000000E+00  0.00000000E+00
