Mo3C2  (n=2)
1.00000000000000
3.1258369645813113  0.0000000000000003  -0.0000000000000000
-1.5629184822906559  2.7070542197192347  -0.0000000000000000
-0.0000000000000002  0.0000000000000006  33.5879183461764654
Mo  C  Cl
3  2  2
Selective  dynamics
Direct
0.0000000000000000  0.0000000000000000  0.0560674247466815  T  T  T
0.6666666666666643  0.3333333333333357  0.1278423726303001  T  T  T
0.3333333333333357  0.6666666666666643  0.1996173205139261  T  T  T
0.3333333333333357  0.6666666666666643  0.0888623612890558  T  T  T
-0.0000000000000000  -0.0000000000000000  0.1668223839715517  T  T  T
0.3333333333333357  0.6666666666666643  0.0000000000000000  T  T  T
-0.0000000000000000  -0.0000000000000000  0.2556847452606150  T  T  T

0.00000000E+00  0.00000000E+00  0.00000000E+00
0.00000000E+00  0.00000000E+00  0.00000000E+00
0.00000000E+00  0.00000000E+00  0.00000000E+00
0.00000000E+00  0.00000000E+00  0.00000000E+00
0.00000000E+00  0.00000000E+00  0.00000000E+00
0.00000000E+00  0.00000000E+00  0.00000000E+00
0.00000000E+00  0.00000000E+00  0.00000000E+00
