Nb3N2  (n=2)
1.00000000000000
3.1442783369772025  0.0000000000000000  0.0000000000000000
-1.5721391684886012  2.7230249168255747  0.0000000000000000
0.0000000000000001  0.0000000000000003  33.8329559781087923
Nb  N  Cl
3  2  2
Selective  dynamics
Direct
-0.0000000000000000  0.0000000000000000  0.0544636594993756  T  T  T
0.6666666666666643  0.3333333333333357  0.1305377511770484  T  T  T
0.3333333333333357  0.6666666666666643  0.2066118428547211  T  T  T
0.3333333333333357  0.6666666666666643  0.0906000568812012  T  T  T
-0.0000000000000000  -0.0000000000000000  0.1704754454728880  T  T  T
0.3333333333333357  0.6666666666666643  0.0000000000000000  T  T  T
-0.0000000000000000  -0.0000000000000000  0.2610755023540967  T  T  T

0.00000000E+00  0.00000000E+00  0.00000000E+00
0.00000000E+00  0.00000000E+00  0.00000000E+00
0.00000000E+00  0.00000000E+00  0.00000000E+00
0.00000000E+00  0.00000000E+00  0.00000000E+00
0.00000000E+00  0.00000000E+00  0.00000000E+00
0.00000000E+00  0.00000000E+00  0.00000000E+00
0.00000000E+00  0.00000000E+00  0.00000000E+00
