Zr3C2  (n=2)
1.00000000000000
3.3093987618225413  0.0000000000000000  -0.0000000000000001
-1.6546993809112702  2.8660233992753232  0.0000000000000001
-0.0000000000000006  -0.0000000000000007  34.9734502292387077
Zr  C  O  H
3  2  2  2
Selective  dynamics
Direct
0.0000000000000000  0.0000000000000000  0.0684184478202041  T  T  T
0.6666666666666643  0.3333333333333357  0.1433267020905077  T  T  T
0.3333333333333357  0.6666666666666643  0.2181575318720706  T  T  T
0.3333333333333357  0.6666666666666643  0.1037975371684852  T  T  T
0.0000000000000000  0.0000000000000000  0.1845678867313158  T  T  T
0.3333333333333357  0.6666666666666643  0.0278755144469770  T  T  T
0.6666666666666643  0.3333333333333357  0.2572716536515904  T  T  T
0.3333333333333357  0.6666666666666643  0.0000000000000000  T  T  T
0.6666666666666643  0.3333333333333357  0.2851720423311466  T  T  T

0.00000000E+00  0.00000000E+00  0.00000000E+00
0.00000000E+00  0.00000000E+00  0.00000000E+00
0.00000000E+00  0.00000000E+00  0.00000000E+00
0.00000000E+00  0.00000000E+00  0.00000000E+00
0.00000000E+00  0.00000000E+00  0.00000000E+00
0.00000000E+00  0.00000000E+00  0.00000000E+00
0.00000000E+00  0.00000000E+00  0.00000000E+00
0.00000000E+00  0.00000000E+00  0.00000000E+00
0.00000000E+00  0.00000000E+00  0.00000000E+00
