Nb3N2  (n=2)
1.00000000000000
2.9807482404865810  0.0000000000000000  0.0000000000000000
-1.4903741202432907  2.5814036986756461  0.0000000000000000
0.0000000000000000  0.0000000000000000  35.4122623936415764
Nb  N  O  H
3  2  2  2
Selective  dynamics
Direct
0.0000000000000000  0.0000000000000000  0.0673814748941948  T  T  T
0.6666666666666643  0.3333333333333357  0.1462177546642552  T  T  T
0.3333333333333357  0.6666666666666643  0.2254900549956395  T  T  T
0.3333333333333357  0.6666666666666643  0.1044303366474197  T  T  T
0.0000000000000000  0.0000000000000000  0.1858835591602533  T  T  T
0.3333333333333357  0.6666666666666643  0.0278163906256638  T  T  T
0.6666666666666643  0.3333333333333357  0.2663507784504727  T  T  T
0.3333333333333357  0.6666666666666643  0.0000000000000000  T  T  T
0.6666666666666643  0.3333333333333357  0.2940298554748974  T  T  T

0.00000000E+00  0.00000000E+00  0.00000000E+00
0.00000000E+00  0.00000000E+00  0.00000000E+00
0.00000000E+00  0.00000000E+00  0.00000000E+00
0.00000000E+00  0.00000000E+00  0.00000000E+00
0.00000000E+00  0.00000000E+00  0.00000000E+00
0.00000000E+00  0.00000000E+00  0.00000000E+00
0.00000000E+00  0.00000000E+00  0.00000000E+00
0.00000000E+00  0.00000000E+00  0.00000000E+00
0.00000000E+00  0.00000000E+00  0.00000000E+00
