Ta3N2  (n=2)
1.00000000000000
2.9489942708890990  0.0000000000000001  0.0000000000000000
-1.4744971354445495  2.5539039543260902  0.0000000000000000
0.0000000000000001  -0.0000000000000007  35.4673679436422873
Ta  N  O  H
3  2  2  2
Selective  dynamics
Direct
-0.0000000000000000  -0.0000000000000000  0.0673419785745910  T  T  T
0.6666666666666643  0.3333333333333357  0.1466446430522756  T  T  T
0.3333333333333357  0.6666666666666643  0.2263727983567312  T  T  T
0.3333333333333357  0.6666666666666643  0.1046599299274878  T  T  T
-0.0000000000000000  -0.0000000000000000  0.1864567889544239  T  T  T
0.3333333333333357  0.6666666666666643  0.0279532043345462  T  T  T
0.6666666666666643  0.3333333333333357  0.2673323587177032  T  T  T
0.3333333333333357  0.6666666666666643  0.0000000000000000  T  T  T
0.6666666666666643  0.3333333333333357  0.2951267193064608  T  T  T

0.00000000E+00  0.00000000E+00  0.00000000E+00
0.00000000E+00  0.00000000E+00  0.00000000E+00
0.00000000E+00  0.00000000E+00  0.00000000E+00
0.00000000E+00  0.00000000E+00  0.00000000E+00
0.00000000E+00  0.00000000E+00  0.00000000E+00
0.00000000E+00  0.00000000E+00  0.00000000E+00
0.00000000E+00  0.00000000E+00  0.00000000E+00
0.00000000E+00  0.00000000E+00  0.00000000E+00
0.00000000E+00  0.00000000E+00  0.00000000E+00
