Ti3C2  (n=2)
1.00000000000000
3.0432582653534688  0.0000000000000001  -0.0000000000000001
-1.5216291326767348  2.6355389681465069  0.0000000000000000
-0.0000000000000001  0.0000000000000007  34.3797185767175151
Ti  C  O  H
3  2  2  2
Selective  dynamics
Direct
0.0000000000000000  0.0000000000000000  0.0669930094862264  T  T  T
0.6666666666666643  0.3333333333333357  0.1373818006622122  T  T  T
0.3333333333333357  0.6666666666666643  0.2073032550689050  T  T  T
0.3333333333333357  0.6666666666666643  0.1006003003530976  T  T  T
0.0000000000000000  0.0000000000000000  0.1752424226493826  T  T  T
0.3333333333333357  0.6666666666666643  0.0283895112958725  T  T  T
0.6666666666666643  0.3333333333333357  0.2444603920077621  T  T  T
0.3333333333333357  0.6666666666666643  0.0000000000000000  T  T  T
0.6666666666666643  0.3333333333333357  0.2728270900701789  T  T  T

0.00000000E+00  0.00000000E+00  0.00000000E+00
0.00000000E+00  0.00000000E+00  0.00000000E+00
0.00000000E+00  0.00000000E+00  0.00000000E+00
0.00000000E+00  0.00000000E+00  0.00000000E+00
0.00000000E+00  0.00000000E+00  0.00000000E+00
0.00000000E+00  0.00000000E+00  0.00000000E+00
0.00000000E+00  0.00000000E+00  0.00000000E+00
0.00000000E+00  0.00000000E+00  0.00000000E+00
0.00000000E+00  0.00000000E+00  0.00000000E+00
