Mo3C2  (n=2)
1.00000000000000
3.0387510171794068  0.0000000000000000  0.0000000000000000
-1.5193755085897032  2.6316355767931445  0.0000000000000000
-0.0000000000000003  0.0000000000000006  34.8368837497119728
Mo  C  O  H
3  2  2  2
Selective  dynamics
Direct
-0.0000000000000000  0.0000000000000000  0.0701166291819661  T  T  T
0.6666666666666643  0.3333333333333357  0.1415748296850458  T  T  T
0.3333333333333357  0.6666666666666643  0.2114695692614476  T  T  T
0.3333333333333357  0.6666666666666643  0.1031012942484859  T  T  T
-0.0000000000000000  0.0000000000000000  0.1787772293740997  T  T  T
0.3333333333333357  0.6666666666666643  0.0282378179703884  T  T  T
0.6666666666666643  0.3333333333333357  0.2543163285835079  T  T  T
0.3333333333333357  0.6666666666666643  0.0000000000000000  T  T  T
0.6666666666666643  0.3333333333333357  0.2823697957712220  T  T  T

0.00000000E+00  0.00000000E+00  0.00000000E+00
0.00000000E+00  0.00000000E+00  0.00000000E+00
0.00000000E+00  0.00000000E+00  0.00000000E+00
0.00000000E+00  0.00000000E+00  0.00000000E+00
0.00000000E+00  0.00000000E+00  0.00000000E+00
0.00000000E+00  0.00000000E+00  0.00000000E+00
0.00000000E+00  0.00000000E+00  0.00000000E+00
0.00000000E+00  0.00000000E+00  0.00000000E+00
0.00000000E+00  0.00000000E+00  0.00000000E+00
