Cr3N2  (n=2)
1.00000000000000
2.9298971539146277  0.0000000000000000  0.0000000000000000
-1.4649485769573138  2.5373653657802193  0.0000000000000000
0.0000000000000000  0.0000000000000000  34.1764507677653029
Cr  N  O  H
3  2  2  2
Selective  dynamics
Direct
0.0000000000000000  -0.0000000000000000  0.0669899257495019  T  T  T
0.6666666666666643  0.3333333333333357  0.1330451377021486  T  T  T
0.3333333333333357  0.6666666666666643  0.2046740017461916  T  T  T
0.3333333333333357  0.6666666666666643  0.1000717519045420  T  T  T
0.0000000000000000  -0.0000000000000000  0.1731472540543559  T  T  T
0.3333333333333357  0.6666666666666643  0.0285719663438008  T  T  T
0.6666666666666643  0.3333333333333357  0.2400308484998963  T  T  T
0.3333333333333357  0.6666666666666643  0.0000000000000000  T  T  T
0.6666666666666643  0.3333333333333357  0.2685021575271469  T  T  T

0.00000000E+00  0.00000000E+00  0.00000000E+00
0.00000000E+00  0.00000000E+00  0.00000000E+00
0.00000000E+00  0.00000000E+00  0.00000000E+00
0.00000000E+00  0.00000000E+00  0.00000000E+00
0.00000000E+00  0.00000000E+00  0.00000000E+00
0.00000000E+00  0.00000000E+00  0.00000000E+00
0.00000000E+00  0.00000000E+00  0.00000000E+00
0.00000000E+00  0.00000000E+00  0.00000000E+00
0.00000000E+00  0.00000000E+00  0.00000000E+00
