Nb3C2  (n=2)
1.00000000000000
3.1192935700780478  0.0000000000000003  0.0000000000000000
-1.5596467850390234  2.7013874737090293  -0.0000000000000001
-0.0000000000000005  -0.0000000000000001  34.9302874520444959
Nb  C  O  H
3  2  2  2
Selective  dynamics
Direct
-0.0000000000000000  0.0000000000000000  0.0674984458120652  T  T  T
0.6666666666666643  0.3333333333333357  0.1437213819928295  T  T  T
0.3333333333333357  0.6666666666666643  0.2148838905135396  T  T  T
0.3333333333333357  0.6666666666666643  0.1037549302179147  T  T  T
-0.0000000000000000  0.0000000000000000  0.1802582698716320  T  T  T
0.3333333333333357  0.6666666666666643  0.0279162518247075  T  T  T
0.6666666666666643  0.3333333333333357  0.2562541129699543  T  T  T
0.3333333333333357  0.6666666666666643  0.0000000000000000  T  T  T
0.6666666666666643  0.3333333333333357  0.2842887412729627  T  T  T

0.00000000E+00  0.00000000E+00  0.00000000E+00
0.00000000E+00  0.00000000E+00  0.00000000E+00
0.00000000E+00  0.00000000E+00  0.00000000E+00
0.00000000E+00  0.00000000E+00  0.00000000E+00
0.00000000E+00  0.00000000E+00  0.00000000E+00
0.00000000E+00  0.00000000E+00  0.00000000E+00
0.00000000E+00  0.00000000E+00  0.00000000E+00
0.00000000E+00  0.00000000E+00  0.00000000E+00
0.00000000E+00  0.00000000E+00  0.00000000E+00
