Hf3C2  (n=2)
1.00000000000000
3.2540201438091088  0.0000000000000000  -0.0000000000000001
-1.6270100719045544  2.8180641091967313  0.0000000000000000
-0.0000000000000005  0.0000000000000000  34.8475654408326108
Hf  C  O  H
3  2  2  2
Selective  dynamics
Direct
-0.0000000000000000  -0.0000000000000000  0.0683136593110258  T  T  T
0.6666666666666643  0.3333333333333357  0.1421660431489538  T  T  T
0.3333333333333357  0.6666666666666643  0.2160438967603509  T  T  T
0.3333333333333357  0.6666666666666643  0.1034497053435869  T  T  T
-0.0000000000000000  -0.0000000000000000  0.1830797269943215  T  T  T
0.3333333333333357  0.6666666666666643  0.0280423618951103  T  T  T
0.6666666666666643  0.3333333333333357  0.2544682822291795  T  T  T
0.3333333333333357  0.6666666666666643  0.0000000000000000  T  T  T
0.6666666666666643  0.3333333333333357  0.2825897682164543  T  T  T

0.00000000E+00  0.00000000E+00  0.00000000E+00
0.00000000E+00  0.00000000E+00  0.00000000E+00
0.00000000E+00  0.00000000E+00  0.00000000E+00
0.00000000E+00  0.00000000E+00  0.00000000E+00
0.00000000E+00  0.00000000E+00  0.00000000E+00
0.00000000E+00  0.00000000E+00  0.00000000E+00
0.00000000E+00  0.00000000E+00  0.00000000E+00
0.00000000E+00  0.00000000E+00  0.00000000E+00
0.00000000E+00  0.00000000E+00  0.00000000E+00
