Cr3C2  (n=2)
1.00000000000000
2.9446124978057560  0.0000000000000002  0.0000000000000000
-1.4723062489028778  2.5501092274062076  0.0000000000000001
0.0000000000000005  -0.0000000000000007  33.9630064737547883
Cr  C  O  H
3  2  2  2
Selective  dynamics
Direct
-0.0000000000000000  -0.0000000000000000  0.0679278020586599  T  T  T
0.6666666666666643  0.3333333333333357  0.1322475660748468  T  T  T
0.3333333333333357  0.6666666666666643  0.1979094752924890  T  T  T
0.3333333333333357  0.6666666666666643  0.0986176641837593  T  T  T
-0.0000000000000000  0.0000000000000000  0.1678594196609339  T  T  T
0.3333333333333357  0.6666666666666643  0.0288370894789173  T  T  T
0.6666666666666643  0.3333333333333357  0.2352890675403812  T  T  T
0.3333333333333357  0.6666666666666643  0.0000000000000000  T  T  T
0.6666666666666643  0.3333333333333357  0.2639049779259392  T  T  T

0.00000000E+00  0.00000000E+00  0.00000000E+00
0.00000000E+00  0.00000000E+00  0.00000000E+00
0.00000000E+00  0.00000000E+00  0.00000000E+00
0.00000000E+00  0.00000000E+00  0.00000000E+00
0.00000000E+00  0.00000000E+00  0.00000000E+00
0.00000000E+00  0.00000000E+00  0.00000000E+00
0.00000000E+00  0.00000000E+00  0.00000000E+00
0.00000000E+00  0.00000000E+00  0.00000000E+00
0.00000000E+00  0.00000000E+00  0.00000000E+00
