Ti3N2  (n=2)
1.00000000000000
2.9556585833061439  0.0000000000000000  0.0000000000000000
-1.4778292916530720  2.5596754180967971  0.0000000000000000
-0.0000000000000004  -0.0000000000000008  34.4420699643993089
Ti  N  O  H
3  2  2  2
Selective  dynamics
Direct
0.0000000000000000  0.0000000000000000  0.0659344003112120  T  T  T
0.6666666666666643  0.3333333333333357  0.1376485432034134  T  T  T
0.3333333333333357  0.6666666666666643  0.2083690130894358  T  T  T
0.3333333333333357  0.6666666666666643  0.1013861153379881  T  T  T
0.0000000000000000  0.0000000000000000  0.1735236269246442  T  T  T
0.3333333333333357  0.6666666666666643  0.0282973603434650  T  T  T
0.6666666666666643  0.3333333333333357  0.2456711720450590  T  T  T
0.3333333333333357  0.6666666666666643  0.0000000000000000  T  T  T
0.6666666666666643  0.3333333333333357  0.2741435103685407  T  T  T

0.00000000E+00  0.00000000E+00  0.00000000E+00
0.00000000E+00  0.00000000E+00  0.00000000E+00
0.00000000E+00  0.00000000E+00  0.00000000E+00
0.00000000E+00  0.00000000E+00  0.00000000E+00
0.00000000E+00  0.00000000E+00  0.00000000E+00
0.00000000E+00  0.00000000E+00  0.00000000E+00
0.00000000E+00  0.00000000E+00  0.00000000E+00
0.00000000E+00  0.00000000E+00  0.00000000E+00
0.00000000E+00  0.00000000E+00  0.00000000E+00
