Sc3C2  (n=2)
1.00000000000000
3.2316655803351142  0.0000000000000000  0.0000000000000000
-1.6158327901675571  2.7987044892983257  0.0000000000000000
0.0000000000000010  0.0000000000000008  34.9786331672881587
Sc  C  O  H
3  2  2  2
Selective  dynamics
Direct
-0.0000000000000000  -0.0000000000000000  0.0658927937166655  T  T  T
0.6666666666666643  0.3333333333333357  0.1438719750729837  T  T  T
0.3333333333333357  0.6666666666666643  0.2215020648278452  T  T  T
0.3333333333333357  0.6666666666666643  0.1039523886522324  T  T  T
0.0000000000000000  -0.0000000000000000  0.1847497241057336  T  T  T
0.3333333333333357  0.6666666666666643  0.0278824478479980  T  T  T
0.6666666666666643  0.3333333333333357  0.2575105134949752  T  T  T
0.3333333333333357  0.6666666666666643  0.0000000000000000  T  T  T
0.6666666666666643  0.3333333333333357  0.2852779615362480  T  T  T

0.00000000E+00  0.00000000E+00  0.00000000E+00
0.00000000E+00  0.00000000E+00  0.00000000E+00
0.00000000E+00  0.00000000E+00  0.00000000E+00
0.00000000E+00  0.00000000E+00  0.00000000E+00
0.00000000E+00  0.00000000E+00  0.00000000E+00
0.00000000E+00  0.00000000E+00  0.00000000E+00
0.00000000E+00  0.00000000E+00  0.00000000E+00
0.00000000E+00  0.00000000E+00  0.00000000E+00
0.00000000E+00  0.00000000E+00  0.00000000E+00
