Mo3N2  (n=2)
1.00000000000000
2.8269493193869080  -0.0000000000000001  -0.0000000000000001
-1.4134746596934540  2.4482099259654824  0.0000000000000002
-0.0000000000000005  0.0000000000000021  35.7595827984074646
Mo  N  O  H
3  2  2  2
Selective  dynamics
Direct
0.0000000000000000  0.0000000000000000  0.0692756547893831  T  T  T
0.6666666666666643  0.3333333333333357  0.1519784453355058  T  T  T
0.3333333333333357  0.6666666666666643  0.2329601985541223  T  T  T
0.3333333333333357  0.6666666666666643  0.1067385519616596  T  T  T
0.0000000000000000  0.0000000000000000  0.1918921411103280  T  T  T
0.3333333333333357  0.6666666666666643  0.0278395792532383  T  T  T
0.6666666666666643  0.3333333333333357  0.2734591454505220  T  T  T
0.3333333333333357  0.6666666666666643  0.0000000000000000  T  T  T
0.6666666666666643  0.3333333333333357  0.3008866982331415  T  T  T

0.00000000E+00  0.00000000E+00  0.00000000E+00
0.00000000E+00  0.00000000E+00  0.00000000E+00
0.00000000E+00  0.00000000E+00  0.00000000E+00
0.00000000E+00  0.00000000E+00  0.00000000E+00
0.00000000E+00  0.00000000E+00  0.00000000E+00
0.00000000E+00  0.00000000E+00  0.00000000E+00
0.00000000E+00  0.00000000E+00  0.00000000E+00
0.00000000E+00  0.00000000E+00  0.00000000E+00
0.00000000E+00  0.00000000E+00  0.00000000E+00
