Ta3C2  (n=2)
1.00000000000000
3.1010853287240621  0.0000000000000001  0.0000000000000000
-1.5505426643620310  2.6856186742261339  0.0000000000000000
0.0000000000000000  0.0000000000000000  34.8815819529125832
Ta  C  O  H
3  2  2  2
Selective  dynamics
Direct
-0.0000000000000000  -0.0000000000000000  0.0676544432241666  T  T  T
0.6666666666666643  0.3333333333333357  0.1435025114812825  T  T  T
0.3333333333333357  0.6666666666666643  0.2141560701429385  T  T  T
0.3333333333333357  0.6666666666666643  0.1038221623879682  T  T  T
-0.0000000000000000  -0.0000000000000000  0.1798884621943748  T  T  T
0.3333333333333357  0.6666666666666643  0.0280586536741946  T  T  T
0.6666666666666643  0.3333333333333357  0.2550097578126711  T  T  T
0.3333333333333357  0.6666666666666643  0.0000000000000000  T  T  T
0.6666666666666643  0.3333333333333357  0.2832893865379142  T  T  T

0.00000000E+00  0.00000000E+00  0.00000000E+00
0.00000000E+00  0.00000000E+00  0.00000000E+00
0.00000000E+00  0.00000000E+00  0.00000000E+00
0.00000000E+00  0.00000000E+00  0.00000000E+00
0.00000000E+00  0.00000000E+00  0.00000000E+00
0.00000000E+00  0.00000000E+00  0.00000000E+00
0.00000000E+00  0.00000000E+00  0.00000000E+00
0.00000000E+00  0.00000000E+00  0.00000000E+00
0.00000000E+00  0.00000000E+00  0.00000000E+00
