Sc3N2  (n=2)
1.00000000000000
3.1684296527970957  0.0000000000000001  0.0000000000000000
-1.5842148263985478  2.7439405695628367  0.0000000000000001
-0.0000000000000001  0.0000000000000002  34.6365391197253842
Sc  N  O  H
3  2  2  2
Selective  dynamics
Direct
-0.0000000000000000  -0.0000000000000000  0.0663214268289461  T  T  T
0.6666666666666643  0.3333333333333357  0.1398922249709635  T  T  T
0.3333333333333357  0.6666666666666643  0.2135086687071651  T  T  T
0.3333333333333357  0.6666666666666643  0.1021742965295418  T  T  T
-0.0000000000000000  -0.0000000000000000  0.1800003530310263  T  T  T
0.3333333333333357  0.6666666666666643  0.0280787486806918  T  T  T
0.6666666666666643  0.3333333333333357  0.2501922517995999  T  T  T
0.3333333333333357  0.6666666666666643  0.0000000000000000  T  T  T
0.6666666666666643  0.3333333333333357  0.2782188799641767  T  T  T

0.00000000E+00  0.00000000E+00  0.00000000E+00
0.00000000E+00  0.00000000E+00  0.00000000E+00
0.00000000E+00  0.00000000E+00  0.00000000E+00
0.00000000E+00  0.00000000E+00  0.00000000E+00
0.00000000E+00  0.00000000E+00  0.00000000E+00
0.00000000E+00  0.00000000E+00  0.00000000E+00
0.00000000E+00  0.00000000E+00  0.00000000E+00
0.00000000E+00  0.00000000E+00  0.00000000E+00
0.00000000E+00  0.00000000E+00  0.00000000E+00
