Zr3N2  (n=2)
1.00000000000000
3.1873426391504878  0.0000000000000000  0.0000000000000000
-1.5936713195752439  2.7603196963376404  0.0000000000000000
0.0000000000000001  0.0000000000000000  35.1550976710692495
Zr  N  O  H
3  2  2  2
Selective  dynamics
Direct
-0.0000000000000000  -0.0000000000000000  0.0675271014014817  T  T  T
0.6666666666666643  0.3333333333333357  0.1442615952518199  T  T  T
0.3333333333333357  0.6666666666666643  0.2208620286059650  T  T  T
0.3333333333333357  0.6666666666666643  0.1057105270441474  T  T  T
-0.0000000000000000  -0.0000000000000000  0.1822390506593717  T  T  T
0.3333333333333357  0.6666666666666643  0.0277321594785629  T  T  T
0.6666666666666643  0.3333333333333357  0.2609426621552678  T  T  T
0.3333333333333357  0.6666666666666643  0.0000000000000000  T  T  T
0.6666666666666643  0.3333333333333357  0.2888655797826541  T  T  T

0.00000000E+00  0.00000000E+00  0.00000000E+00
0.00000000E+00  0.00000000E+00  0.00000000E+00
0.00000000E+00  0.00000000E+00  0.00000000E+00
0.00000000E+00  0.00000000E+00  0.00000000E+00
0.00000000E+00  0.00000000E+00  0.00000000E+00
0.00000000E+00  0.00000000E+00  0.00000000E+00
0.00000000E+00  0.00000000E+00  0.00000000E+00
0.00000000E+00  0.00000000E+00  0.00000000E+00
0.00000000E+00  0.00000000E+00  0.00000000E+00
