Hf3N2  (n=2)
1.00000000000000
3.1300552645503497  -0.0000000000000001  0.0000000000000000
-1.5650276322751744  2.7107073745627566  0.0000000000000000
0.0000000000000001  -0.0000000000000002  35.0352284379558725
Hf  N  O  H
3  2  2  2
Selective  dynamics
Direct
0.0000000000000000  0.0000000000000000  0.0672375335744764  T  T  T
0.6666666666666643  0.3333333333333357  0.1431156459538309  T  T  T
0.3333333333333357  0.6666666666666643  0.2187570290290362  T  T  T
0.3333333333333357  0.6666666666666643  0.1053554336692603  T  T  T
0.0000000000000000  -0.0000000000000000  0.1805889757693715  T  T  T
0.3333333333333357  0.6666666666666643  0.0279475244398731  T  T  T
0.6666666666666643  0.3333333333333357  0.2581886275430147  T  T  T
0.3333333333333357  0.6666666666666643  0.0000000000000000  T  T  T
0.6666666666666643  0.3333333333333357  0.2864325105151612  T  T  T

0.00000000E+00  0.00000000E+00  0.00000000E+00
0.00000000E+00  0.00000000E+00  0.00000000E+00
0.00000000E+00  0.00000000E+00  0.00000000E+00
0.00000000E+00  0.00000000E+00  0.00000000E+00
0.00000000E+00  0.00000000E+00  0.00000000E+00
0.00000000E+00  0.00000000E+00  0.00000000E+00
0.00000000E+00  0.00000000E+00  0.00000000E+00
0.00000000E+00  0.00000000E+00  0.00000000E+00
0.00000000E+00  0.00000000E+00  0.00000000E+00
