Mo3N2  (n=2)
1.00000000000000
2.7849028107577367  -0.0000000000000001  0.0000000000000000
-1.3924514053788684  2.4117965812716542  0.0000000000000000
-0.0000000000000012  0.0000000000000026  33.9154550247409006
Mo  N  F
3  2  2
Selective  dynamics
Direct
0.0000000000000000  0.0000000000000000  0.0453160856770632  T  T  T
0.6666666666666643  0.3333333333333357  0.1314328869430177  T  T  T
0.3333333333333357  0.6666666666666643  0.2175568440311536  T  T  T
0.3333333333333357  0.6666666666666643  0.0867250286544351  T  T  T
0.0000000000000000  -0.0000000000000000  0.1761433428352443  T  T  T
0.6666666666666643  0.3333333333333357  0.0000000000000000  T  T  T
0.6666666666666643  0.3333333333333357  0.2628729297082167  T  T  T

0.00000000E+00  0.00000000E+00  0.00000000E+00
0.00000000E+00  0.00000000E+00  0.00000000E+00
0.00000000E+00  0.00000000E+00  0.00000000E+00
0.00000000E+00  0.00000000E+00  0.00000000E+00
0.00000000E+00  0.00000000E+00  0.00000000E+00
0.00000000E+00  0.00000000E+00  0.00000000E+00
0.00000000E+00  0.00000000E+00  0.00000000E+00
