Zr3N2  (n=2)
1.00000000000000
3.1808450301050146  -0.0000000000000001  0.0000000000000000
-1.5904225150525073  2.7546926017941353  0.0000000000000000
-0.0000000000000001  0.0000000000000000  33.1160211588691666
Zr  N  F
3  2  2
Selective  dynamics
Direct
-0.0000000000000000  -0.0000000000000000  0.0424160222609871  T  T  T
0.6666666666666643  0.3333333333333357  0.1225391951516954  T  T  T
0.3333333333333357  0.6666666666666643  0.2026623680424181  T  T  T
0.3333333333333357  0.6666666666666643  0.0811883564708491  T  T  T
-0.0000000000000000  -0.0000000000000000  0.1638900338325488  T  T  T
0.6666666666666643  0.3333333333333357  0.0000000000000000  T  T  T
0.6666666666666643  0.3333333333333357  0.2450783903034053  T  T  T

0.00000000E+00  0.00000000E+00  0.00000000E+00
0.00000000E+00  0.00000000E+00  0.00000000E+00
0.00000000E+00  0.00000000E+00  0.00000000E+00
0.00000000E+00  0.00000000E+00  0.00000000E+00
0.00000000E+00  0.00000000E+00  0.00000000E+00
0.00000000E+00  0.00000000E+00  0.00000000E+00
0.00000000E+00  0.00000000E+00  0.00000000E+00
