Hf3N2  (n=2)
1.00000000000000
3.1124462731573832  -0.0000000000000001  0.0000000000000000
-1.5562231365786916  2.6954575405823964  0.0000000000000000
-0.0000000000000002  -0.0000000000000002  33.0780110542205108
Hf  N  F
3  2  2
Selective  dynamics
Direct
0.0000000000000000  0.0000000000000000  0.0426734381796229  T  T  T
0.6666666666666643  0.3333333333333357  0.1221054530905632  T  T  T
0.3333333333333357  0.6666666666666643  0.2015374680015110  T  T  T
0.3333333333333357  0.6666666666666643  0.0812923906344916  T  T  T
0.0000000000000000  0.0000000000000000  0.1629185155466274  T  T  T
0.6666666666666643  0.3333333333333357  0.0000000000000000  T  T  T
0.6666666666666643  0.3333333333333357  0.2442109061811265  T  T  T

0.00000000E+00  0.00000000E+00  0.00000000E+00
0.00000000E+00  0.00000000E+00  0.00000000E+00
0.00000000E+00  0.00000000E+00  0.00000000E+00
0.00000000E+00  0.00000000E+00  0.00000000E+00
0.00000000E+00  0.00000000E+00  0.00000000E+00
0.00000000E+00  0.00000000E+00  0.00000000E+00
0.00000000E+00  0.00000000E+00  0.00000000E+00
