Sc3C2  (n=2)
1.00000000000000
3.2164811611821018  0.0000000000000000  0.0000000000000000
-1.6082405805910509  2.7855543964903875  0.0000000000000000
0.0000000000000000  -0.0000000000000001  32.7719517747784863
Sc  C  F
3  2  2
Selective  dynamics
Direct
0.0000000000000000  0.0000000000000000  0.0358110301975558  T  T  T
0.6666666666666643  0.3333333333333357  0.1185762726033276  T  T  T
0.3333333333333357  0.6666666666666643  0.2013415150090995  T  T  T
0.3333333333333357  0.6666666666666643  0.0751545637432275  T  T  T
-0.0000000000000000  0.0000000000000000  0.1619979814634196  T  T  T
0.6666666666666643  0.3333333333333357  0.0000000000000000  T  T  T
0.6666666666666643  0.3333333333333357  0.2371525452066554  T  T  T

0.00000000E+00  0.00000000E+00  0.00000000E+00
0.00000000E+00  0.00000000E+00  0.00000000E+00
0.00000000E+00  0.00000000E+00  0.00000000E+00
0.00000000E+00  0.00000000E+00  0.00000000E+00
0.00000000E+00  0.00000000E+00  0.00000000E+00
0.00000000E+00  0.00000000E+00  0.00000000E+00
0.00000000E+00  0.00000000E+00  0.00000000E+00
