Hf3C2  (n=2)
1.00000000000000
3.2620690190822095  -0.0000000000000002  0.0000000000000000
-1.6310345095411047  2.8250346396010926  0.0000000000000000
0.0000000000000001  -0.0000000000000011  32.7336572492145379
Hf  C  F
3  2  2
Selective  dynamics
Direct
-0.0000000000000000  -0.0000000000000000  0.0409995300920311  T  T  T
0.6666666666666643  0.3333333333333357  0.1181300517436089  T  T  T
0.3333333333333357  0.6666666666666643  0.1952605733951867  T  T  T
0.3333333333333357  0.6666666666666643  0.0751464731475914  T  T  T
-0.0000000000000000  0.0000000000000000  0.1611136303396185  T  T  T
0.6666666666666643  0.3333333333333357  0.0000000000000000  T  T  T
0.6666666666666643  0.3333333333333357  0.2362601034872176  T  T  T

0.00000000E+00  0.00000000E+00  0.00000000E+00
0.00000000E+00  0.00000000E+00  0.00000000E+00
0.00000000E+00  0.00000000E+00  0.00000000E+00
0.00000000E+00  0.00000000E+00  0.00000000E+00
0.00000000E+00  0.00000000E+00  0.00000000E+00
0.00000000E+00  0.00000000E+00  0.00000000E+00
0.00000000E+00  0.00000000E+00  0.00000000E+00
