Nb3N2  (n=2)
1.00000000000000
3.0726332882477969  0.0000000000000000  0.0000000000000000
-1.5363166441238985  2.6609784842691564  0.0000000000000000
-0.0000000000000001  0.0000000000000002  32.9637907046717586
Nb  N  F
3  2  2
Selective  dynamics
Direct
-0.0000000000000000  -0.0000000000000000  0.0443111340026889  T  T  T
0.6666666666666643  0.3333333333333357  0.1207960391452052  T  T  T
0.3333333333333357  0.6666666666666643  0.1972809442877213  T  T  T
0.3333333333333357  0.6666666666666643  0.0816758310957453  T  T  T
-0.0000000000000000  -0.0000000000000000  0.1599162471946571  T  T  T
0.6666666666666643  0.3333333333333357  0.0000000000000000  T  T  T
0.6666666666666643  0.3333333333333357  0.2415920782904102  T  T  T

0.00000000E+00  0.00000000E+00  0.00000000E+00
0.00000000E+00  0.00000000E+00  0.00000000E+00
0.00000000E+00  0.00000000E+00  0.00000000E+00
0.00000000E+00  0.00000000E+00  0.00000000E+00
0.00000000E+00  0.00000000E+00  0.00000000E+00
0.00000000E+00  0.00000000E+00  0.00000000E+00
0.00000000E+00  0.00000000E+00  0.00000000E+00
