Ta3N2  (n=2)
1.00000000000000
2.8885899946584890  0.0000000000000001  0.0000000000000000
-1.4442949973292447  2.5015923165886496  0.0000000000000000
0.0000000000000001  -0.0000000000000002  33.8386826936546186
Ta  N  F
3  2  2
Selective  dynamics
Direct
0.0000000000000000  0.0000000000000000  0.0454042377142594  T  T  T
0.6666666666666643  0.3333333333333357  0.1306002774054837  T  T  T
0.3333333333333357  0.6666666666666643  0.2157963170967006  T  T  T
0.3333333333333357  0.6666666666666643  0.0876100903922365  T  T  T
-0.0000000000000000  0.0000000000000000  0.1735904747183128  T  T  T
0.6666666666666643  0.3333333333333357  0.0000000000000000  T  T  T
0.6666666666666643  0.3333333333333357  0.2612005548109600  T  T  T

0.00000000E+00  0.00000000E+00  0.00000000E+00
0.00000000E+00  0.00000000E+00  0.00000000E+00
0.00000000E+00  0.00000000E+00  0.00000000E+00
0.00000000E+00  0.00000000E+00  0.00000000E+00
0.00000000E+00  0.00000000E+00  0.00000000E+00
0.00000000E+00  0.00000000E+00  0.00000000E+00
0.00000000E+00  0.00000000E+00  0.00000000E+00
