Ta3C2  (n=2)
1.00000000000000
3.0809798787927547  0.0000000000000000  0.0000000000000000
-1.5404899393963774  2.6682068437235329  0.0000000000000000
-0.0000000000000001  0.0000000000000001  33.0382000863906242
Ta  C  F
3  2  2
Selective  dynamics
Direct
0.0000000000000000  -0.0000000000000000  0.0444778556834319  T  T  T
0.6666666666666643  0.3333333333333357  0.1216500908852710  T  T  T
0.3333333333333357  0.6666666666666643  0.1988223260871176  T  T  T
0.3333333333333357  0.6666666666666643  0.0814407687140088  T  T  T
0.0000000000000000  -0.0000000000000000  0.1618594130565333  T  T  T
0.6666666666666643  0.3333333333333357  0.0000000000000000  T  T  T
0.6666666666666643  0.3333333333333357  0.2433001817705495  T  T  T

0.00000000E+00  0.00000000E+00  0.00000000E+00
0.00000000E+00  0.00000000E+00  0.00000000E+00
0.00000000E+00  0.00000000E+00  0.00000000E+00
0.00000000E+00  0.00000000E+00  0.00000000E+00
0.00000000E+00  0.00000000E+00  0.00000000E+00
0.00000000E+00  0.00000000E+00  0.00000000E+00
0.00000000E+00  0.00000000E+00  0.00000000E+00
