Cr3N2  (n=2)
1.00000000000000
2.9191923777791486  0.0000000000000000  0.0000000000000000
-1.4595961888895743  2.5280947576990336  0.0000000000000000
0.0000000000000000  0.0000000000000001  31.9817147262420782
Cr  N  F
3  2  2
Selective  dynamics
Direct
0.0000000000000000  -0.0000000000000000  0.0388922931098760  T  T  T
0.6666666666666643  0.3333333333333357  0.1091516634740211  T  T  T
0.3333333333333357  0.6666666666666643  0.1794110338381737  T  T  T
0.3333333333333357  0.6666666666666643  0.0702006342162229  T  T  T
0.0000000000000000  0.0000000000000000  0.1481026927318194  T  T  T
0.6666666666666643  0.3333333333333357  0.0000000000000000  T  T  T
0.6666666666666643  0.3333333333333357  0.2183033269480497  T  T  T

0.00000000E+00  0.00000000E+00  0.00000000E+00
0.00000000E+00  0.00000000E+00  0.00000000E+00
0.00000000E+00  0.00000000E+00  0.00000000E+00
0.00000000E+00  0.00000000E+00  0.00000000E+00
0.00000000E+00  0.00000000E+00  0.00000000E+00
0.00000000E+00  0.00000000E+00  0.00000000E+00
0.00000000E+00  0.00000000E+00  0.00000000E+00
