Mo3C2  (n=2)
1.00000000000000
3.0266403849501655  0.0000000000000000  0.0000000000000000
-1.5133201924750825  2.6211474615643069  0.0000000000000000
0.0000000000000000  0.0000000000000004  32.9070551128340725
Mo  C  F
3  2  2
Selective  dynamics
Direct
0.0000000000000000  0.0000000000000000  0.0460801868607497  T  T  T
0.6666666666666643  0.3333333333333357  0.1201422473952969  T  T  T
0.3333333333333357  0.6666666666666643  0.1942043079298519  T  T  T
0.3333333333333357  0.6666666666666643  0.0800111330807894  T  T  T
-0.0000000000000000  0.0000000000000000  0.1602733617098122  T  T  T
0.6666666666666643  0.3333333333333357  0.0000000000000000  T  T  T
0.6666666666666643  0.3333333333333357  0.2402844947906092  T  T  T

0.00000000E+00  0.00000000E+00  0.00000000E+00
0.00000000E+00  0.00000000E+00  0.00000000E+00
0.00000000E+00  0.00000000E+00  0.00000000E+00
0.00000000E+00  0.00000000E+00  0.00000000E+00
0.00000000E+00  0.00000000E+00  0.00000000E+00
0.00000000E+00  0.00000000E+00  0.00000000E+00
0.00000000E+00  0.00000000E+00  0.00000000E+00
