Ti3N2  (n=2)
1.00000000000000
2.9665457137341935  0.0000000000000000  0.0000000000000000
-1.4832728568670968  2.5691039496246959  0.0000000000000000
-0.0000000000000001  -0.0000000000000004  32.3536080616706556
Ti  N  F
3  2  2
Selective  dynamics
Direct
0.0000000000000000  -0.0000000000000000  0.0397690882330199  T  T  T
0.6666666666666643  0.3333333333333357  0.1136438662978857  T  T  T
0.3333333333333357  0.6666666666666643  0.1875190684699567  T  T  T
0.3333333333333357  0.6666666666666643  0.0746266472566572  T  T  T
-0.0000000000000000  -0.0000000000000000  0.1526619335535247  T  T  T
0.6666666666666643  0.3333333333333357  0.0000000000000000  T  T  T
0.6666666666666643  0.3333333333333357  0.2272886550289420  T  T  T

0.00000000E+00  0.00000000E+00  0.00000000E+00
0.00000000E+00  0.00000000E+00  0.00000000E+00
0.00000000E+00  0.00000000E+00  0.00000000E+00
0.00000000E+00  0.00000000E+00  0.00000000E+00
0.00000000E+00  0.00000000E+00  0.00000000E+00
0.00000000E+00  0.00000000E+00  0.00000000E+00
0.00000000E+00  0.00000000E+00  0.00000000E+00
