Nb3C2  (n=2)
1.00000000000000
3.0978457387084388  0.0000000000000000  0.0000000000000000
-1.5489228693542192  2.6828131068574002  -0.0000000000000001
0.0000000000000001  0.0000000000000004  33.0484582861007112
Nb  C  F
3  2  2
Selective  dynamics
Direct
0.0000000000000000  0.0000000000000000  0.0438965786687424  T  T  T
0.6666666666666643  0.3333333333333357  0.1217675302191884  T  T  T
0.3333333333333357  0.6666666666666643  0.1996384817696345  T  T  T
0.3333333333333357  0.6666666666666643  0.0813664096087262  T  T  T
0.0000000000000000  0.0000000000000000  0.1621686508296348  T  T  T
0.6666666666666643  0.3333333333333357  0.0000000000000000  T  T  T
0.6666666666666643  0.3333333333333357  0.2435350604383767  T  T  T

0.00000000E+00  0.00000000E+00  0.00000000E+00
0.00000000E+00  0.00000000E+00  0.00000000E+00
0.00000000E+00  0.00000000E+00  0.00000000E+00
0.00000000E+00  0.00000000E+00  0.00000000E+00
0.00000000E+00  0.00000000E+00  0.00000000E+00
0.00000000E+00  0.00000000E+00  0.00000000E+00
0.00000000E+00  0.00000000E+00  0.00000000E+00
