Ti3C2  (n=2)
1.00000000000000
3.0387587763192423  -0.0000000000000001  0.0000000000000000
-1.5193793881596209  2.6316422963281454  0.0000000000000000
0.0000000000000001  0.0000000000000006  32.2855306235929902
Ti  C  F
3  2  2
Selective  dynamics
Direct
-0.0000000000000000  -0.0000000000000000  0.0392343751295416  T  T  T
0.6666666666666643  0.3333333333333357  0.1128296559305891  T  T  T
0.3333333333333357  0.6666666666666643  0.1864249367316444  T  T  T
0.3333333333333357  0.6666666666666643  0.0727512936942329  T  T  T
0.0000000000000000  0.0000000000000000  0.1529080181669371  T  T  T
0.6666666666666643  0.3333333333333357  0.0000000000000000  T  T  T
0.6666666666666643  0.3333333333333357  0.2256593118611782  T  T  T

0.00000000E+00  0.00000000E+00  0.00000000E+00
0.00000000E+00  0.00000000E+00  0.00000000E+00
0.00000000E+00  0.00000000E+00  0.00000000E+00
0.00000000E+00  0.00000000E+00  0.00000000E+00
0.00000000E+00  0.00000000E+00  0.00000000E+00
0.00000000E+00  0.00000000E+00  0.00000000E+00
0.00000000E+00  0.00000000E+00  0.00000000E+00
