Sc3N2  (n=2)
1.00000000000000
3.1556406311378042  0.0000000000000000  0.0000000000000000
-1.5778203155689023  2.7328649518906496  0.0000000000000000
-0.0000000000000001  0.0000000000000000  32.4775470846465311
Sc  N  F
3  2  2
Selective  dynamics
Direct
-0.0000000000000000  0.0000000000000000  0.0373240830170374  T  T  T
0.6666666666666643  0.3333333333333357  0.1151187167115363  T  T  T
0.3333333333333357  0.6666666666666643  0.1929133504060432  T  T  T
0.3333333333333357  0.6666666666666643  0.0729597586332428  T  T  T
0.0000000000000000  -0.0000000000000000  0.1572776747898378  T  T  T
0.6666666666666643  0.3333333333333357  0.0000000000000000  T  T  T
0.6666666666666643  0.3333333333333357  0.2302374334230886  T  T  T

0.00000000E+00  0.00000000E+00  0.00000000E+00
0.00000000E+00  0.00000000E+00  0.00000000E+00
0.00000000E+00  0.00000000E+00  0.00000000E+00
0.00000000E+00  0.00000000E+00  0.00000000E+00
0.00000000E+00  0.00000000E+00  0.00000000E+00
0.00000000E+00  0.00000000E+00  0.00000000E+00
0.00000000E+00  0.00000000E+00  0.00000000E+00
