Cr3C2  (n=2)
1.00000000000000
2.9426661536943488  0.0000000000000000  0.0000000000000000
-1.4713330768471744  2.5484236439700299  -0.0000000000000001
-0.0000000000000001  -0.0000000000000006  31.9144080555421823
Cr  C  F
3  2  2
Selective  dynamics
Direct
0.0000000000000000  0.0000000000000000  0.0398179862830042  T  T  T
0.6666666666666643  0.3333333333333357  0.1083273743242895  T  T  T
0.3333333333333357  0.6666666666666643  0.1768367623655825  T  T  T
0.3333333333333357  0.6666666666666643  0.0711735270654084  T  T  T
-0.0000000000000000  -0.0000000000000000  0.1454812215831784  T  T  T
0.6666666666666643  0.3333333333333357  0.0000000000000000  T  T  T
0.6666666666666643  0.3333333333333357  0.2166547486485949  T  T  T

0.00000000E+00  0.00000000E+00  0.00000000E+00
0.00000000E+00  0.00000000E+00  0.00000000E+00
0.00000000E+00  0.00000000E+00  0.00000000E+00
0.00000000E+00  0.00000000E+00  0.00000000E+00
0.00000000E+00  0.00000000E+00  0.00000000E+00
0.00000000E+00  0.00000000E+00  0.00000000E+00
0.00000000E+00  0.00000000E+00  0.00000000E+00
