Zr3C2  (n=2)
1.00000000000000
3.3109897124121135  0.0000000000000000  0.0000000000000000
-1.6554948562060567  2.8674012028216564  0.0000000000000001
0.0000000000000003  -0.0000000000000018  32.8565048143950165
Zr  C  F
3  2  2
Selective  dynamics
Direct
-0.0000000000000000  -0.0000000000000000  0.0409403626434962  T  T  T
0.6666666666666643  0.3333333333333357  0.1195578297018516  T  T  T
0.3333333333333357  0.6666666666666643  0.1981752967602071  T  T  T
0.3333333333333357  0.6666666666666643  0.0760128494850021  T  T  T
-0.0000000000000000  0.0000000000000000  0.1631028099186932  T  T  T
0.6666666666666643  0.3333333333333357  0.0000000000000000  T  T  T
0.6666666666666643  0.3333333333333357  0.2391156594037032  T  T  T

0.00000000E+00  0.00000000E+00  0.00000000E+00
0.00000000E+00  0.00000000E+00  0.00000000E+00
0.00000000E+00  0.00000000E+00  0.00000000E+00
0.00000000E+00  0.00000000E+00  0.00000000E+00
0.00000000E+00  0.00000000E+00  0.00000000E+00
0.00000000E+00  0.00000000E+00  0.00000000E+00
0.00000000E+00  0.00000000E+00  0.00000000E+00
