Hf2C  (n=1)
1.00000000000000
3.2958042584987521  0.0000000000000000  0.0000000000000000
-1.6479021292493761  2.8542502138594847  0.0000000000000000
0.0000000000000000  0.0000000000000000  32.0684320896581454
Hf  C  N  H
2  1  2  2
Selective  dynamics
Direct
-0.0000000000000000  -0.0000000000000000  0.0642831468769328  T  T  T
-0.0000000000000000  -0.0000000000000000  0.1561339932531392  T  T  T
0.3333333333333357  0.6666666666666643  0.1102085700650360  T  T  T
0.6666666666666643  0.3333333333333357  0.0319780854294486  T  T  T
0.6666666666666643  0.3333333333333357  0.1884390547006234  T  T  T
0.6666666666666643  0.3333333333333357  0.0000000000000000  T  T  T
0.6666666666666643  0.3333333333333357  0.2204171401300805  T  T  T

0.00000000E+00  0.00000000E+00  0.00000000E+00
0.00000000E+00  0.00000000E+00  0.00000000E+00
0.00000000E+00  0.00000000E+00  0.00000000E+00
0.00000000E+00  0.00000000E+00  0.00000000E+00
0.00000000E+00  0.00000000E+00  0.00000000E+00
0.00000000E+00  0.00000000E+00  0.00000000E+00
0.00000000E+00  0.00000000E+00  0.00000000E+00
