Ti2C  (n=1)
1.00000000000000
3.0558894122348219  0.0000000000000000  0.0000000000000000
-1.5279447061174110  2.6464778622048479  0.0000000000000000
0.0000000000000000  0.0000000000000000  31.8550253438134341
Ti  C  N  H
2  1  2  2
Selective  dynamics
Direct
-0.0000000000000000  0.0000000000000000  0.0641219510942734  T  T  T
-0.0000000000000000  0.0000000000000000  0.1510725204161612  T  T  T
0.3333333333333357  0.6666666666666643  0.1075972357552131  T  T  T
0.6666666666666643  0.3333333333333357  0.0321544653555558  T  T  T
0.6666666666666643  0.3333333333333357  0.1830400061548787  T  T  T
0.6666666666666643  0.3333333333333357  0.0000000000000000  T  T  T
0.6666666666666643  0.3333333333333357  0.2151944715104347  T  T  T

0.00000000E+00  0.00000000E+00  0.00000000E+00
0.00000000E+00  0.00000000E+00  0.00000000E+00
0.00000000E+00  0.00000000E+00  0.00000000E+00
0.00000000E+00  0.00000000E+00  0.00000000E+00
0.00000000E+00  0.00000000E+00  0.00000000E+00
0.00000000E+00  0.00000000E+00  0.00000000E+00
0.00000000E+00  0.00000000E+00  0.00000000E+00
