Nb2N  (n=1)
1.00000000000000
3.0267016261856079  0.0000000000000000  0.0000000000000000
-1.5133508130928039  2.6212004979995083  0.0000000000000000
0.0000000000000000  0.0000000000000000  32.3920828220773274
Nb  N  H
2  3  2
Selective  dynamics
Direct
-0.0000000000000000  -0.0000000000000000  0.0697252067105386  T  T  T
-0.0000000000000000  -0.0000000000000000  0.1584812616008912  T  T  T
0.3333333333333357  0.6666666666666643  0.1141032341557191  T  T  T
0.6666666666666643  0.3333333333333357  0.0315909730228939  T  T  T
0.6666666666666643  0.3333333333333357  0.1966154952885359  T  T  T
0.6666666666666643  0.3333333333333357  0.0000000000000000  T  T  T
0.6666666666666643  0.3333333333333357  0.2282064683114214  T  T  T

0.00000000E+00  0.00000000E+00  0.00000000E+00
0.00000000E+00  0.00000000E+00  0.00000000E+00
0.00000000E+00  0.00000000E+00  0.00000000E+00
0.00000000E+00  0.00000000E+00  0.00000000E+00
0.00000000E+00  0.00000000E+00  0.00000000E+00
0.00000000E+00  0.00000000E+00  0.00000000E+00
0.00000000E+00  0.00000000E+00  0.00000000E+00
