Zr2C  (n=1)
1.00000000000000
3.3461246090817247  0.0000000000000000  0.0000000000000000
-1.6730623045408624  2.8978289158058508  0.0000000000000000
0.0000000000000000  0.0000000000000000  32.1513799428679334
Zr  C  N  H
2  1  2  2
Selective  dynamics
Direct
-0.0000000000000000  0.0000000000000000  0.0644771565162395  T  T  T
-0.0000000000000000  0.0000000000000000  0.1579512417539352  T  T  T
0.3333333333333357  0.6666666666666643  0.1112141991350831  T  T  T
0.6666666666666643  0.3333333333333357  0.0319350248172593  T  T  T
0.6666666666666643  0.3333333333333357  0.1904933734529154  T  T  T
0.6666666666666643  0.3333333333333357  0.0000000000000000  T  T  T
0.6666666666666643  0.3333333333333357  0.2224283982701747  T  T  T

0.00000000E+00  0.00000000E+00  0.00000000E+00
0.00000000E+00  0.00000000E+00  0.00000000E+00
0.00000000E+00  0.00000000E+00  0.00000000E+00
0.00000000E+00  0.00000000E+00  0.00000000E+00
0.00000000E+00  0.00000000E+00  0.00000000E+00
0.00000000E+00  0.00000000E+00  0.00000000E+00
0.00000000E+00  0.00000000E+00  0.00000000E+00
