Ta2C  (n=1)
1.00000000000000
3.1314483689094694  -0.0000000000000006  0.0000000000000000
-1.5657241844547347  2.7119138381624568  0.0000000000000000
0.0000000000000000  0.0000000000000000  32.0998816666602096
Ta  C  N  H
2  1  2  2
Selective  dynamics
Direct
0.0000000000000000  0.0000000000000000  0.0681483595174060  T  T  T
0.0000000000000000  0.0000000000000000  0.1530325700694571  T  T  T
0.3333333333333357  0.6666666666666643  0.1105904647934316  T  T  T
0.6666666666666643  0.3333333333333357  0.0319100870634113  T  T  T
0.6666666666666643  0.3333333333333357  0.1892708425234518  T  T  T
0.6666666666666643  0.3333333333333357  0.0000000000000000  T  T  T
0.6666666666666643  0.3333333333333357  0.2211809295868631  T  T  T

0.00000000E+00  0.00000000E+00  0.00000000E+00
0.00000000E+00  0.00000000E+00  0.00000000E+00
0.00000000E+00  0.00000000E+00  0.00000000E+00
0.00000000E+00  0.00000000E+00  0.00000000E+00
0.00000000E+00  0.00000000E+00  0.00000000E+00
0.00000000E+00  0.00000000E+00  0.00000000E+00
0.00000000E+00  0.00000000E+00  0.00000000E+00
