Zr2N  (n=1)
1.00000000000000
3.2963158709997744  0.0000000000000000  0.0000000000000000
-1.6481579354998872  2.8546932832698571  0.0000000000000000
0.0000000000000000  0.0000000000000000  32.1174112919174775
Zr  N  H
2  3  2
Selective  dynamics
Direct
-0.0000000000000000  -0.0000000000000000  0.0659839542245447  T  T  T
-0.0000000000000000  -0.0000000000000000  0.1556220534087145  T  T  T
0.3333333333333357  0.6666666666666643  0.1108030038166341  T  T  T
0.6666666666666643  0.3333333333333357  0.0319201088970261  T  T  T
0.6666666666666643  0.3333333333333357  0.1896858987362419  T  T  T
0.6666666666666643  0.3333333333333357  0.0000000000000000  T  T  T
0.6666666666666643  0.3333333333333357  0.2216060076332681  T  T  T

0.00000000E+00  0.00000000E+00  0.00000000E+00
0.00000000E+00  0.00000000E+00  0.00000000E+00
0.00000000E+00  0.00000000E+00  0.00000000E+00
0.00000000E+00  0.00000000E+00  0.00000000E+00
0.00000000E+00  0.00000000E+00  0.00000000E+00
0.00000000E+00  0.00000000E+00  0.00000000E+00
0.00000000E+00  0.00000000E+00  0.00000000E+00
