Cr2N  (n=1)
1.00000000000000
2.7169332128660195  0.0000000000000000  0.0000000000000000
-1.3584666064330098  2.3529331827699269  0.0000000000000000
0.0000000000000000  0.0000000000000000  31.8957510527073858
Cr  N  H
2  3  2
Selective  dynamics
Direct
-0.0000000000000000  -0.0000000000000000  0.0674262579772157  T  T  T
-0.0000000000000000  -0.0000000000000000  0.1487702831016330  T  T  T
0.3333333333333357  0.6666666666666643  0.1080982705394244  T  T  T
0.6666666666666643  0.3333333333333357  0.0321341142163044  T  T  T
0.6666666666666643  0.3333333333333357  0.1840624268625443  T  T  T
0.6666666666666643  0.3333333333333357  0.0000000000000000  T  T  T
0.6666666666666643  0.3333333333333357  0.2161965410788487  T  T  T

0.00000000E+00  0.00000000E+00  0.00000000E+00
0.00000000E+00  0.00000000E+00  0.00000000E+00
0.00000000E+00  0.00000000E+00  0.00000000E+00
0.00000000E+00  0.00000000E+00  0.00000000E+00
0.00000000E+00  0.00000000E+00  0.00000000E+00
0.00000000E+00  0.00000000E+00  0.00000000E+00
0.00000000E+00  0.00000000E+00  0.00000000E+00
