Ti2N  (n=1)
1.00000000000000
3.0180831404398361  0.0000000000000000  0.0000000000000000
-1.5090415702199180  2.6137366703875640  0.0000000000000000
0.0000000000000000  0.0000000000000000  31.7881729103113386
Ti  N  H
2  3  2
Selective  dynamics
Direct
-0.0000000000000000  0.0000000000000000  0.0653466497236149  T  T  T
-0.0000000000000000  0.0000000000000000  0.1481973287070993  T  T  T
0.3333333333333357  0.6666666666666643  0.1067719892153528  T  T  T
0.6666666666666643  0.3333333333333357  0.0322120182495238  T  T  T
0.6666666666666643  0.3333333333333357  0.1813319601811902  T  T  T
0.6666666666666643  0.3333333333333357  0.0000000000000000  T  T  T
0.6666666666666643  0.3333333333333357  0.2135439784307142  T  T  T

0.00000000E+00  0.00000000E+00  0.00000000E+00
0.00000000E+00  0.00000000E+00  0.00000000E+00
0.00000000E+00  0.00000000E+00  0.00000000E+00
0.00000000E+00  0.00000000E+00  0.00000000E+00
0.00000000E+00  0.00000000E+00  0.00000000E+00
0.00000000E+00  0.00000000E+00  0.00000000E+00
0.00000000E+00  0.00000000E+00  0.00000000E+00
