Mo2N  (n=1)
1.00000000000000
2.8808734440000312  0.0000000000000000  0.0000000000000000
-1.4404367220000156  2.4949095876176153  0.0000000000000000
0.0000000000000000  0.0000000000000000  32.4461741625329196
Mo  N  H
2  3  2
Selective  dynamics
Direct
-0.0000000000000000  -0.0000000000000000  0.0700262515110826  T  T  T
-0.0000000000000000  -0.0000000000000000  0.1594668814922866  T  T  T
0.3333333333333357  0.6666666666666643  0.1147465665016888  T  T  T
0.6666666666666643  0.3333333333333357  0.0315947929920825  T  T  T
0.6666666666666643  0.3333333333333357  0.1978983400112870  T  T  T
0.6666666666666643  0.3333333333333357  0.0000000000000000  T  T  T
0.6666666666666643  0.3333333333333357  0.2294931330033775  T  T  T

0.00000000E+00  0.00000000E+00  0.00000000E+00
0.00000000E+00  0.00000000E+00  0.00000000E+00
0.00000000E+00  0.00000000E+00  0.00000000E+00
0.00000000E+00  0.00000000E+00  0.00000000E+00
0.00000000E+00  0.00000000E+00  0.00000000E+00
0.00000000E+00  0.00000000E+00  0.00000000E+00
0.00000000E+00  0.00000000E+00  0.00000000E+00
