Ta2N  (n=1)
1.00000000000000
3.0122566161895179  0.0000000000000000  0.0000000000000000
-1.5061283080947592  2.6086907524027736  0.0000000000000000
0.0000000000000000  0.0000000000000000  32.3710638479881823
Ta  N  H
2  3  2
Selective  dynamics
Direct
0.0000000000000000  0.0000000000000000  0.0694488430049058  T  T  T
0.0000000000000000  0.0000000000000000  0.1582564892202672  T  T  T
0.3333333333333357  0.6666666666666643  0.1138526661125865  T  T  T
0.6666666666666643  0.3333333333333357  0.0316394640333264  T  T  T
0.6666666666666643  0.3333333333333357  0.1960658681918388  T  T  T
0.6666666666666643  0.3333333333333357  0.0000000000000000  T  T  T
0.6666666666666643  0.3333333333333357  0.2277053322251652  T  T  T

0.00000000E+00  0.00000000E+00  0.00000000E+00
0.00000000E+00  0.00000000E+00  0.00000000E+00
0.00000000E+00  0.00000000E+00  0.00000000E+00
0.00000000E+00  0.00000000E+00  0.00000000E+00
0.00000000E+00  0.00000000E+00  0.00000000E+00
0.00000000E+00  0.00000000E+00  0.00000000E+00
0.00000000E+00  0.00000000E+00  0.00000000E+00
