Nb2C  (n=1)
1.00000000000000
3.1515070340568627  0.0000000000000000  0.0000000000000000
-1.5757535170284314  2.7292851517560046  0.0000000000000000
0.0000000000000000  0.0000000000000000  32.1308318138478342
Nb  C  N  H
2  1  2  2
Selective  dynamics
Direct
0.0000000000000000  0.0000000000000000  0.0684108420209264  T  T  T
0.0000000000000000  0.0000000000000000  0.1535202880276449  T  T  T
0.3333333333333357  0.6666666666666643  0.1109655650242857  T  T  T
0.6666666666666643  0.3333333333333357  0.0318989717913502  T  T  T
0.6666666666666643  0.3333333333333357  0.1900321582572212  T  T  T
0.6666666666666643  0.3333333333333357  0.0000000000000000  T  T  T
0.6666666666666643  0.3333333333333357  0.2219311300485714  T  T  T

0.00000000E+00  0.00000000E+00  0.00000000E+00
0.00000000E+00  0.00000000E+00  0.00000000E+00
0.00000000E+00  0.00000000E+00  0.00000000E+00
0.00000000E+00  0.00000000E+00  0.00000000E+00
0.00000000E+00  0.00000000E+00  0.00000000E+00
0.00000000E+00  0.00000000E+00  0.00000000E+00
0.00000000E+00  0.00000000E+00  0.00000000E+00
