Mo2C  (n=1)
1.00000000000000
2.9310794564140252  0.0000000000000000  0.0000000000000000
-1.4655397282070126  2.5383892697945241  0.0000000000000000
0.0000000000000000  0.0000000000000000  32.3436838636502415
Mo  C  N  H
2  1  2  2
Selective  dynamics
Direct
0.0000000000000000  0.0000000000000000  0.0698447953177573  T  T  T
0.0000000000000000  0.0000000000000000  0.1572067642574804  T  T  T
0.3333333333333357  0.6666666666666643  0.1135257797876148  T  T  T
0.6666666666666643  0.3333333333333357  0.0316404007029224  T  T  T
0.6666666666666643  0.3333333333333357  0.1954111588723154  T  T  T
0.6666666666666643  0.3333333333333357  0.0000000000000000  T  T  T
0.6666666666666643  0.3333333333333357  0.2270515595752379  T  T  T

0.00000000E+00  0.00000000E+00  0.00000000E+00
0.00000000E+00  0.00000000E+00  0.00000000E+00
0.00000000E+00  0.00000000E+00  0.00000000E+00
0.00000000E+00  0.00000000E+00  0.00000000E+00
0.00000000E+00  0.00000000E+00  0.00000000E+00
0.00000000E+00  0.00000000E+00  0.00000000E+00
0.00000000E+00  0.00000000E+00  0.00000000E+00
