Cr2C  (n=1)
1.00000000000000
2.7205963771530404  0.0000000000000001  0.0000000000000000
-1.3602981885765202  2.3561055760896434  0.0000000000000000
0.0000000000000000  0.0000000000000000  31.9569884964770914
Cr  C  N  H
2  1  2  2
Selective  dynamics
Direct
0.0000000000000000  -0.0000000000000000  0.0676962627903228  T  T  T
0.0000000000000000  -0.0000000000000000  0.1500022383448523  T  T  T
0.3333333333333357  0.6666666666666643  0.1088492505675833  T  T  T
0.6666666666666643  0.3333333333333357  0.0320710494387239  T  T  T
0.6666666666666643  0.3333333333333357  0.1856274516964512  T  T  T
0.6666666666666643  0.3333333333333357  0.0000000000000000  T  T  T
0.6666666666666643  0.3333333333333357  0.2176985011351750  T  T  T

0.00000000E+00  0.00000000E+00  0.00000000E+00
0.00000000E+00  0.00000000E+00  0.00000000E+00
0.00000000E+00  0.00000000E+00  0.00000000E+00
0.00000000E+00  0.00000000E+00  0.00000000E+00
0.00000000E+00  0.00000000E+00  0.00000000E+00
0.00000000E+00  0.00000000E+00  0.00000000E+00
0.00000000E+00  0.00000000E+00  0.00000000E+00
