Sc2N  (n=1)
1.00000000000000
3.2230729992525284  0.0000000000000000  0.0000000000000000
-1.6115364996262642  2.7912630956882993  0.0000000000000000
0.0000000000000000  0.0000000000000000  32.0488274171813501
Sc  N  H
2  3  2
Selective  dynamics
Direct
-0.0000000000000000  0.0000000000000000  0.0636460001484396  T  T  T
-0.0000000000000000  0.0000000000000000  0.1562942593008722  T  T  T
0.3333333333333357  0.6666666666666643  0.1099701297246517  T  T  T
0.6666666666666643  0.3333333333333357  0.0320242542583601  T  T  T
0.6666666666666643  0.3333333333333357  0.1879160051909434  T  T  T
0.6666666666666643  0.3333333333333357  0.0000000000000000  T  T  T
0.6666666666666643  0.3333333333333357  0.2199402594493201  T  T  T

0.00000000E+00  0.00000000E+00  0.00000000E+00
0.00000000E+00  0.00000000E+00  0.00000000E+00
0.00000000E+00  0.00000000E+00  0.00000000E+00
0.00000000E+00  0.00000000E+00  0.00000000E+00
0.00000000E+00  0.00000000E+00  0.00000000E+00
0.00000000E+00  0.00000000E+00  0.00000000E+00
0.00000000E+00  0.00000000E+00  0.00000000E+00
