Sc2C  (n=1)
1.00000000000000
3.2702008233124977  0.0000000000000000  0.0000000000000000
-1.6351004116562489  2.8320769885671351  0.0000000000000000
0.0000000000000000  0.0000000000000000  32.2236786264415542
Sc  C  N  H
2  1  2  2
Selective  dynamics
Direct
0.0000000000000000  0.0000000000000000  0.0608934373125769  T  T  T
0.0000000000000000  0.0000000000000000  0.1632795601339136  T  T  T
0.3333333333333357  0.6666666666666643  0.1120864987232413  T  T  T
0.6666666666666643  0.3333333333333357  0.0319296744957062  T  T  T
0.6666666666666643  0.3333333333333357  0.1922433229507843  T  T  T
0.6666666666666643  0.3333333333333357  0.0000000000000000  T  T  T
0.6666666666666643  0.3333333333333357  0.2241729974464824  T  T  T

0.00000000E+00  0.00000000E+00  0.00000000E+00
0.00000000E+00  0.00000000E+00  0.00000000E+00
0.00000000E+00  0.00000000E+00  0.00000000E+00
0.00000000E+00  0.00000000E+00  0.00000000E+00
0.00000000E+00  0.00000000E+00  0.00000000E+00
0.00000000E+00  0.00000000E+00  0.00000000E+00
0.00000000E+00  0.00000000E+00  0.00000000E+00
