Hf2N  (n=1)
1.00000000000000
3.2477600334875598  0.0000000000000000  0.0000000000000000
-1.6238800167437799  2.8126426944717946  0.0000000000000000
0.0000000000000000  0.0000000000000000  32.0191025263254190
Hf  N  H
2  3  2
Selective  dynamics
Direct
-0.0000000000000000  -0.0000000000000000  0.0653979289025556  T  T  T
-0.0000000000000000  -0.0000000000000000  0.1538181631335888  T  T  T
0.3333333333333357  0.6666666666666643  0.1096080460180678  T  T  T
0.6666666666666643  0.3333333333333357  0.0320125233999331  T  T  T
0.6666666666666643  0.3333333333333357  0.1872035686362025  T  T  T
0.6666666666666643  0.3333333333333357  0.0000000000000000  T  T  T
0.6666666666666643  0.3333333333333357  0.2192160920361357  T  T  T

0.00000000E+00  0.00000000E+00  0.00000000E+00
0.00000000E+00  0.00000000E+00  0.00000000E+00
0.00000000E+00  0.00000000E+00  0.00000000E+00
0.00000000E+00  0.00000000E+00  0.00000000E+00
0.00000000E+00  0.00000000E+00  0.00000000E+00
0.00000000E+00  0.00000000E+00  0.00000000E+00
0.00000000E+00  0.00000000E+00  0.00000000E+00
