Mo3C2  (n=2)
1.00000000000000
3.0548776370772699  0.0000000000000000  0.0000000000000000
-1.5274388185386349  2.6456016392369710  0.0000000000000000
-0.0000000000000001  0.0000000000000004  32.2386433515169344
Mo  C  O
3  2  2
Selective  dynamics
Direct
0.0000000000000000  0.0000000000000000  0.0353371383155510  T  T  T
0.6666666666666643  0.3333333333333357  0.1122665627177487  T  T  T
0.3333333333333357  0.6666666666666643  0.1891959871199543  T  T  T
0.3333333333333357  0.6666666666666643  0.0731287243022712  T  T  T
0.0000000000000000  0.0000000000000000  0.1514044011332342  T  T  T
0.6666666666666643  0.3333333333333357  0.0000000000000000  T  T  T
0.6666666666666643  0.3333333333333357  0.2245331254355135  T  T  T

0.00000000E+00  0.00000000E+00  0.00000000E+00
0.00000000E+00  0.00000000E+00  0.00000000E+00
0.00000000E+00  0.00000000E+00  0.00000000E+00
0.00000000E+00  0.00000000E+00  0.00000000E+00
0.00000000E+00  0.00000000E+00  0.00000000E+00
0.00000000E+00  0.00000000E+00  0.00000000E+00
0.00000000E+00  0.00000000E+00  0.00000000E+00
