Cr3C2  (n=2)
1.00000000000000
2.8548530768716605  0.0000000000000000  0.0000000000000000
-1.4274265384358302  2.4723752886480876  -0.0000000000000001
-0.0000000000000001  -0.0000000000000004  31.8457707518706670
Cr  C  O
3  2  2
Selective  dynamics
Direct
0.0000000000000000  0.0000000000000000  0.0307641283207922  T  T  T
0.6666666666666643  0.3333333333333357  0.1074832009124478  T  T  T
0.3333333333333357  0.6666666666666643  0.1842022735041116  T  T  T
0.3333333333333357  0.6666666666666643  0.0702342493992159  T  T  T
0.0000000000000000  0.0000000000000000  0.1447321524256880  T  T  T
0.6666666666666643  0.3333333333333357  0.0000000000000000  T  T  T
0.6666666666666643  0.3333333333333357  0.2149664018249123  T  T  T

0.00000000E+00  0.00000000E+00  0.00000000E+00
0.00000000E+00  0.00000000E+00  0.00000000E+00
0.00000000E+00  0.00000000E+00  0.00000000E+00
0.00000000E+00  0.00000000E+00  0.00000000E+00
0.00000000E+00  0.00000000E+00  0.00000000E+00
0.00000000E+00  0.00000000E+00  0.00000000E+00
0.00000000E+00  0.00000000E+00  0.00000000E+00
