Ti3N2  (n=2)
1.00000000000000
2.9863353997552524  0.0000000000000000  0.0000000000000000
-1.4931676998776262  2.5862423204443834  0.0000000000000000
-0.0000000000000001  -0.0000000000000009  31.8655965499222873
Ti  N  O
3  2  2
Selective  dynamics
Direct
0.0000000000000000  0.0000000000000000  0.0297469161815062  T  T  T
0.6666666666666643  0.3333333333333357  0.1077274128410876  T  T  T
0.3333333333333357  0.6666666666666643  0.1857079095006771  T  T  T
0.3333333333333357  0.6666666666666643  0.0685466633400338  T  T  T
0.0000000000000000  0.0000000000000000  0.1469081623421493  T  T  T
0.6666666666666643  0.3333333333333357  0.0000000000000000  T  T  T
0.6666666666666643  0.3333333333333357  0.2154548256821832  T  T  T

0.00000000E+00  0.00000000E+00  0.00000000E+00
0.00000000E+00  0.00000000E+00  0.00000000E+00
0.00000000E+00  0.00000000E+00  0.00000000E+00
0.00000000E+00  0.00000000E+00  0.00000000E+00
0.00000000E+00  0.00000000E+00  0.00000000E+00
0.00000000E+00  0.00000000E+00  0.00000000E+00
0.00000000E+00  0.00000000E+00  0.00000000E+00
