Nb3N2  (n=2)
1.00000000000000
3.1166394970873394  0.0000000000000000  0.0000000000000000
-1.5583197485436697  2.6990889790357291  0.0000000000000000
0.0000000000000000  0.0000000000000002  32.2952888851536031
Nb  N  O
3  2  2
Selective  dynamics
Direct
0.0000000000000000  0.0000000000000000  0.0339783576542357  T  T  T
0.6666666666666643  0.3333333333333357  0.1129466423275642  T  T  T
0.3333333333333357  0.6666666666666643  0.1919149270008927  T  T  T
0.3333333333333357  0.6666666666666643  0.0726849528586477  T  T  T
0.0000000000000000  0.0000000000000000  0.1532083317964729  T  T  T
0.6666666666666643  0.3333333333333357  0.0000000000000000  T  T  T
0.6666666666666643  0.3333333333333357  0.2258932846551283  T  T  T

0.00000000E+00  0.00000000E+00  0.00000000E+00
0.00000000E+00  0.00000000E+00  0.00000000E+00
0.00000000E+00  0.00000000E+00  0.00000000E+00
0.00000000E+00  0.00000000E+00  0.00000000E+00
0.00000000E+00  0.00000000E+00  0.00000000E+00
0.00000000E+00  0.00000000E+00  0.00000000E+00
0.00000000E+00  0.00000000E+00  0.00000000E+00
