Mo3N2  (n=2)
1.00000000000000
2.8375891237272737  0.0000000000000000  0.0000000000000000
-1.4187945618636368  2.4574242667353716  0.0000000000000000
0.0000000000000001  0.0000000000000017  33.3263746313442866
Mo  N  O
3  2  2
Selective  dynamics
Direct
0.0000000000000000  0.0000000000000000  0.0372722235245052  T  T  T
0.6666666666666643  0.3333333333333357  0.1249181412991513  T  T  T
0.3333333333333357  0.6666666666666643  0.2125711729880314  T  T  T
0.3333333333333357  0.6666666666666643  0.0819532531238788  T  T  T
0.0000000000000000  0.0000000000000000  0.1678856118652474  T  T  T
0.6666666666666643  0.3333333333333357  0.0000000000000000  T  T  T
0.6666666666666643  0.3333333333333357  0.2498433965125365  T  T  T

0.00000000E+00  0.00000000E+00  0.00000000E+00
0.00000000E+00  0.00000000E+00  0.00000000E+00
0.00000000E+00  0.00000000E+00  0.00000000E+00
0.00000000E+00  0.00000000E+00  0.00000000E+00
0.00000000E+00  0.00000000E+00  0.00000000E+00
0.00000000E+00  0.00000000E+00  0.00000000E+00
0.00000000E+00  0.00000000E+00  0.00000000E+00
