Ti3C2  (n=2)
1.00000000000000
3.0268361275937110  0.0000000000000000  0.0000000000000000
-1.5134180637968555  2.6213169796418447  0.0000000000000000
0.0000000000000002  0.0000000000000001  31.9816544988826976
Ti  C  O
3  2  2
Selective  dynamics
Direct
0.0000000000000000  0.0000000000000000  0.0286066631296909  T  T  T
0.6666666666666643  0.3333333333333357  0.1091509274344548  T  T  T
0.3333333333333357  0.6666666666666643  0.1896951917392270  T  T  T
0.3333333333333357  0.6666666666666643  0.0698068528748348  T  T  T
0.0000000000000000  0.0000000000000000  0.1484950019940663  T  T  T
0.6666666666666643  0.3333333333333357  0.0000000000000000  T  T  T
0.6666666666666643  0.3333333333333357  0.2183018548689095  T  T  T

0.00000000E+00  0.00000000E+00  0.00000000E+00
0.00000000E+00  0.00000000E+00  0.00000000E+00
0.00000000E+00  0.00000000E+00  0.00000000E+00
0.00000000E+00  0.00000000E+00  0.00000000E+00
0.00000000E+00  0.00000000E+00  0.00000000E+00
0.00000000E+00  0.00000000E+00  0.00000000E+00
0.00000000E+00  0.00000000E+00  0.00000000E+00
