Sc3N2  (n=2)
1.00000000000000
3.2161162589553536  0.0000000000000000  0.0000000000000000
-1.6080581294776768  2.7852383819226971  0.0000000000000000
0.0000000000000000  0.0000000000000005  32.0334816556577664
Sc  N  O
3  2  2
Selective  dynamics
Direct
0.0000000000000000  0.0000000000000000  0.0240849464978871  T  T  T
0.6666666666666643  0.3333333333333357  0.1097832844282008  T  T  T
0.3333333333333357  0.6666666666666643  0.1954816223585224  T  T  T
0.3333333333333357  0.6666666666666643  0.0717203789992387  T  T  T
0.0000000000000000  0.0000000000000000  0.1478461898571710  T  T  T
0.6666666666666643  0.3333333333333357  0.0000000000000000  T  T  T
0.6666666666666643  0.3333333333333357  0.2195665688564176  T  T  T

0.00000000E+00  0.00000000E+00  0.00000000E+00
0.00000000E+00  0.00000000E+00  0.00000000E+00
0.00000000E+00  0.00000000E+00  0.00000000E+00
0.00000000E+00  0.00000000E+00  0.00000000E+00
0.00000000E+00  0.00000000E+00  0.00000000E+00
0.00000000E+00  0.00000000E+00  0.00000000E+00
0.00000000E+00  0.00000000E+00  0.00000000E+00
