Ta3N2  (n=2)
1.00000000000000
3.0962789487895499  0.0000000000000000  0.0000000000000000
-1.5481394743947750  2.6814562269436375  0.0000000000000000
0.0000000000000000  -0.0000000000000001  32.2441731023812679
Ta  N  O
3  2  2
Selective  dynamics
Direct
0.0000000000000000  0.0000000000000000  0.0341444880389881  T  T  T
0.6666666666666643  0.3333333333333357  0.1123330575012681  T  T  T
0.3333333333333357  0.6666666666666643  0.1905216269635480  T  T  T
0.3333333333333357  0.6666666666666643  0.0723996845777602  T  T  T
0.0000000000000000  0.0000000000000000  0.1522664304247681  T  T  T
0.6666666666666643  0.3333333333333357  0.0000000000000000  T  T  T
0.6666666666666643  0.3333333333333357  0.2246661150025361  T  T  T

0.00000000E+00  0.00000000E+00  0.00000000E+00
0.00000000E+00  0.00000000E+00  0.00000000E+00
0.00000000E+00  0.00000000E+00  0.00000000E+00
0.00000000E+00  0.00000000E+00  0.00000000E+00
0.00000000E+00  0.00000000E+00  0.00000000E+00
0.00000000E+00  0.00000000E+00  0.00000000E+00
0.00000000E+00  0.00000000E+00  0.00000000E+00
