Sc3C2  (n=2)
1.00000000000000
3.2839521465547974  0.0000000000000000  0.0000000000000000
-1.6419760732773987  2.8439859838582762  0.0000000000000001
-0.0000000000000004  0.0000000000000018  32.2036115798729625
Sc  C  O
3  2  2
Selective  dynamics
Direct
0.0000000000000000  0.0000000000000000  0.0225192779126345  T  T  T
0.6666666666666643  0.3333333333333357  0.1118447780617124  T  T  T
0.3333333333333357  0.6666666666666643  0.2011702782107904  T  T  T
0.3333333333333357  0.6666666666666643  0.0739926253983386  T  T  T
0.0000000000000000  0.0000000000000000  0.1496969307250780  T  T  T
0.6666666666666643  0.3333333333333357  0.0000000000000000  T  T  T
0.6666666666666643  0.3333333333333357  0.2236895561234248  T  T  T

0.00000000E+00  0.00000000E+00  0.00000000E+00
0.00000000E+00  0.00000000E+00  0.00000000E+00
0.00000000E+00  0.00000000E+00  0.00000000E+00
0.00000000E+00  0.00000000E+00  0.00000000E+00
0.00000000E+00  0.00000000E+00  0.00000000E+00
0.00000000E+00  0.00000000E+00  0.00000000E+00
0.00000000E+00  0.00000000E+00  0.00000000E+00
