Zr3N2  (n=2)
1.00000000000000
3.2534969708287576  0.0000000000000000  0.0000000000000000
-1.6267484854143788  2.8176110280754472  0.0000000000000000
0.0000000000000001  -0.0000000000000003  32.3680123303202265
Zr  N  O
3  2  2
Selective  dynamics
Direct
0.0000000000000000  0.0000000000000000  0.0305768600413558  T  T  T
0.6666666666666643  0.3333333333333357  0.1138162617946399  T  T  T
0.3333333333333357  0.6666666666666643  0.1970556635479397  T  T  T
0.3333333333333357  0.6666666666666643  0.0705958888231181  T  T  T
0.0000000000000000  0.0000000000000000  0.1570366347661695  T  T  T
0.6666666666666643  0.3333333333333357  0.0000000000000000  T  T  T
0.6666666666666643  0.3333333333333357  0.2276325235892954  T  T  T

0.00000000E+00  0.00000000E+00  0.00000000E+00
0.00000000E+00  0.00000000E+00  0.00000000E+00
0.00000000E+00  0.00000000E+00  0.00000000E+00
0.00000000E+00  0.00000000E+00  0.00000000E+00
0.00000000E+00  0.00000000E+00  0.00000000E+00
0.00000000E+00  0.00000000E+00  0.00000000E+00
0.00000000E+00  0.00000000E+00  0.00000000E+00
