Zr3C2  (n=2)
1.00000000000000
3.3117448708423316  0.0000000000000000  0.0000000000000000
-1.6558724354211658  2.8680551891936714  -0.0000000000000002
-0.0000000000000002  -0.0000000000000019  32.4490821101836531
Zr  C  O
3  2  2
Selective  dynamics
Direct
0.0000000000000000  0.0000000000000000  0.0289977205575437  T  T  T
0.6666666666666643  0.3333333333333357  0.1147810912630695  T  T  T
0.3333333333333357  0.6666666666666643  0.2005644619686036  T  T  T
0.3333333333333357  0.6666666666666643  0.0725196137539474  T  T  T
0.0000000000000000  0.0000000000000000  0.1570425687721833  T  T  T
0.6666666666666643  0.3333333333333357  0.0000000000000000  T  T  T
0.6666666666666643  0.3333333333333357  0.2295621825261390  T  T  T

0.00000000E+00  0.00000000E+00  0.00000000E+00
0.00000000E+00  0.00000000E+00  0.00000000E+00
0.00000000E+00  0.00000000E+00  0.00000000E+00
0.00000000E+00  0.00000000E+00  0.00000000E+00
0.00000000E+00  0.00000000E+00  0.00000000E+00
0.00000000E+00  0.00000000E+00  0.00000000E+00
0.00000000E+00  0.00000000E+00  0.00000000E+00
