Hf3C2  (n=2)
1.00000000000000
3.2576883530989704  0.0000000000000000  0.0000000000000000
-1.6288441765494852  2.8212408715622073  0.0000000000000000
0.0000000000000000  -0.0000000000000007  32.3435581816641502
Hf  C  O
3  2  2
Selective  dynamics
Direct
0.0000000000000000  0.0000000000000000  0.0289127199272357  T  T  T
0.6666666666666643  0.3333333333333357  0.1135242780095122  T  T  T
0.3333333333333357  0.6666666666666643  0.1981358360917886  T  T  T
0.3333333333333357  0.6666666666666643  0.0716946000107166  T  T  T
0.0000000000000000  0.0000000000000000  0.1553539560082996  T  T  T
0.6666666666666643  0.3333333333333357  0.0000000000000000  T  T  T
0.6666666666666643  0.3333333333333357  0.2270485560190245  T  T  T

0.00000000E+00  0.00000000E+00  0.00000000E+00
0.00000000E+00  0.00000000E+00  0.00000000E+00
0.00000000E+00  0.00000000E+00  0.00000000E+00
0.00000000E+00  0.00000000E+00  0.00000000E+00
0.00000000E+00  0.00000000E+00  0.00000000E+00
0.00000000E+00  0.00000000E+00  0.00000000E+00
0.00000000E+00  0.00000000E+00  0.00000000E+00
