Hf3N2  (n=2)
1.00000000000000
3.1989590046613827  0.0000000000000000  0.0000000000000000
-1.5994795023306914  2.7703797638446788  0.0000000000000000
0.0000000000000002  0.0000000000000010  32.2505336982332480
Hf  N  O
3  2  2
Selective  dynamics
Direct
0.0000000000000000  0.0000000000000000  0.0304331818637013  T  T  T
0.6666666666666643  0.3333333333333357  0.1124095149258018  T  T  T
0.3333333333333357  0.6666666666666643  0.1943858479879101  T  T  T
0.3333333333333357  0.6666666666666643  0.0697615093101328  T  T  T
0.0000000000000000  0.0000000000000000  0.1550575205414629  T  T  T
0.6666666666666643  0.3333333333333357  0.0000000000000000  T  T  T
0.6666666666666643  0.3333333333333357  0.2248190298516035  T  T  T

0.00000000E+00  0.00000000E+00  0.00000000E+00
0.00000000E+00  0.00000000E+00  0.00000000E+00
0.00000000E+00  0.00000000E+00  0.00000000E+00
0.00000000E+00  0.00000000E+00  0.00000000E+00
0.00000000E+00  0.00000000E+00  0.00000000E+00
0.00000000E+00  0.00000000E+00  0.00000000E+00
0.00000000E+00  0.00000000E+00  0.00000000E+00
