Cr3N2  (n=2)
1.00000000000000
2.8711297948566865  0.0000000000000000  0.0000000000000000
-1.4355648974283433  2.4864713399125939  0.0000000000000000
0.0000000000000000  -0.0000000000000002  31.8190334468015301
Cr  N  O
3  2  2
Selective  dynamics
Direct
0.0000000000000000  0.0000000000000000  0.0287839037427026  T  T  T
0.6666666666666643  0.3333333333333357  0.1071533718678485  T  T  T
0.3333333333333357  0.6666666666666643  0.1855228399930026  T  T  T
0.3333333333333357  0.6666666666666643  0.0698859391393247  T  T  T
0.0000000000000000  0.0000000000000000  0.1444208045963724  T  T  T
0.6666666666666643  0.3333333333333357  0.0000000000000000  T  T  T
0.6666666666666643  0.3333333333333357  0.2143067437357053  T  T  T

0.00000000E+00  0.00000000E+00  0.00000000E+00
0.00000000E+00  0.00000000E+00  0.00000000E+00
0.00000000E+00  0.00000000E+00  0.00000000E+00
0.00000000E+00  0.00000000E+00  0.00000000E+00
0.00000000E+00  0.00000000E+00  0.00000000E+00
0.00000000E+00  0.00000000E+00  0.00000000E+00
0.00000000E+00  0.00000000E+00  0.00000000E+00
