Nb3C2  (n=2)
1.00000000000000
3.1448525573693979  0.0000000000000000  0.0000000000000000
-1.5724262786846990  2.7235222059746143  -0.0000000000000001
0.0000000000000001  0.0000000000000006  32.3493762393730080
Nb  C  O
3  2  2
Selective  dynamics
Direct
0.0000000000000000  0.0000000000000000  0.0335846475740146  T  T  T
0.6666666666666643  0.3333333333333357  0.1135937859356303  T  T  T
0.3333333333333357  0.6666666666666643  0.1936029242972460  T  T  T
0.3333333333333357  0.6666666666666643  0.0726780171302636  T  T  T
0.0000000000000000  0.0000000000000000  0.1545095547409889  T  T  T
0.6666666666666643  0.3333333333333357  0.0000000000000000  T  T  T
0.6666666666666643  0.3333333333333357  0.2271875718712608  T  T  T

0.00000000E+00  0.00000000E+00  0.00000000E+00
0.00000000E+00  0.00000000E+00  0.00000000E+00
0.00000000E+00  0.00000000E+00  0.00000000E+00
0.00000000E+00  0.00000000E+00  0.00000000E+00
0.00000000E+00  0.00000000E+00  0.00000000E+00
0.00000000E+00  0.00000000E+00  0.00000000E+00
0.00000000E+00  0.00000000E+00  0.00000000E+00
