Cr4N3  (n=3)
1.00000000000000
2.7960002437504268  0.0000000000000000  0.0000000000000000
-1.3980001218752134  2.4214072400808218  0.0000000000000000
0.0000000000000000  0.0000000000000000  36.2161033783161272
Cr  N  Se
4  3  2
Selective  dynamics
Direct
-0.0000000000000000  -0.0000000000000000  0.0498062858684199  T  T  T
-0.0000000000000000  0.0000000000000000  0.1193233570889370  T  T  T
-0.0000000000000000  0.0000000000000000  0.1903759846970046  T  T  T
-0.0000000000000000  0.0000000000000000  0.2598930559175217  T  T  T
0.3333333333333357  0.6666666666666643  0.0845074890398010  T  T  T
0.3333333333333357  0.6666666666666643  0.1548496708929708  T  T  T
0.3333333333333357  0.6666666666666643  0.2251918527461337  T  T  T
0.6666666666666643  0.3333333333333357  0.0000000000000000  T  T  T
0.6666666666666643  0.3333333333333357  0.3096993417859417  T  T  T

0.00000000E+00  0.00000000E+00  0.00000000E+00
0.00000000E+00  0.00000000E+00  0.00000000E+00
0.00000000E+00  0.00000000E+00  0.00000000E+00
0.00000000E+00  0.00000000E+00  0.00000000E+00
0.00000000E+00  0.00000000E+00  0.00000000E+00
0.00000000E+00  0.00000000E+00  0.00000000E+00
0.00000000E+00  0.00000000E+00  0.00000000E+00
0.00000000E+00  0.00000000E+00  0.00000000E+00
0.00000000E+00  0.00000000E+00  0.00000000E+00
