Hf4C3  (n=3)
1.00000000000000
3.3083231116843259  0.0000000000000000  0.0000000000000000
-1.6541615558421630  2.8650918629735225  0.0000000000000000
-0.0000000000000000  0.0000000000000000  37.3944108491758271
Hf  C  Se
4  3  2
Selective  dynamics
Direct
0.0000000000000000  0.0000000000000000  0.0512247127345478  T  T  T
0.0000000000000000  0.0000000000000000  0.1277571327829558  T  T  T
0.0000000000000000  0.0000000000000000  0.2036937596824084  T  T  T
0.0000000000000000  -0.0000000000000000  0.2802261797308239  T  T  T
0.3333333333333357  0.6666666666666643  0.0855065491710993  T  T  T
0.3333333333333357  0.6666666666666643  0.1657254462326821  T  T  T
0.3333333333333357  0.6666666666666643  0.2459443432942575  T  T  T
0.6666666666666643  0.3333333333333357  0.0000000000000000  T  T  T
0.6666666666666643  0.3333333333333357  0.3314508924653642  T  T  T

0.00000000E+00  0.00000000E+00  0.00000000E+00
0.00000000E+00  0.00000000E+00  0.00000000E+00
0.00000000E+00  0.00000000E+00  0.00000000E+00
0.00000000E+00  0.00000000E+00  0.00000000E+00
0.00000000E+00  0.00000000E+00  0.00000000E+00
0.00000000E+00  0.00000000E+00  0.00000000E+00
0.00000000E+00  0.00000000E+00  0.00000000E+00
0.00000000E+00  0.00000000E+00  0.00000000E+00
0.00000000E+00  0.00000000E+00  0.00000000E+00
