Sc4N3  (n=3)
1.00000000000000
3.1909297496841469  0.0000000000000000  0.0000000000000000
-1.5954648748420737  2.7634262260262705  0.0000000000000000
0.0000000000000000  0.0000000000000000  37.2783343817089445
Sc  N  Se
4  3  2
Selective  dynamics
Direct
-0.0000000000000000  -0.0000000000000000  0.0536016097268800  T  T  T
-0.0000000000000000  -0.0000000000000000  0.1275094036217725  T  T  T
-0.0000000000000000  -0.0000000000000000  0.2018597751614261  T  T  T
-0.0000000000000000  -0.0000000000000000  0.2757675690563187  T  T  T
0.3333333333333357  0.6666666666666643  0.0872589520894043  T  T  T
0.3333333333333357  0.6666666666666643  0.1646845893915957  T  T  T
0.3333333333333357  0.6666666666666643  0.2421102266937868  T  T  T
0.6666666666666643  0.3333333333333357  0.0000000000000000  T  T  T
0.6666666666666643  0.3333333333333357  0.3293691787831983  T  T  T

0.00000000E+00  0.00000000E+00  0.00000000E+00
0.00000000E+00  0.00000000E+00  0.00000000E+00
0.00000000E+00  0.00000000E+00  0.00000000E+00
0.00000000E+00  0.00000000E+00  0.00000000E+00
0.00000000E+00  0.00000000E+00  0.00000000E+00
0.00000000E+00  0.00000000E+00  0.00000000E+00
0.00000000E+00  0.00000000E+00  0.00000000E+00
0.00000000E+00  0.00000000E+00  0.00000000E+00
0.00000000E+00  0.00000000E+00  0.00000000E+00
