Zr4N3  (n=3)
1.00000000000000
3.3021541419870193  -0.0000000000000001  0.0000000000000000
-1.6510770709935096  2.8597493765166129  0.0000000000000000
0.0000000000000000  0.0000000000000000  37.2517659741274230
Zr  N  Se
4  3  2
Selective  dynamics
Direct
-0.0000000000000000  -0.0000000000000000  0.0485909214270601  T  T  T
-0.0000000000000000  -0.0000000000000000  0.1257072432842207  T  T  T
-0.0000000000000000  -0.0000000000000000  0.2031836335304897  T  T  T
-0.0000000000000000  -0.0000000000000000  0.2802999553876502  T  T  T
0.3333333333333357  0.6666666666666643  0.0860297463244043  T  T  T
0.3333333333333357  0.6666666666666643  0.1644454384073553  T  T  T
0.3333333333333357  0.6666666666666643  0.2428611304903061  T  T  T
0.6666666666666643  0.3333333333333357  0.0000000000000000  T  T  T
0.6666666666666643  0.3333333333333357  0.3288908768147174  T  T  T

0.00000000E+00  0.00000000E+00  0.00000000E+00
0.00000000E+00  0.00000000E+00  0.00000000E+00
0.00000000E+00  0.00000000E+00  0.00000000E+00
0.00000000E+00  0.00000000E+00  0.00000000E+00
0.00000000E+00  0.00000000E+00  0.00000000E+00
0.00000000E+00  0.00000000E+00  0.00000000E+00
0.00000000E+00  0.00000000E+00  0.00000000E+00
0.00000000E+00  0.00000000E+00  0.00000000E+00
0.00000000E+00  0.00000000E+00  0.00000000E+00
