Nb4N3  (n=3)
1.00000000000000
3.0670943286655201  -0.0000000000000005  0.0000000000000000
-1.5335471643327601  2.6561816049912488  0.0000000000000000
0.0000000000000000  0.0000000000000000  37.3834067401496668
Nb  N  Se
4  3  2
Selective  dynamics
Direct
0.0000000000000000  0.0000000000000000  0.0502692196085441  T  T  T
0.0000000000000000  -0.0000000000000000  0.1270672065795714  T  T  T
0.0000000000000000  -0.0000000000000000  0.2041868930327554  T  T  T
0.0000000000000000  0.0000000000000000  0.2809848800037827  T  T  T
0.3333333333333357  0.6666666666666643  0.0902738565313952  T  T  T
0.3333333333333357  0.6666666666666643  0.1656270498061599  T  T  T
0.3333333333333357  0.6666666666666643  0.2409802430809245  T  T  T
0.6666666666666643  0.3333333333333357  0.0000000000000000  T  T  T
0.6666666666666643  0.3333333333333357  0.3312540996123268  T  T  T

0.00000000E+00  0.00000000E+00  0.00000000E+00
0.00000000E+00  0.00000000E+00  0.00000000E+00
0.00000000E+00  0.00000000E+00  0.00000000E+00
0.00000000E+00  0.00000000E+00  0.00000000E+00
0.00000000E+00  0.00000000E+00  0.00000000E+00
0.00000000E+00  0.00000000E+00  0.00000000E+00
0.00000000E+00  0.00000000E+00  0.00000000E+00
0.00000000E+00  0.00000000E+00  0.00000000E+00
0.00000000E+00  0.00000000E+00  0.00000000E+00
