Ti4C3  (n=3)
1.00000000000000
3.1190256481281073  -0.0000000000000001  -0.0000000000000000
-1.5595128240640537  2.7011554471334982  0.0000000000000000
0.0000000000000000  -0.0000000000000000  36.6472851931616930
Ti  C  Se
4  3  2
Selective  dynamics
Direct
0.0000000000000000  -0.0000000000000000  0.0507727992866370  T  T  T
0.0000000000000000  -0.0000000000000000  0.1229178849236597  T  T  T
-0.0000000000000000  -0.0000000000000000  0.1949033433548008  T  T  T
-0.0000000000000000  -0.0000000000000000  0.2670484289918235  T  T  T
0.3333333333333357  0.6666666666666643  0.0832735294135765  T  T  T
0.3333333333333357  0.6666666666666643  0.1589106141392303  T  T  T
0.3333333333333357  0.6666666666666643  0.2345476988648765  T  T  T
0.6666666666666643  0.3333333333333357  0.0000000000000000  T  T  T
0.6666666666666643  0.3333333333333357  0.3178212282784607  T  T  T

0.00000000E+00  0.00000000E+00  0.00000000E+00
0.00000000E+00  0.00000000E+00  0.00000000E+00
0.00000000E+00  0.00000000E+00  0.00000000E+00
0.00000000E+00  0.00000000E+00  0.00000000E+00
0.00000000E+00  0.00000000E+00  0.00000000E+00
0.00000000E+00  0.00000000E+00  0.00000000E+00
0.00000000E+00  0.00000000E+00  0.00000000E+00
0.00000000E+00  0.00000000E+00  0.00000000E+00
0.00000000E+00  0.00000000E+00  0.00000000E+00
