Ta4C3  (n=3)
1.00000000000000
3.1672163528051320  0.0000000000000002  0.0000000000000000
-1.5836081764025658  2.7428898225278959  0.0000000000000000
-0.0000000000000000  -0.0000000000000000  37.0880984183179478
Ta  C  Se
4  3  2
Selective  dynamics
Direct
-0.0000000000000000  -0.0000000000000000  0.0490435250267857  T  T  T
0.0000000000000000  0.0000000000000000  0.1248949455969407  T  T  T
0.0000000000000000  0.0000000000000000  0.2010343668734877  T  T  T
0.0000000000000000  0.0000000000000000  0.2768857874436427  T  T  T
0.3333333333333357  0.6666666666666643  0.0852036269949907  T  T  T
0.3333333333333357  0.6666666666666643  0.1629646562352141  T  T  T
0.3333333333333357  0.6666666666666643  0.2407256854754306  T  T  T
0.6666666666666643  0.3333333333333357  0.0000000000000000  T  T  T
0.6666666666666643  0.3333333333333357  0.3259293124704283  T  T  T

0.00000000E+00  0.00000000E+00  0.00000000E+00
0.00000000E+00  0.00000000E+00  0.00000000E+00
0.00000000E+00  0.00000000E+00  0.00000000E+00
0.00000000E+00  0.00000000E+00  0.00000000E+00
0.00000000E+00  0.00000000E+00  0.00000000E+00
0.00000000E+00  0.00000000E+00  0.00000000E+00
0.00000000E+00  0.00000000E+00  0.00000000E+00
0.00000000E+00  0.00000000E+00  0.00000000E+00
0.00000000E+00  0.00000000E+00  0.00000000E+00
