Zr4C3  (n=3)
1.00000000000000
3.3544433624077561  0.0000000000000005  0.0000000000000000
-1.6772216812038778  2.9050331741579378  0.0000000000000000
0.0000000000000000  0.0000000000000000  37.5615548468153833
Zr  C  Se
4  3  2
Selective  dynamics
Direct
0.0000000000000000  0.0000000000000000  0.0513035751245500  T  T  T
0.0000000000000000  0.0000000000000000  0.1288615469535677  T  T  T
0.0000000000000000  0.0000000000000000  0.2055643014449952  T  T  T
0.0000000000000000  0.0000000000000000  0.2831222732740128  T  T  T
0.3333333333333357  0.6666666666666643  0.0863061807811657  T  T  T
0.3333333333333357  0.6666666666666643  0.1672129241992777  T  T  T
0.3333333333333357  0.6666666666666643  0.2481196676173898  T  T  T
0.6666666666666643  0.3333333333333357  0.0000000000000000  T  T  T
0.6666666666666643  0.3333333333333357  0.3344258483985629  T  T  T

0.00000000E+00  0.00000000E+00  0.00000000E+00
0.00000000E+00  0.00000000E+00  0.00000000E+00
0.00000000E+00  0.00000000E+00  0.00000000E+00
0.00000000E+00  0.00000000E+00  0.00000000E+00
0.00000000E+00  0.00000000E+00  0.00000000E+00
0.00000000E+00  0.00000000E+00  0.00000000E+00
0.00000000E+00  0.00000000E+00  0.00000000E+00
0.00000000E+00  0.00000000E+00  0.00000000E+00
0.00000000E+00  0.00000000E+00  0.00000000E+00
