Nb4C3  (n=3)
1.00000000000000
3.1804446147898737  -0.0000000000000001  0.0000000000000000
-1.5902223073949375  2.7543458334987210  0.0000000000000000
0.0000000000000000  0.0000000000000000  37.1368367340700729
Nb  C  Se
4  3  2
Selective  dynamics
Direct
-0.0000000000000000  -0.0000000000000000  0.0492724091721182  T  T  T
-0.0000000000000000  -0.0000000000000000  0.1251682689971574  T  T  T
-0.0000000000000000  -0.0000000000000000  0.2016456925952013  T  T  T
-0.0000000000000000  -0.0000000000000000  0.2775415524202406  T  T  T
0.3333333333333357  0.6666666666666643  0.0859439107680963  T  T  T
0.3333333333333357  0.6666666666666643  0.1634069807961759  T  T  T
0.3333333333333357  0.6666666666666643  0.2408700508242554  T  T  T
0.6666666666666643  0.3333333333333357  0.0000000000000000  T  T  T
0.6666666666666643  0.3333333333333357  0.3268139615923588  T  T  T

0.00000000E+00  0.00000000E+00  0.00000000E+00
0.00000000E+00  0.00000000E+00  0.00000000E+00
0.00000000E+00  0.00000000E+00  0.00000000E+00
0.00000000E+00  0.00000000E+00  0.00000000E+00
0.00000000E+00  0.00000000E+00  0.00000000E+00
0.00000000E+00  0.00000000E+00  0.00000000E+00
0.00000000E+00  0.00000000E+00  0.00000000E+00
0.00000000E+00  0.00000000E+00  0.00000000E+00
0.00000000E+00  0.00000000E+00  0.00000000E+00
