Ti4N3  (n=3)
1.00000000000000
3.0427628523938761  0.0000000000000001  0.0000000000000000
-1.5213814261969383  2.6351099280144110  0.0000000000000000
0.0000000000000000  0.0000000000000000  36.5190670391094159
Ti  N  Se
4  3  2
Selective  dynamics
Direct
0.0000000000000000  0.0000000000000000  0.0495305915336895  T  T  T
0.0000000000000000  0.0000000000000000  0.1214882833510432  T  T  T
0.0000000000000000  0.0000000000000000  0.1939378206831395  T  T  T
0.0000000000000000  0.0000000000000000  0.2658955125004932  T  T  T
0.3333333333333357  0.6666666666666643  0.0831515598371818  T  T  T
0.3333333333333357  0.6666666666666643  0.1577130520170913  T  T  T
0.3333333333333357  0.6666666666666643  0.2322745441969870  T  T  T
0.6666666666666643  0.3333333333333357  0.0000000000000000  T  T  T
0.6666666666666643  0.3333333333333357  0.3154261040341827  T  T  T

0.00000000E+00  0.00000000E+00  0.00000000E+00
0.00000000E+00  0.00000000E+00  0.00000000E+00
0.00000000E+00  0.00000000E+00  0.00000000E+00
0.00000000E+00  0.00000000E+00  0.00000000E+00
0.00000000E+00  0.00000000E+00  0.00000000E+00
0.00000000E+00  0.00000000E+00  0.00000000E+00
0.00000000E+00  0.00000000E+00  0.00000000E+00
0.00000000E+00  0.00000000E+00  0.00000000E+00
0.00000000E+00  0.00000000E+00  0.00000000E+00
