Mo4N3  (n=3)
1.00000000000000
2.9677096890931276  -0.0000000000000001  0.0000000000000000
-1.4838548445465638  2.5701119821210487  0.0000000000000000
0.0000000000000000  0.0000000000000000  37.1698786228290885
Mo  N  Se
4  3  2
Selective  dynamics
Direct
-0.0000000000000000  0.0000000000000000  0.0497309432050491  T  T  T
-0.0000000000000000  0.0000000000000000  0.1255338550035855  T  T  T
-0.0000000000000000  0.0000000000000000  0.2018785303399283  T  T  T
-0.0000000000000000  0.0000000000000000  0.2776814421384647  T  T  T
0.3333333333333357  0.6666666666666643  0.0907317274189391  T  T  T
0.3333333333333357  0.6666666666666643  0.1637061926717533  T  T  T
0.3333333333333357  0.6666666666666643  0.2366806579245604  T  T  T
0.6666666666666643  0.3333333333333357  0.0000000000000000  T  T  T
0.6666666666666643  0.3333333333333357  0.3274123853435066  T  T  T

0.00000000E+00  0.00000000E+00  0.00000000E+00
0.00000000E+00  0.00000000E+00  0.00000000E+00
0.00000000E+00  0.00000000E+00  0.00000000E+00
0.00000000E+00  0.00000000E+00  0.00000000E+00
0.00000000E+00  0.00000000E+00  0.00000000E+00
0.00000000E+00  0.00000000E+00  0.00000000E+00
0.00000000E+00  0.00000000E+00  0.00000000E+00
0.00000000E+00  0.00000000E+00  0.00000000E+00
0.00000000E+00  0.00000000E+00  0.00000000E+00
