Ta4N3  (n=3)
1.00000000000000
3.0480992331366590  -0.0000000000000002  0.0000000000000000
-1.5240496165683295  2.6397313696111762  0.0000000000000000
0.0000000000000000  0.0000000000000000  37.3824848131835239
Ta  N  Se
4  3  2
Selective  dynamics
Direct
-0.0000000000000000  -0.0000000000000000  0.0500314821432919  T  T  T
-0.0000000000000000  -0.0000000000000000  0.1270198570676129  T  T  T
-0.0000000000000000  -0.0000000000000000  0.2042177499310632  T  T  T
-0.0000000000000000  -0.0000000000000000  0.2812061248553843  T  T  T
0.3333333333333357  0.6666666666666643  0.0901022170082958  T  T  T
0.3333333333333357  0.6666666666666643  0.1656188034993380  T  T  T
0.3333333333333357  0.6666666666666643  0.2411353899903801  T  T  T
0.6666666666666643  0.3333333333333357  0.0000000000000000  T  T  T
0.6666666666666643  0.3333333333333357  0.3312376069986830  T  T  T

0.00000000E+00  0.00000000E+00  0.00000000E+00
0.00000000E+00  0.00000000E+00  0.00000000E+00
0.00000000E+00  0.00000000E+00  0.00000000E+00
0.00000000E+00  0.00000000E+00  0.00000000E+00
0.00000000E+00  0.00000000E+00  0.00000000E+00
0.00000000E+00  0.00000000E+00  0.00000000E+00
0.00000000E+00  0.00000000E+00  0.00000000E+00
0.00000000E+00  0.00000000E+00  0.00000000E+00
0.00000000E+00  0.00000000E+00  0.00000000E+00
