Cr4C3  (n=3)
1.00000000000000
2.8351531566028045  0.0000000000000000  0.0000000000000000
-1.4175765783014025  2.4553146571863302  0.0000000000000000
0.0000000000000000  0.0000000000000000  36.2048261816012058
Cr  C  Se
4  3  2
Selective  dynamics
Direct
0.0000000000000000  0.0000000000000000  0.0489643383370134  T  T  T
0.0000000000000000  0.0000000000000000  0.1191437171399244  T  T  T
0.0000000000000000  0.0000000000000000  0.1903406075575062  T  T  T
0.0000000000000000  0.0000000000000000  0.2605199863604311  T  T  T
0.3333333333333357  0.6666666666666643  0.0839736991704637  T  T  T
0.3333333333333357  0.6666666666666643  0.1547421623487223  T  T  T
0.3333333333333357  0.6666666666666643  0.2255106255269738  T  T  T
0.6666666666666643  0.3333333333333357  0.0000000000000000  T  T  T
0.6666666666666643  0.3333333333333357  0.3094843246974444  T  T  T

0.00000000E+00  0.00000000E+00  0.00000000E+00
0.00000000E+00  0.00000000E+00  0.00000000E+00
0.00000000E+00  0.00000000E+00  0.00000000E+00
0.00000000E+00  0.00000000E+00  0.00000000E+00
0.00000000E+00  0.00000000E+00  0.00000000E+00
0.00000000E+00  0.00000000E+00  0.00000000E+00
0.00000000E+00  0.00000000E+00  0.00000000E+00
0.00000000E+00  0.00000000E+00  0.00000000E+00
0.00000000E+00  0.00000000E+00  0.00000000E+00
