Hf4N3  (n=3)
1.00000000000000
3.2575304216901690  0.0000000000000007  0.0000000000000000
-1.6287652108450839  2.8211041007466351  0.0000000000000000
0.0000000000000000  0.0000000000000000  37.1082274301679220
Hf  N  Se
4  3  2
Selective  dynamics
Direct
-0.0000000000000000  -0.0000000000000000  0.0479991991506843  T  T  T
0.0000000000000000  -0.0000000000000000  0.1245848018472397  T  T  T
0.0000000000000000  -0.0000000000000000  0.2017101539803872  T  T  T
0.0000000000000000  -0.0000000000000000  0.2782957566769426  T  T  T
0.3333333333333357  0.6666666666666643  0.0848566147030566  T  T  T
0.3333333333333357  0.6666666666666643  0.1631474779138100  T  T  T
0.3333333333333357  0.6666666666666643  0.2414383411245636  T  T  T
0.6666666666666643  0.3333333333333357  0.0000000000000000  T  T  T
0.6666666666666643  0.3333333333333357  0.3262949558276201  T  T  T

0.00000000E+00  0.00000000E+00  0.00000000E+00
0.00000000E+00  0.00000000E+00  0.00000000E+00
0.00000000E+00  0.00000000E+00  0.00000000E+00
0.00000000E+00  0.00000000E+00  0.00000000E+00
0.00000000E+00  0.00000000E+00  0.00000000E+00
0.00000000E+00  0.00000000E+00  0.00000000E+00
0.00000000E+00  0.00000000E+00  0.00000000E+00
0.00000000E+00  0.00000000E+00  0.00000000E+00
0.00000000E+00  0.00000000E+00  0.00000000E+00
