Mo4C3  (n=3)
1.00000000000000
3.0042401481798726  -0.0000000000000001  0.0000000000000000
-1.5021200740899363  2.6017482878825260  0.0000000000000000
0.0000000000000000  0.0000000000000000  37.1328096462642350
Mo  C  Se
4  3  2
Selective  dynamics
Direct
-0.0000000000000000  0.0000000000000000  0.0501666624003847  T  T  T
-0.0000000000000000  0.0000000000000000  0.1253792732653379  T  T  T
-0.0000000000000000  0.0000000000000000  0.2013616806738925  T  T  T
-0.0000000000000000  0.0000000000000000  0.2765742915388457  T  T  T
0.3333333333333357  0.6666666666666643  0.0884655449132309  T  T  T
0.3333333333333357  0.6666666666666643  0.1633704769696117  T  T  T
0.3333333333333357  0.6666666666666643  0.2382754090259923  T  T  T
0.6666666666666643  0.3333333333333357  0.0000000000000000  T  T  T
0.6666666666666643  0.3333333333333357  0.3267409539392304  T  T  T

0.00000000E+00  0.00000000E+00  0.00000000E+00
0.00000000E+00  0.00000000E+00  0.00000000E+00
0.00000000E+00  0.00000000E+00  0.00000000E+00
0.00000000E+00  0.00000000E+00  0.00000000E+00
0.00000000E+00  0.00000000E+00  0.00000000E+00
0.00000000E+00  0.00000000E+00  0.00000000E+00
0.00000000E+00  0.00000000E+00  0.00000000E+00
0.00000000E+00  0.00000000E+00  0.00000000E+00
0.00000000E+00  0.00000000E+00  0.00000000E+00
