Sc4C3  (n=3)
1.00000000000000
3.3867928686575683  -0.0000000000000001  0.0000000000000000
-1.6933964343287844  2.9330486646508325  0.0000000000000000
0.0000000000000000  0.0000000000000000  36.9668146993177871
Sc  C  Se
4  3  2
Selective  dynamics
Direct
0.0000000000000000  0.0000000000000000  0.0504765472587334  T  T  T
0.0000000000000000  0.0000000000000000  0.1253897345323070  T  T  T
0.0000000000000000  0.0000000000000000  0.1983280322445702  T  T  T
0.0000000000000000  0.0000000000000000  0.2732412195181437  T  T  T
0.3333333333333357  0.6666666666666643  0.0881871158054807  T  T  T
0.3333333333333357  0.6666666666666643  0.1618588833884348  T  T  T
0.3333333333333357  0.6666666666666643  0.2355306509713817  T  T  T
0.6666666666666643  0.3333333333333357  0.0000000000000000  T  T  T
0.6666666666666643  0.3333333333333357  0.3237177667768770  T  T  T

0.00000000E+00  0.00000000E+00  0.00000000E+00
0.00000000E+00  0.00000000E+00  0.00000000E+00
0.00000000E+00  0.00000000E+00  0.00000000E+00
0.00000000E+00  0.00000000E+00  0.00000000E+00
0.00000000E+00  0.00000000E+00  0.00000000E+00
0.00000000E+00  0.00000000E+00  0.00000000E+00
0.00000000E+00  0.00000000E+00  0.00000000E+00
0.00000000E+00  0.00000000E+00  0.00000000E+00
0.00000000E+00  0.00000000E+00  0.00000000E+00
