Mo2N  (n=1)
1.00000000000000
3.3094612763977160  0.0000000000000000  0.0000000000000000
-1.6547306381988582  2.8660775382959010  0.0000000000000000
-0.0000000000000001  0.0000000000000000  31.7262799789497620
Mo  N  I
2  1  2
Selective  dynamics
Direct
-0.0000000000000000  -0.0000000000000000  0.0683350070606127  T  T  T
-0.0000000000000000  -0.0000000000000000  0.1453767386227275  T  T  T
0.3333333333333357  0.6666666666666643  0.1039485214588152  T  T  T
0.3333333333333357  0.6666666666666643  0.0000000000000000  T  T  T
0.6666666666666643  0.3333333333333357  0.2120097276898715  T  T  T

0.00000000E+00  0.00000000E+00  0.00000000E+00
0.00000000E+00  0.00000000E+00  0.00000000E+00
0.00000000E+00  0.00000000E+00  0.00000000E+00
0.00000000E+00  0.00000000E+00  0.00000000E+00
0.00000000E+00  0.00000000E+00  0.00000000E+00
