Cr2C  (n=1)
1.00000000000000
3.3207309530277542  0.0000000000000001  0.0000000000000000
-1.6603654765138771  2.8758373645401147  0.0000000000000001
-0.0000000000000004  0.0000000000000005  31.1088173531437846
Cr  C  I
2  1  2
Selective  dynamics
Direct
-0.0000000000000000  -0.0000000000000000  0.0653719312220021  T  T  T
-0.0000000000000000  0.0000000000000000  0.1341992715446050  T  T  T
0.3333333333333357  0.6666666666666643  0.0992531023536309  T  T  T
0.3333333333333357  0.6666666666666643  0.0000000000000000  T  T  T
0.6666666666666643  0.3333333333333357  0.1963693213984055  T  T  T

0.00000000E+00  0.00000000E+00  0.00000000E+00
0.00000000E+00  0.00000000E+00  0.00000000E+00
0.00000000E+00  0.00000000E+00  0.00000000E+00
0.00000000E+00  0.00000000E+00  0.00000000E+00
0.00000000E+00  0.00000000E+00  0.00000000E+00
