Zr2C  (n=1)
1.00000000000000
3.5789856377124094  -0.0000000000000001  0.0000000000000000
-1.7894928188562047  3.0994924824942287  -0.0000000000000001
0.0000000000000003  0.0000000000000001  32.0157717536001059
Zr  C  I
2  1  2
Selective  dynamics
Direct
0.0000000000000000  -0.0000000000000000  0.0662209239823921  T  T  T
0.0000000000000000  -0.0000000000000000  0.1528689670551318  T  T  T
0.3333333333333357  0.6666666666666643  0.1116507681293023  T  T  T
0.3333333333333357  0.6666666666666643  0.0000000000000000  T  T  T
0.6666666666666643  0.3333333333333357  0.2191348628917933  T  T  T

0.00000000E+00  0.00000000E+00  0.00000000E+00
0.00000000E+00  0.00000000E+00  0.00000000E+00
0.00000000E+00  0.00000000E+00  0.00000000E+00
0.00000000E+00  0.00000000E+00  0.00000000E+00
0.00000000E+00  0.00000000E+00  0.00000000E+00
