Sc2C  (n=1)
1.00000000000000
3.6056747370217019  0.0000000000000000  0.0000000000000000
-1.8028373685108507  3.1226059204637875  0.0000000000000002
-0.0000000000000002  -0.0000000000000008  31.8632433889956559
Sc  C  I
2  1  2
Selective  dynamics
Direct
0.0000000000000000  0.0000000000000000  0.0661212529349907  T  T  T
0.0000000000000000  0.0000000000000000  0.1503970890089057  T  T  T
0.3333333333333357  0.6666666666666643  0.1090766998203452  T  T  T
0.3333333333333357  0.6666666666666643  0.0000000000000000  T  T  T
0.6666666666666643  0.3333333333333357  0.2153968855338173  T  T  T

0.00000000E+00  0.00000000E+00  0.00000000E+00
0.00000000E+00  0.00000000E+00  0.00000000E+00
0.00000000E+00  0.00000000E+00  0.00000000E+00
0.00000000E+00  0.00000000E+00  0.00000000E+00
0.00000000E+00  0.00000000E+00  0.00000000E+00
