Ta2C  (n=1)
1.00000000000000
3.3476712605519174  -0.0000000000000020  -0.0000000000000001
-1.6738356302759596  2.8991683554298002  0.0000000000000002
-0.0000000000000010  0.0000000000000014  31.9129719901553912
Ta  C  I
2  1  2
Selective  dynamics
Direct
0.0000000000000000  0.0000000000000000  0.0651024944326454  T  T  T
0.0000000000000000  0.0000000000000000  0.1507049457725494  T  T  T
0.3333333333333357  0.6666666666666643  0.1059453765066585  T  T  T
0.3333333333333357  0.6666666666666643  0.0000000000000000  T  T  T
0.6666666666666643  0.3333333333333357  0.2166194985627765  T  T  T

0.00000000E+00  0.00000000E+00  0.00000000E+00
0.00000000E+00  0.00000000E+00  0.00000000E+00
0.00000000E+00  0.00000000E+00  0.00000000E+00
0.00000000E+00  0.00000000E+00  0.00000000E+00
0.00000000E+00  0.00000000E+00  0.00000000E+00
