Nb2N  (n=1)
1.00000000000000
3.3403014485723967  -0.0000000000000001  0.0000000000000000
-1.6701507242861984  2.8927859110068299  0.0000000000000000
0.0000000000000002  -0.0000000000000004  31.9012138544814619
Nb  N  I
2  1  2
Selective  dynamics
Direct
0.0000000000000000  -0.0000000000000000  0.0664462701766711  T  T  T
-0.0000000000000000  0.0000000000000000  0.1500651461290163  T  T  T
0.3333333333333357  0.6666666666666643  0.1059154091355184  T  T  T
0.3333333333333357  0.6666666666666643  0.0000000000000000  T  T  T
0.6666666666666643  0.3333333333333357  0.2163307605146813  T  T  T

0.00000000E+00  0.00000000E+00  0.00000000E+00
0.00000000E+00  0.00000000E+00  0.00000000E+00
0.00000000E+00  0.00000000E+00  0.00000000E+00
0.00000000E+00  0.00000000E+00  0.00000000E+00
0.00000000E+00  0.00000000E+00  0.00000000E+00
