Cr2N  (n=1)
1.00000000000000
3.3267845299291521  -0.0000000000000002  0.0000000000000000
-1.6633922649645771  2.8810799158661267  0.0000000000000000
0.0000000000000004  0.0000000000000004  31.1744024630770511
Cr  N  I
2  1  2
Selective  dynamics
Direct
0.0000000000000000  -0.0000000000000000  0.0669498777989026  T  T  T
-0.0000000000000000  0.0000000000000000  0.1362033669530468  T  T  T
0.3333333333333357  0.6666666666666643  0.0988377540086927  T  T  T
0.3333333333333357  0.6666666666666643  0.0000000000000000  T  T  T
0.6666666666666643  0.3333333333333357  0.1980600099838324  T  T  T

0.00000000E+00  0.00000000E+00  0.00000000E+00
0.00000000E+00  0.00000000E+00  0.00000000E+00
0.00000000E+00  0.00000000E+00  0.00000000E+00
0.00000000E+00  0.00000000E+00  0.00000000E+00
0.00000000E+00  0.00000000E+00  0.00000000E+00
