Ti2N  (n=1)
1.00000000000000
3.4119775419225573  0.0000000000000000  0.0000000000000000
-1.7059887709612787  2.9548592286652564  -0.0000000000000001
-0.0000000000000002  -0.0000000000000003  31.4315989340890063
Ti  N  I
2  1  2
Selective  dynamics
Direct
-0.0000000000000000  -0.0000000000000000  0.0639302749950467  T  T  T
-0.0000000000000000  -0.0000000000000000  0.1422557269920320  T  T  T
0.3333333333333357  0.6666666666666643  0.1036690335309045  T  T  T
0.3333333333333357  0.6666666666666643  0.0000000000000000  T  T  T
0.6666666666666643  0.3333333333333357  0.2046220730792554  T  T  T

0.00000000E+00  0.00000000E+00  0.00000000E+00
0.00000000E+00  0.00000000E+00  0.00000000E+00
0.00000000E+00  0.00000000E+00  0.00000000E+00
0.00000000E+00  0.00000000E+00  0.00000000E+00
0.00000000E+00  0.00000000E+00  0.00000000E+00
