Ta2N  (n=1)
1.00000000000000
3.3014632527623222  0.0000000000000000  0.0000000000000000
-1.6507316263811611  2.8591510466856089  0.0000000000000000
0.0000000000000001  -0.0000000000000001  31.9583571132264979
Ta  N  I
2  1  2
Selective  dynamics
Direct
0.0000000000000000  0.0000000000000000  0.0664822052140003  T  T  T
0.0000000000000000  0.0000000000000000  0.1507482714419784  T  T  T
0.3333333333333357  0.6666666666666643  0.1066200873475599  T  T  T
0.3333333333333357  0.6666666666666643  0.0000000000000000  T  T  T
0.6666666666666643  0.3333333333333357  0.2177320031994594  T  T  T

0.00000000E+00  0.00000000E+00  0.00000000E+00
0.00000000E+00  0.00000000E+00  0.00000000E+00
0.00000000E+00  0.00000000E+00  0.00000000E+00
0.00000000E+00  0.00000000E+00  0.00000000E+00
0.00000000E+00  0.00000000E+00  0.00000000E+00
