Zr2N  (n=1)
1.00000000000000
3.4849125821162490  0.0000000000000000  -0.0000000000000001
-1.7424562910581245  3.0180228263337270  0.0000000000000001
-0.0000000000000002  -0.0000000000000005  32.0771349903528744
Zr  N  I
2  1  2
Selective  dynamics
Direct
0.0000000000000000  0.0000000000000000  0.0662874214674119  T  T  T
0.0000000000000000  0.0000000000000000  0.1552510275544848  T  T  T
0.3333333333333357  0.6666666666666643  0.1100368962478659  T  T  T
0.3333333333333357  0.6666666666666643  0.0000000000000000  T  T  T
0.6666666666666643  0.3333333333333357  0.2206286500487437  T  T  T

0.00000000E+00  0.00000000E+00  0.00000000E+00
0.00000000E+00  0.00000000E+00  0.00000000E+00
0.00000000E+00  0.00000000E+00  0.00000000E+00
0.00000000E+00  0.00000000E+00  0.00000000E+00
0.00000000E+00  0.00000000E+00  0.00000000E+00
