Ti2C  (n=1)
1.00000000000000
3.4549591717607000  0.0000000000000001  0.0000000000000000
-1.7274795858803498  2.9920824118676714  0.0000000000000000
0.0000000000000004  0.0000000000000014  31.4447418900563065
Ti  C  I
2  1  2
Selective  dynamics
Direct
0.0000000000000000  -0.0000000000000000  0.0635217724348379  T  T  T
-0.0000000000000000  -0.0000000000000000  0.1415202504718084  T  T  T
0.3333333333333357  0.6666666666666643  0.1044760644473467  T  T  T
0.3333333333333357  0.6666666666666643  0.0000000000000000  T  T  T
0.6666666666666643  0.3333333333333357  0.2049545171205337  T  T  T

0.00000000E+00  0.00000000E+00  0.00000000E+00
0.00000000E+00  0.00000000E+00  0.00000000E+00
0.00000000E+00  0.00000000E+00  0.00000000E+00
0.00000000E+00  0.00000000E+00  0.00000000E+00
0.00000000E+00  0.00000000E+00  0.00000000E+00
