Hf2N  (n=1)
1.00000000000000
3.4396351029083569  0.0000000000000000  0.0000000000000000
-1.7198175514541785  2.9788113789607835  0.0000000000000000
0.0000000000000000  -0.0000000000000001  32.0352168460241202
Hf  N  I
2  1  2
Selective  dynamics
Direct
0.0000000000000000  0.0000000000000000  0.0654427624253301  T  T  T
0.0000000000000000  0.0000000000000000  0.1539670477006582  T  T  T
0.3333333333333357  0.6666666666666643  0.1091209786419938  T  T  T
0.3333333333333357  0.6666666666666643  0.0000000000000000  T  T  T
0.6666666666666643  0.3333333333333357  0.2196088411025461  T  T  T

0.00000000E+00  0.00000000E+00  0.00000000E+00
0.00000000E+00  0.00000000E+00  0.00000000E+00
0.00000000E+00  0.00000000E+00  0.00000000E+00
0.00000000E+00  0.00000000E+00  0.00000000E+00
0.00000000E+00  0.00000000E+00  0.00000000E+00
