Sc2N  (n=1)
1.00000000000000
3.5665714883985808  0.0000000000000000  0.0000000000000000
-1.7832857441992904  3.0887415137368950  0.0000000000000000
0.0000000000000001  -0.0000000000000002  31.7554342172282986
Sc  N  I
2  1  2
Selective  dynamics
Direct
0.0000000000000000  0.0000000000000000  0.0645185420600829  T  T  T
0.0000000000000000  0.0000000000000000  0.1479565956257171  T  T  T
0.3333333333333357  0.6666666666666643  0.1102192861115441  T  T  T
0.3333333333333357  0.6666666666666643  0.0000000000000000  T  T  T
0.6666666666666643  0.3333333333333357  0.2127331709910384  T  T  T

0.00000000E+00  0.00000000E+00  0.00000000E+00
0.00000000E+00  0.00000000E+00  0.00000000E+00
0.00000000E+00  0.00000000E+00  0.00000000E+00
0.00000000E+00  0.00000000E+00  0.00000000E+00
0.00000000E+00  0.00000000E+00  0.00000000E+00
