Nb2C  (n=1)
1.00000000000000
3.3835480536553280  -0.0000000000000002  0.0000000000000000
-1.6917740268276642  2.9302385695560749  0.0000000000000000
0.0000000000000010  -0.0000000000000001  31.8679325670881965
Nb  C  I
2  1  2
Selective  dynamics
Direct
-0.0000000000000000  -0.0000000000000000  0.0645320963189692  T  T  T
-0.0000000000000000  -0.0000000000000000  0.1501549786974636  T  T  T
0.3333333333333357  0.6666666666666643  0.1045715191330842  T  T  T
0.3333333333333357  0.6666666666666643  0.0000000000000000  T  T  T
0.6666666666666643  0.3333333333333357  0.2155123352489172  T  T  T

0.00000000E+00  0.00000000E+00  0.00000000E+00
0.00000000E+00  0.00000000E+00  0.00000000E+00
0.00000000E+00  0.00000000E+00  0.00000000E+00
0.00000000E+00  0.00000000E+00  0.00000000E+00
0.00000000E+00  0.00000000E+00  0.00000000E+00
