Hf2C  (n=1)
1.00000000000000
3.5258275629475038  0.0000000000000000  0.0000000000000000
-1.7629137814737519  3.0534562390027431  0.0000000000000000
-0.0000000000000001  -0.0000000000000010  31.9555870373258522
Hf  C  I
2  1  2
Selective  dynamics
Direct
-0.0000000000000000  -0.0000000000000000  0.0658700356321972  T  T  T
-0.0000000000000000  0.0000000000000000  0.1514847498177974  T  T  T
0.3333333333333357  0.6666666666666643  0.1115971744367996  T  T  T
0.3333333333333357  0.6666666666666643  0.0000000000000000  T  T  T
0.6666666666666643  0.3333333333333357  0.2176641921552357  T  T  T

0.00000000E+00  0.00000000E+00  0.00000000E+00
0.00000000E+00  0.00000000E+00  0.00000000E+00
0.00000000E+00  0.00000000E+00  0.00000000E+00
0.00000000E+00  0.00000000E+00  0.00000000E+00
0.00000000E+00  0.00000000E+00  0.00000000E+00
