Mo2C  (n=1)
1.00000000000000
3.3096309532488362  0.0000000000000000  0.0000000000000000
-1.6548154766244181  2.8662244827380650  0.0000000000000000
0.0000000000000003  0.0000000000000001  31.7940050278714494
Mo  C  I
2  1  2
Selective  dynamics
Direct
-0.0000000000000000  -0.0000000000000000  0.0674682236150296  T  T  T
-0.0000000000000000  -0.0000000000000000  0.1461155234271377  T  T  T
0.3333333333333357  0.6666666666666643  0.1054352160143777  T  T  T
0.3333333333333357  0.6666666666666643  0.0000000000000000  T  T  T
0.6666666666666643  0.3333333333333357  0.2136882416013851  T  T  T

0.00000000E+00  0.00000000E+00  0.00000000E+00
0.00000000E+00  0.00000000E+00  0.00000000E+00
0.00000000E+00  0.00000000E+00  0.00000000E+00
0.00000000E+00  0.00000000E+00  0.00000000E+00
0.00000000E+00  0.00000000E+00  0.00000000E+00
