Cr3N2  (n=2)
1.00000000000000
2.7838860620727255  0.0000000000000000  0.0000000000000000
-1.3919430310363627  2.4109160510044121  0.0000000000000000
0.0000000000000000  0.0000000000000000  34.3449972502848624
Cr  N  H
3  4  2
Selective  dynamics
Direct
0.0000000000000000  -0.0000000000000000  0.0625400034582373  T  T  T
0.6666666666666643  0.3333333333333357  0.1389160599393837  T  T  T
0.3333333333333357  0.6666666666666643  0.2104049652044893  T  T  T
0.3333333333333357  0.6666666666666643  0.0981984991580165  T  T  T
0.0000000000000000  0.0000000000000000  0.1712774578438841  T  T  T
0.3333333333333357  0.6666666666666643  0.0298665293080131  T  T  T
0.6666666666666643  0.3333333333333357  0.2422015543257139  T  T  T
0.3333333333333357  0.6666666666666643  0.0000000000000000  T  T  T
0.6666666666666643  0.3333333333333357  0.2720919492927708  T  T  T

0.00000000E+00  0.00000000E+00  0.00000000E+00
0.00000000E+00  0.00000000E+00  0.00000000E+00
0.00000000E+00  0.00000000E+00  0.00000000E+00
0.00000000E+00  0.00000000E+00  0.00000000E+00
0.00000000E+00  0.00000000E+00  0.00000000E+00
0.00000000E+00  0.00000000E+00  0.00000000E+00
0.00000000E+00  0.00000000E+00  0.00000000E+00
0.00000000E+00  0.00000000E+00  0.00000000E+00
0.00000000E+00  0.00000000E+00  0.00000000E+00
