Hf3N2  (n=2)
1.00000000000000
3.2141483723329700  0.0000000000000000  0.0000000000000000
-1.6070741861664850  2.7835341420923676  0.0000000000000000
0.0000000000000000  0.0000000000000000  34.6077616706070614
Hf  N  H
3  4  2
Selective  dynamics
Direct
-0.0000000000000000  -0.0000000000000000  0.0629198505735563  T  T  T
0.6666666666666643  0.3333333333333357  0.1387702934168432  T  T  T
0.3333333333333357  0.6666666666666643  0.2158358857939421  T  T  T
0.3333333333333357  0.6666666666666643  0.1033057112455388  T  T  T
-0.0000000000000000  -0.0000000000000000  0.1783448014573222  T  T  T
0.3333333333333357  0.6666666666666643  0.0296223255540751  T  T  T
0.6666666666666643  0.3333333333333357  0.2480481490244590  T  T  T
0.3333333333333357  0.6666666666666643  0.0000000000000000  T  T  T
0.6666666666666643  0.3333333333333357  0.2776186961194630  T  T  T

0.00000000E+00  0.00000000E+00  0.00000000E+00
0.00000000E+00  0.00000000E+00  0.00000000E+00
0.00000000E+00  0.00000000E+00  0.00000000E+00
0.00000000E+00  0.00000000E+00  0.00000000E+00
0.00000000E+00  0.00000000E+00  0.00000000E+00
0.00000000E+00  0.00000000E+00  0.00000000E+00
0.00000000E+00  0.00000000E+00  0.00000000E+00
0.00000000E+00  0.00000000E+00  0.00000000E+00
0.00000000E+00  0.00000000E+00  0.00000000E+00
