Zr3C2  (n=2)
1.00000000000000
3.3308816763243705  0.0000000000000000  0.0000000000000000
-1.6654408381621852  2.8846281488582295  0.0000000000000000
-0.0000000000000001  -0.0000000000000012  34.8482626063997714
Zr  C  N  H
3  2  2  2
Selective  dynamics
Direct
-0.0000000000000000  -0.0000000000000000  0.0620250957535433  T  T  T
0.6666666666666643  0.3333333333333357  0.1421159894067375  T  T  T
0.3333333333333357  0.6666666666666643  0.2217497581036267  T  T  T
0.3333333333333357  0.6666666666666643  0.1039164761290751  T  T  T
-0.0000000000000000  -0.0000000000000000  0.1817985031612442  T  T  T
0.3333333333333357  0.6666666666666643  0.0296221145918583  T  T  T
0.6666666666666643  0.3333333333333357  0.2531616022764465  T  T  T
0.3333333333333357  0.6666666666666643  0.0000000000000000  T  T  T
0.6666666666666643  0.3333333333333357  0.2826041205449127  T  T  T

0.00000000E+00  0.00000000E+00  0.00000000E+00
0.00000000E+00  0.00000000E+00  0.00000000E+00
0.00000000E+00  0.00000000E+00  0.00000000E+00
0.00000000E+00  0.00000000E+00  0.00000000E+00
0.00000000E+00  0.00000000E+00  0.00000000E+00
0.00000000E+00  0.00000000E+00  0.00000000E+00
0.00000000E+00  0.00000000E+00  0.00000000E+00
0.00000000E+00  0.00000000E+00  0.00000000E+00
0.00000000E+00  0.00000000E+00  0.00000000E+00
