Ti3C2  (n=2)
1.00000000000000
3.0484497335238401  0.0000000000000000  0.0000000000000000
-1.5242248667619200  2.6400349114517030  0.0000000000000000
0.0000000000000001  0.0000000000000002  34.3299434619126984
Ti  C  N  H
3  2  2  2
Selective  dynamics
Direct
0.0000000000000000  0.0000000000000000  0.0615275332858115  T  T  T
0.6666666666666643  0.3333333333333357  0.1364148437552175  T  T  T
0.3333333333333357  0.6666666666666643  0.2108740663328297  T  T  T
0.3333333333333357  0.6666666666666643  0.1008894543012974  T  T  T
0.0000000000000000  0.0000000000000000  0.1736449449053026  T  T  T
0.3333333333333357  0.6666666666666643  0.0300437248476426  T  T  T
0.6666666666666643  0.3333333333333357  0.2419505141307668  T  T  T
0.3333333333333357  0.6666666666666643  0.0000000000000000  T  T  T
0.6666666666666643  0.3333333333333357  0.2717727593190997  T  T  T

0.00000000E+00  0.00000000E+00  0.00000000E+00
0.00000000E+00  0.00000000E+00  0.00000000E+00
0.00000000E+00  0.00000000E+00  0.00000000E+00
0.00000000E+00  0.00000000E+00  0.00000000E+00
0.00000000E+00  0.00000000E+00  0.00000000E+00
0.00000000E+00  0.00000000E+00  0.00000000E+00
0.00000000E+00  0.00000000E+00  0.00000000E+00
0.00000000E+00  0.00000000E+00  0.00000000E+00
0.00000000E+00  0.00000000E+00  0.00000000E+00
