Ti3N2  (n=2)
1.00000000000000
2.9862520552591940  0.0000000000000000  0.0000000000000000
-1.4931260276295970  2.5861701419868801  0.0000000000000000
-0.0000000000000001  -0.0000000000000006  34.2677648985130077
Ti  N  H
3  4  2
Selective  dynamics
Direct
-0.0000000000000000  -0.0000000000000000  0.0628946598314376  T  T  T
0.6666666666666643  0.3333333333333357  0.1357741182642551  T  T  T
0.3333333333333357  0.6666666666666643  0.2087143424833337  T  T  T
0.3333333333333357  0.6666666666666643  0.1009154962930446  T  T  T
0.0000000000000000  0.0000000000000000  0.1725733618331151  T  T  T
0.3333333333333357  0.6666666666666643  0.0299334943730350  T  T  T
0.6666666666666643  0.3333333333333357  0.2406329499406242  T  T  T
0.3333333333333357  0.6666666666666643  0.0000000000000000  T  T  T
0.6666666666666643  0.3333333333333357  0.2704513972813898  T  T  T

0.00000000E+00  0.00000000E+00  0.00000000E+00
0.00000000E+00  0.00000000E+00  0.00000000E+00
0.00000000E+00  0.00000000E+00  0.00000000E+00
0.00000000E+00  0.00000000E+00  0.00000000E+00
0.00000000E+00  0.00000000E+00  0.00000000E+00
0.00000000E+00  0.00000000E+00  0.00000000E+00
0.00000000E+00  0.00000000E+00  0.00000000E+00
0.00000000E+00  0.00000000E+00  0.00000000E+00
0.00000000E+00  0.00000000E+00  0.00000000E+00
