Ta3C2  (n=2)
1.00000000000000
3.1145065784128079  0.0000000000000000  0.0000000000000000
-1.5572532892064039  2.6972418172467698  0.0000000000000000
0.0000000000000000  0.0000000000000001  34.6854730545931744
Ta  C  N  H
3  2  2  2
Selective  dynamics
Direct
-0.0000000000000000  -0.0000000000000000  0.0650759498640732  T  T  T
0.6666666666666643  0.3333333333333357  0.1408148643711623  T  T  T
0.3333333333333357  0.6666666666666643  0.2153531554178778  T  T  T
0.3333333333333357  0.6666666666666643  0.1029271893691928  T  T  T
-0.0000000000000000  -0.0000000000000000  0.1785162630155875  T  T  T
0.3333333333333357  0.6666666666666643  0.0295548168430705  T  T  T
0.6666666666666643  0.3333333333333357  0.2497334066232731  T  T  T
0.3333333333333357  0.6666666666666643  0.0000000000000000  T  T  T
0.6666666666666643  0.3333333333333357  0.2792371618904759  T  T  T

0.00000000E+00  0.00000000E+00  0.00000000E+00
0.00000000E+00  0.00000000E+00  0.00000000E+00
0.00000000E+00  0.00000000E+00  0.00000000E+00
0.00000000E+00  0.00000000E+00  0.00000000E+00
0.00000000E+00  0.00000000E+00  0.00000000E+00
0.00000000E+00  0.00000000E+00  0.00000000E+00
0.00000000E+00  0.00000000E+00  0.00000000E+00
0.00000000E+00  0.00000000E+00  0.00000000E+00
0.00000000E+00  0.00000000E+00  0.00000000E+00
