Nb3C2  (n=2)
1.00000000000000
3.1341587364065848  0.0000000000000000  0.0000000000000000
-1.5670793682032924  2.7142610853350004  -0.0000000000000001
0.0000000000000001  0.0000000000000002  34.7384197635617298
Nb  C  N  H
3  2  2  2
Selective  dynamics
Direct
-0.0000000000000000  -0.0000000000000000  0.0651667721794659  T  T  T
0.6666666666666643  0.3333333333333357  0.1412301472553582  T  T  T
0.3333333333333357  0.6666666666666643  0.2161981704238432  T  T  T
0.3333333333333357  0.6666666666666643  0.1029536762490586  T  T  T
-0.0000000000000000  -0.0000000000000000  0.1789420985996277  T  T  T
0.3333333333333357  0.6666666666666643  0.0295144063603055  T  T  T
0.6666666666666643  0.3333333333333357  0.2508761963901324  T  T  T
0.3333333333333357  0.6666666666666643  0.0000000000000000  T  T  T
0.6666666666666643  0.3333333333333357  0.2803357156095131  T  T  T

0.00000000E+00  0.00000000E+00  0.00000000E+00
0.00000000E+00  0.00000000E+00  0.00000000E+00
0.00000000E+00  0.00000000E+00  0.00000000E+00
0.00000000E+00  0.00000000E+00  0.00000000E+00
0.00000000E+00  0.00000000E+00  0.00000000E+00
0.00000000E+00  0.00000000E+00  0.00000000E+00
0.00000000E+00  0.00000000E+00  0.00000000E+00
0.00000000E+00  0.00000000E+00  0.00000000E+00
0.00000000E+00  0.00000000E+00  0.00000000E+00
