Sc3C2  (n=2)
1.00000000000000
3.3321649938314106  0.0000000000000000  0.0000000000000000
-1.6660824969157053  2.8857395344397307  0.0000000000000000
-0.0000000000000001  0.0000000000000004  34.5447700783098313
Sc  C  N  H
3  2  2  2
Selective  dynamics
Direct
-0.0000000000000000  -0.0000000000000000  0.0562082570768394  T  T  T
0.6666666666666643  0.3333333333333357  0.1386819659036634  T  T  T
0.3333333333333357  0.6666666666666643  0.2203328892288184  T  T  T
0.3333333333333357  0.6666666666666643  0.1045327905638927  T  T  T
-0.0000000000000000  -0.0000000000000000  0.1742404327814802  T  T  T
0.3333333333333357  0.6666666666666643  0.0299045136775346  T  T  T
0.6666666666666643  0.3333333333333357  0.2464531908000509  T  T  T
0.3333333333333357  0.6666666666666643  0.0000000000000000  T  T  T
0.6666666666666643  0.3333333333333357  0.2763014504561099  T  T  T

0.00000000E+00  0.00000000E+00  0.00000000E+00
0.00000000E+00  0.00000000E+00  0.00000000E+00
0.00000000E+00  0.00000000E+00  0.00000000E+00
0.00000000E+00  0.00000000E+00  0.00000000E+00
0.00000000E+00  0.00000000E+00  0.00000000E+00
0.00000000E+00  0.00000000E+00  0.00000000E+00
0.00000000E+00  0.00000000E+00  0.00000000E+00
0.00000000E+00  0.00000000E+00  0.00000000E+00
0.00000000E+00  0.00000000E+00  0.00000000E+00
