Cr3C2  (n=2)
1.00000000000000
2.7945914481898666  0.0000000000000000  0.0000000000000000
-1.3972957240949333  2.4201871873351752  -0.0000000000000001
0.0000000000000000  0.0000000000000000  34.2040309018479647
Cr  C  N  H
3  2  2  2
Selective  dynamics
Direct
0.0000000000000000  0.0000000000000000  0.0630817476015020  T  T  T
0.6666666666666643  0.3333333333333357  0.1352172309789572  T  T  T
0.3333333333333357  0.6666666666666643  0.2066424640227031  T  T  T
0.3333333333333357  0.6666666666666643  0.0983191365269372  T  T  T
-0.0000000000000000  0.0000000000000000  0.1699474412099990  T  T  T
0.3333333333333357  0.6666666666666643  0.0300272504183833  T  T  T
0.6666666666666643  0.3333333333333357  0.2391268889761988  T  T  T
0.3333333333333357  0.6666666666666643  0.0000000000000000  T  T  T
0.6666666666666643  0.3333333333333357  0.2690919946909149  T  T  T

0.00000000E+00  0.00000000E+00  0.00000000E+00
0.00000000E+00  0.00000000E+00  0.00000000E+00
0.00000000E+00  0.00000000E+00  0.00000000E+00
0.00000000E+00  0.00000000E+00  0.00000000E+00
0.00000000E+00  0.00000000E+00  0.00000000E+00
0.00000000E+00  0.00000000E+00  0.00000000E+00
0.00000000E+00  0.00000000E+00  0.00000000E+00
0.00000000E+00  0.00000000E+00  0.00000000E+00
0.00000000E+00  0.00000000E+00  0.00000000E+00
