Nb3N2  (n=2)
1.00000000000000
3.1045492009709066  0.0000000000000000  0.0000000000000000
-1.5522746004854533  2.6886184754176452  0.0000000000000000
0.0000000000000000  0.0000000000000001  34.6425792544347928
Nb  N  H
3  4  2
Selective  dynamics
Direct
-0.0000000000000000  -0.0000000000000000  0.0647433102357544  T  T  T
0.6666666666666643  0.3333333333333357  0.1427934992936485  T  T  T
0.3333333333333357  0.6666666666666643  0.2140001819530923  T  T  T
0.3333333333333357  0.6666666666666643  0.1029658866685133  T  T  T
-0.0000000000000000  0.0000000000000000  0.1772522454191636  T  T  T
0.3333333333333357  0.6666666666666643  0.0295465643779159  T  T  T
0.6666666666666643  0.3333333333333357  0.2487953924155378  T  T  T
0.3333333333333357  0.6666666666666643  0.0000000000000000  T  T  T
0.6666666666666643  0.3333333333333357  0.2783447266906487  T  T  T

0.00000000E+00  0.00000000E+00  0.00000000E+00
0.00000000E+00  0.00000000E+00  0.00000000E+00
0.00000000E+00  0.00000000E+00  0.00000000E+00
0.00000000E+00  0.00000000E+00  0.00000000E+00
0.00000000E+00  0.00000000E+00  0.00000000E+00
0.00000000E+00  0.00000000E+00  0.00000000E+00
0.00000000E+00  0.00000000E+00  0.00000000E+00
0.00000000E+00  0.00000000E+00  0.00000000E+00
0.00000000E+00  0.00000000E+00  0.00000000E+00
