Zr3N2  (n=2)
1.00000000000000
3.2667396953602941  0.0000000000000000  0.0000000000000000
-1.6333698476801470  2.8290795638744273  0.0000000000000000
0.0000000000000000  0.0000000000000000  34.7368063794623012
Zr  N  H
3  4  2
Selective  dynamics
Direct
0.0000000000000000  0.0000000000000000  0.0632287781947358  T  T  T
0.6666666666666643  0.3333333333333357  0.1401441369780763  T  T  T
0.3333333333333357  0.6666666666666643  0.2181132678889305  T  T  T
0.3333333333333357  0.6666666666666643  0.1037662288026108  T  T  T
0.0000000000000000  0.0000000000000000  0.1801368771738752  T  T  T
0.3333333333333357  0.6666666666666643  0.0295445599394723  T  T  T
0.6666666666666643  0.3333333333333357  0.2508162277933242  T  T  T
0.3333333333333357  0.6666666666666643  0.0000000000000000  T  T  T
0.6666666666666643  0.3333333333333357  0.2803022901155089  T  T  T

0.00000000E+00  0.00000000E+00  0.00000000E+00
0.00000000E+00  0.00000000E+00  0.00000000E+00
0.00000000E+00  0.00000000E+00  0.00000000E+00
0.00000000E+00  0.00000000E+00  0.00000000E+00
0.00000000E+00  0.00000000E+00  0.00000000E+00
0.00000000E+00  0.00000000E+00  0.00000000E+00
0.00000000E+00  0.00000000E+00  0.00000000E+00
0.00000000E+00  0.00000000E+00  0.00000000E+00
0.00000000E+00  0.00000000E+00  0.00000000E+00
