Mo3C2  (n=2)
1.00000000000000
3.0302613267810745  0.0000000000000000  0.0000000000000000
-1.5151306633905373  2.6242832891497496  0.0000000000000000
0.0000000000000000  0.0000000000000003  34.5955169772221964
Mo  C  N  H
3  2  2  2
Selective  dynamics
Direct
0.0000000000000000  0.0000000000000000  0.0646751581709295  T  T  T
0.6666666666666643  0.3333333333333357  0.1422325840978648  T  T  T
0.3333333333333357  0.6666666666666643  0.2122361997239466  T  T  T
0.3333333333333357  0.6666666666666643  0.1013183279979082  T  T  T
0.0000000000000000  0.0000000000000000  0.1755281715507488  T  T  T
0.3333333333333357  0.6666666666666643  0.0296200026800806  T  T  T
0.6666666666666643  0.3333333333333357  0.2476896661041351  T  T  T
0.3333333333333357  0.6666666666666643  0.0000000000000000  T  T  T
0.6666666666666643  0.3333333333333357  0.2773630173973095  T  T  T

0.00000000E+00  0.00000000E+00  0.00000000E+00
0.00000000E+00  0.00000000E+00  0.00000000E+00
0.00000000E+00  0.00000000E+00  0.00000000E+00
0.00000000E+00  0.00000000E+00  0.00000000E+00
0.00000000E+00  0.00000000E+00  0.00000000E+00
0.00000000E+00  0.00000000E+00  0.00000000E+00
0.00000000E+00  0.00000000E+00  0.00000000E+00
0.00000000E+00  0.00000000E+00  0.00000000E+00
0.00000000E+00  0.00000000E+00  0.00000000E+00
