Hf3C2  (n=2)
1.00000000000000
3.2773619816739412  0.0000000000000000  0.0000000000000000
-1.6386809908369706  2.8382787336647191  0.0000000000000000
0.0000000000000000  -0.0000000000000010  34.7390046669463430
Hf  C  N  H
3  2  2  2
Selective  dynamics
Direct
-0.0000000000000000  -0.0000000000000000  0.0620366913790426  T  T  T
0.6666666666666643  0.3333333333333357  0.1411045505815278  T  T  T
0.3333333333333357  0.6666666666666643  0.2197287963328763  T  T  T
0.3333333333333357  0.6666666666666643  0.1033691766148503  T  T  T
-0.0000000000000000  -0.0000000000000000  0.1803266019496666  T  T  T
0.3333333333333357  0.6666666666666643  0.0297152828797349  T  T  T
0.6666666666666643  0.3333333333333357  0.2508454668508285  T  T  T
0.3333333333333357  0.6666666666666643  0.0000000000000000  T  T  T
0.6666666666666643  0.3333333333333357  0.2803478326543092  T  T  T

0.00000000E+00  0.00000000E+00  0.00000000E+00
0.00000000E+00  0.00000000E+00  0.00000000E+00
0.00000000E+00  0.00000000E+00  0.00000000E+00
0.00000000E+00  0.00000000E+00  0.00000000E+00
0.00000000E+00  0.00000000E+00  0.00000000E+00
0.00000000E+00  0.00000000E+00  0.00000000E+00
0.00000000E+00  0.00000000E+00  0.00000000E+00
0.00000000E+00  0.00000000E+00  0.00000000E+00
0.00000000E+00  0.00000000E+00  0.00000000E+00
