Sc3N2  (n=2)
1.00000000000000
3.2111150552453274  0.0000000000000000  0.0000000000000000
-1.6055575276226637  2.7809072124281018  0.0000000000000000
0.0000000000000000  0.0000000000000000  34.6059913415718086
Sc  N  H
3  4  2
Selective  dynamics
Direct
-0.0000000000000000  0.0000000000000000  0.0589376095402456  T  T  T
0.6666666666666643  0.3333333333333357  0.1389059323209930  T  T  T
0.3333333333333357  0.6666666666666643  0.2174870867401598  T  T  T
0.3333333333333357  0.6666666666666643  0.1049796092799582  T  T  T
-0.0000000000000000  0.0000000000000000  0.1773260620754158  T  T  T
0.3333333333333357  0.6666666666666643  0.0297369807485917  T  T  T
0.6666666666666643  0.3333333333333357  0.2479237648828174  T  T  T
0.3333333333333357  0.6666666666666643  0.0000000000000000  T  T  T
0.6666666666666643  0.3333333333333357  0.2775817414608271  T  T  T

0.00000000E+00  0.00000000E+00  0.00000000E+00
0.00000000E+00  0.00000000E+00  0.00000000E+00
0.00000000E+00  0.00000000E+00  0.00000000E+00
0.00000000E+00  0.00000000E+00  0.00000000E+00
0.00000000E+00  0.00000000E+00  0.00000000E+00
0.00000000E+00  0.00000000E+00  0.00000000E+00
0.00000000E+00  0.00000000E+00  0.00000000E+00
0.00000000E+00  0.00000000E+00  0.00000000E+00
0.00000000E+00  0.00000000E+00  0.00000000E+00
