Ta3N2  (n=2)
1.00000000000000
3.0877046719972685  0.0000000000000000  0.0000000000000000
-1.5438523359986343  2.6740306854015028  0.0000000000000000
0.0000000000000000  0.0000000000000000  34.5840996157478173
Ta  N  H
3  4  2
Selective  dynamics
Direct
-0.0000000000000000  -0.0000000000000000  0.0644737022588544  T  T  T
0.6666666666666643  0.3333333333333357  0.1423117540143270  T  T  T
0.3333333333333357  0.6666666666666643  0.2130890825431929  T  T  T
0.3333333333333357  0.6666666666666643  0.1033109217504154  T  T  T
-0.0000000000000000  -0.0000000000000000  0.1767582364757506  T  T  T
0.3333333333333357  0.6666666666666643  0.0295719652333812  T  T  T
0.6666666666666643  0.3333333333333357  0.2474951664788624  T  T  T
0.3333333333333357  0.6666666666666643  0.0000000000000000  T  T  T
0.6666666666666643  0.3333333333333357  0.2771244508960330  T  T  T

0.00000000E+00  0.00000000E+00  0.00000000E+00
0.00000000E+00  0.00000000E+00  0.00000000E+00
0.00000000E+00  0.00000000E+00  0.00000000E+00
0.00000000E+00  0.00000000E+00  0.00000000E+00
0.00000000E+00  0.00000000E+00  0.00000000E+00
0.00000000E+00  0.00000000E+00  0.00000000E+00
0.00000000E+00  0.00000000E+00  0.00000000E+00
0.00000000E+00  0.00000000E+00  0.00000000E+00
0.00000000E+00  0.00000000E+00  0.00000000E+00
