Mo3N2  (n=2)
1.00000000000000
2.8639438529149195  0.0000000000000000  0.0000000000000000
-1.4319719264574597  2.4802481316785512  0.0000000000000000
0.0000000000000000  0.0000000000000007  35.3914793748756580
Mo  N  H
3  4  2
Selective  dynamics
Direct
0.0000000000000000  -0.0000000000000000  0.0640250916137820  T  T  T
0.6666666666666643  0.3333333333333357  0.1473563442512603  T  T  T
0.3333333333333357  0.6666666666666643  0.2290864708888405  T  T  T
0.3333333333333357  0.6666666666666643  0.1015415458849808  T  T  T
0.0000000000000000  -0.0000000000000000  0.1848345055088573  T  T  T
0.3333333333333357  0.6666666666666643  0.0288687877445944  T  T  T
0.6666666666666643  0.3333333333333357  0.2646028431303407  T  T  T
0.3333333333333357  0.6666666666666643  0.0000000000000000  T  T  T
0.6666666666666643  0.3333333333333357  0.2936152870244964  T  T  T

0.00000000E+00  0.00000000E+00  0.00000000E+00
0.00000000E+00  0.00000000E+00  0.00000000E+00
0.00000000E+00  0.00000000E+00  0.00000000E+00
0.00000000E+00  0.00000000E+00  0.00000000E+00
0.00000000E+00  0.00000000E+00  0.00000000E+00
0.00000000E+00  0.00000000E+00  0.00000000E+00
0.00000000E+00  0.00000000E+00  0.00000000E+00
0.00000000E+00  0.00000000E+00  0.00000000E+00
0.00000000E+00  0.00000000E+00  0.00000000E+00
