Nb2N  (n=1)
1.00000000000000
3.1484526787263696  0.0000000000000000  -0.0000000000000000
-1.5742263393631850  2.7266400027083439  0.0000000000000000
-0.0000000000000000  -0.0000000000000000  31.1219192474497390
Nb  N  S
2  1  2
Selective  dynamics
Direct
0.0000000000000000  -0.0000000000000000  0.0526778020519383  T  T  T
0.0000000000000000  0.0000000000000000  0.1440298366632221  T  T  T
0.3333333333333357  0.6666666666666643  0.0983538193575836  T  T  T
0.3333333333333357  0.6666666666666643  0.0000000000000000  T  T  T
0.3333333333333357  0.6666666666666643  0.1967076387151604  T  T  T

0.00000000E+00  0.00000000E+00  0.00000000E+00
0.00000000E+00  0.00000000E+00  0.00000000E+00
0.00000000E+00  0.00000000E+00  0.00000000E+00
0.00000000E+00  0.00000000E+00  0.00000000E+00
0.00000000E+00  0.00000000E+00  0.00000000E+00
