Cr2N  (n=1)
1.00000000000000
2.8730924246435792  0.0000000000000001  0.0000000000000000
-1.4365462123217896  2.4881710273840678  0.0000000000000000
0.0000000000000000  0.0000000000000000  30.5385887008316814
Cr  N  S
2  1  2
Selective  dynamics
Direct
0.0000000000000000  0.0000000000000000  0.0495838115117451  T  T  T
0.0000000000000000  0.0000000000000000  0.1317797988073147  T  T  T
0.3333333333333357  0.6666666666666643  0.0906818051595299  T  T  T
0.3333333333333357  0.6666666666666643  0.0000000000000000  T  T  T
0.3333333333333357  0.6666666666666643  0.1813636103190599  T  T  T

0.00000000E+00  0.00000000E+00  0.00000000E+00
0.00000000E+00  0.00000000E+00  0.00000000E+00
0.00000000E+00  0.00000000E+00  0.00000000E+00
0.00000000E+00  0.00000000E+00  0.00000000E+00
0.00000000E+00  0.00000000E+00  0.00000000E+00
