Hf2N  (n=1)
1.00000000000000
3.3227313342081253  0.0000000000000000  0.0000000000000000
-1.6613656671040626  2.8775697458725005  0.0000000000000000
0.0000000000000000  0.0000000000000000  31.0993188057911993
Hf  N  S
2  1  2
Selective  dynamics
Direct
0.0000000000000000  -0.0000000000000000  0.0513379963742775  T  T  T
0.0000000000000000  -0.0000000000000000  0.1447858751445870  T  T  T
0.3333333333333357  0.6666666666666643  0.0980619357594289  T  T  T
0.3333333333333357  0.6666666666666643  0.0000000000000000  T  T  T
0.3333333333333357  0.6666666666666643  0.1961238715188645  T  T  T

0.00000000E+00  0.00000000E+00  0.00000000E+00
0.00000000E+00  0.00000000E+00  0.00000000E+00
0.00000000E+00  0.00000000E+00  0.00000000E+00
0.00000000E+00  0.00000000E+00  0.00000000E+00
0.00000000E+00  0.00000000E+00  0.00000000E+00
