Ti2N  (n=1)
1.00000000000000
3.1221656060459417  0.0000000000000001  0.0000000000000000
-1.5610828030229709  2.7038747298711638  0.0000000000000000
0.0000000000000000  0.0000000000000000  30.7958251587314535
Ti  N  S
2  1  2
Selective  dynamics
Direct
0.0000000000000000  0.0000000000000000  0.0507738740780784  T  T  T
0.0000000000000000  0.0000000000000000  0.1374277775697713  T  T  T
0.3333333333333357  0.6666666666666643  0.0941008258239249  T  T  T
0.3333333333333357  0.6666666666666643  0.0000000000000000  T  T  T
0.3333333333333357  0.6666666666666643  0.1882016516478429  T  T  T

0.00000000E+00  0.00000000E+00  0.00000000E+00
0.00000000E+00  0.00000000E+00  0.00000000E+00
0.00000000E+00  0.00000000E+00  0.00000000E+00
0.00000000E+00  0.00000000E+00  0.00000000E+00
0.00000000E+00  0.00000000E+00  0.00000000E+00
