Hf2C  (n=1)
1.00000000000000
3.3766843329294640  0.0000000000000000  0.0000000000000000
-1.6883421664647320  2.9242944134874636  0.0000000000000000
0.0000000000000000  0.0000000000000000  31.1573228340645869
Hf  C  S
2  1  2
Selective  dynamics
Direct
0.0000000000000000  0.0000000000000000  0.0511122035583650  T  T  T
0.0000000000000000  0.0000000000000000  0.1465082039091448  T  T  T
0.3333333333333357  0.6666666666666643  0.0988102037337584  T  T  T
0.3333333333333357  0.6666666666666643  0.0000000000000000  T  T  T
0.3333333333333357  0.6666666666666643  0.1976204074675097  T  T  T

0.00000000E+00  0.00000000E+00  0.00000000E+00
0.00000000E+00  0.00000000E+00  0.00000000E+00
0.00000000E+00  0.00000000E+00  0.00000000E+00
0.00000000E+00  0.00000000E+00  0.00000000E+00
0.00000000E+00  0.00000000E+00  0.00000000E+00
