Zr2C  (n=1)
1.00000000000000
3.4273508740559300  0.0000000000000000  -0.0000000000000000
-1.7136754370279650  2.9681729253321461  0.0000000000000000
-0.0000000000000000  0.0000000000000000  31.2222884137106540
Zr  C  S
2  1  2
Selective  dynamics
Direct
0.0000000000000000  -0.0000000000000000  0.0511575585647353  T  T  T
0.0000000000000000  -0.0000000000000000  0.1481323951779973  T  T  T
0.3333333333333357  0.6666666666666643  0.0996449768713663  T  T  T
0.3333333333333357  0.6666666666666643  0.0000000000000000  T  T  T
0.3333333333333357  0.6666666666666643  0.1992899537427327  T  T  T

0.00000000E+00  0.00000000E+00  0.00000000E+00
0.00000000E+00  0.00000000E+00  0.00000000E+00
0.00000000E+00  0.00000000E+00  0.00000000E+00
0.00000000E+00  0.00000000E+00  0.00000000E+00
0.00000000E+00  0.00000000E+00  0.00000000E+00
