Nb2C  (n=1)
1.00000000000000
3.2044202227715899  0.0000000000000000  0.0000000000000000
-1.6022101113857949  2.7751093176851063  -0.0000000000000000
-0.0000000000000000  -0.0000000000000000  31.1031397860724859
Nb  C  S
2  1  2
Selective  dynamics
Direct
-0.0000000000000000  -0.0000000000000000  0.0528630512138748  T  T  T
-0.0000000000000000  0.0000000000000000  0.1433595754421447  T  T  T
0.3333333333333357  0.6666666666666643  0.0981113133280098  T  T  T
0.3333333333333357  0.6666666666666643  0.0000000000000000  T  T  T
0.3333333333333357  0.6666666666666643  0.1962226266560194  T  T  T

0.00000000E+00  0.00000000E+00  0.00000000E+00
0.00000000E+00  0.00000000E+00  0.00000000E+00
0.00000000E+00  0.00000000E+00  0.00000000E+00
0.00000000E+00  0.00000000E+00  0.00000000E+00
0.00000000E+00  0.00000000E+00  0.00000000E+00
