Mo2C  (n=1)
1.00000000000000
3.0549442899411177  -0.0000000000000006  0.0000000000000000
-1.5274721449705597  2.6456593624129807  0.0000000000000000
0.0000000000000000  0.0000000000000000  31.0112926433775868
Mo  C  S
2  1  2
Selective  dynamics
Direct
-0.0000000000000000  0.0000000000000000  0.0522229470077654  T  T  T
-0.0000000000000000  0.0000000000000000  0.1416191063534409  T  T  T
0.3333333333333357  0.6666666666666643  0.0969210266806032  T  T  T
0.3333333333333357  0.6666666666666643  0.0000000000000000  T  T  T
0.3333333333333357  0.6666666666666643  0.1938420533612064  T  T  T

0.00000000E+00  0.00000000E+00  0.00000000E+00
0.00000000E+00  0.00000000E+00  0.00000000E+00
0.00000000E+00  0.00000000E+00  0.00000000E+00
0.00000000E+00  0.00000000E+00  0.00000000E+00
0.00000000E+00  0.00000000E+00  0.00000000E+00
