Ta2N  (n=1)
1.00000000000000
3.1313820114914837  -0.0000000000000000  0.0000000000000000
-1.5656910057457418  2.7118563711811001  -0.0000000000000000
-0.0000000000000000  0.0000000000000000  31.1123019601478248
Ta  N  S
2  1  2
Selective  dynamics
Direct
-0.0000000000000000  -0.0000000000000000  0.0525362465267789  T  T  T
-0.0000000000000000  -0.0000000000000000  0.1439230822614658  T  T  T
0.3333333333333357  0.6666666666666643  0.0982296643941223  T  T  T
0.3333333333333357  0.6666666666666643  0.0000000000000000  T  T  T
0.3333333333333357  0.6666666666666643  0.1964593287882445  T  T  T

0.00000000E+00  0.00000000E+00  0.00000000E+00
0.00000000E+00  0.00000000E+00  0.00000000E+00
0.00000000E+00  0.00000000E+00  0.00000000E+00
0.00000000E+00  0.00000000E+00  0.00000000E+00
0.00000000E+00  0.00000000E+00  0.00000000E+00
