Cr2C  (n=1)
1.00000000000000
2.8789269669866351  0.0000000000000003  0.0000000000000000
-1.4394634834933175  2.4932238892178056  0.0000000000000000
-0.0000000000000000  0.0000000000000000  30.5927860719023705
Cr  C  S
2  1  2
Selective  dynamics
Direct
-0.0000000000000000  -0.0000000000000000  0.0500204061532980  T  T  T
-0.0000000000000000  -0.0000000000000000  0.1327934787526930  T  T  T
0.3333333333333357  0.6666666666666643  0.0914069424529955  T  T  T
0.3333333333333357  0.6666666666666643  0.0000000000000000  T  T  T
0.3333333333333357  0.6666666666666643  0.1828138849059912  T  T  T

0.00000000E+00  0.00000000E+00  0.00000000E+00
0.00000000E+00  0.00000000E+00  0.00000000E+00
0.00000000E+00  0.00000000E+00  0.00000000E+00
0.00000000E+00  0.00000000E+00  0.00000000E+00
0.00000000E+00  0.00000000E+00  0.00000000E+00
