Ta2C  (n=1)
1.00000000000000
3.1915257253358638  -0.0000000000000027  0.0000000000000000
-1.5957628626679334  2.7639423552607814  -0.0000000000000000
-0.0000000000000000  0.0000000000000000  31.0800238555504649
Ta  C  S
2  1  2
Selective  dynamics
Direct
0.0000000000000000  0.0000000000000000  0.0527530560550859  T  T  T
0.0000000000000000  0.0000000000000000  0.1428717569697811  T  T  T
0.3333333333333357  0.6666666666666643  0.0978124065124335  T  T  T
0.3333333333333357  0.6666666666666643  0.0000000000000000  T  T  T
0.3333333333333357  0.6666666666666643  0.1956248130248670  T  T  T

0.00000000E+00  0.00000000E+00  0.00000000E+00
0.00000000E+00  0.00000000E+00  0.00000000E+00
0.00000000E+00  0.00000000E+00  0.00000000E+00
0.00000000E+00  0.00000000E+00  0.00000000E+00
0.00000000E+00  0.00000000E+00  0.00000000E+00
