Zr2N  (n=1)
1.00000000000000
3.3638314642580101  0.0000000000000000  0.0000000000000000
-1.6819157321290050  2.9131635026779028  0.0000000000000000
0.0000000000000000  0.0000000000000000  31.1800993363381380
Zr  N  S
2  1  2
Selective  dynamics
Direct
-0.0000000000000000  -0.0000000000000000  0.0520004020272944  T  T  T
-0.0000000000000000  -0.0000000000000000  0.1462061293141783  T  T  T
0.3333333333333357  0.6666666666666643  0.0991032656707397  T  T  T
0.3333333333333357  0.6666666666666643  0.0000000000000000  T  T  T
0.3333333333333357  0.6666666666666643  0.1982065313414727  T  T  T

0.00000000E+00  0.00000000E+00  0.00000000E+00
0.00000000E+00  0.00000000E+00  0.00000000E+00
0.00000000E+00  0.00000000E+00  0.00000000E+00
0.00000000E+00  0.00000000E+00  0.00000000E+00
0.00000000E+00  0.00000000E+00  0.00000000E+00
