Ti2C  (n=1)
1.00000000000000
3.1852471646949900  -0.0000000000000000  -0.0000000000000000
-1.5926235823474950  2.7585049622303131  0.0000000000000000
0.0000000000000000  -0.0000000000000000  30.8358848331744078
Ti  C  S
2  1  2
Selective  dynamics
Direct
-0.0000000000000000  0.0000000000000000  0.0498255879079245  T  T  T
-0.0000000000000000  0.0000000000000000  0.1394306914155714  T  T  T
0.3333333333333357  0.6666666666666643  0.0946281396617442  T  T  T
0.3333333333333357  0.6666666666666643  0.0000000000000000  T  T  T
0.3333333333333357  0.6666666666666643  0.1892562793234959  T  T  T

0.00000000E+00  0.00000000E+00  0.00000000E+00
0.00000000E+00  0.00000000E+00  0.00000000E+00
0.00000000E+00  0.00000000E+00  0.00000000E+00
0.00000000E+00  0.00000000E+00  0.00000000E+00
0.00000000E+00  0.00000000E+00  0.00000000E+00
