Sc2N  (n=1)
1.00000000000000
3.2428476051496022  -0.0000000000000001  0.0000000000000000
-1.6214238025748016  2.8083884070530516  -0.0000000000000000
0.0000000000000000  0.0000000000000000  31.3235831527041917
Sc  N  S
2  1  2
Selective  dynamics
Direct
-0.0000000000000000  0.0000000000000000  0.0560278252346936  T  T  T
-0.0000000000000000  0.0000000000000000  0.1458514783518844  T  T  T
0.3333333333333357  0.6666666666666643  0.1009396517932852  T  T  T
0.3333333333333357  0.6666666666666643  0.0000000000000000  T  T  T
0.3333333333333357  0.6666666666666643  0.2018793035865780  T  T  T

0.00000000E+00  0.00000000E+00  0.00000000E+00
0.00000000E+00  0.00000000E+00  0.00000000E+00
0.00000000E+00  0.00000000E+00  0.00000000E+00
0.00000000E+00  0.00000000E+00  0.00000000E+00
0.00000000E+00  0.00000000E+00  0.00000000E+00
