Sc2C  (n=1)
1.00000000000000
3.6923611482381533  0.0000000000000003  0.0000000000000000
-1.8461805741190767  3.1976785549212496  -0.0000000000000000
0.0000000000000000  0.0000000000000000  30.1689099296577794
Sc  C  S
2  1  2
Selective  dynamics
Direct
0.0000000000000000  -0.0000000000000000  0.0405674562016407  T  T  T
-0.0000000000000000  -0.0000000000000000  0.1307648836710916  T  T  T
0.3333333333333357  0.6666666666666643  0.0856661699363630  T  T  T
0.3333333333333357  0.6666666666666643  0.0000000000000000  T  T  T
0.3333333333333357  0.6666666666666643  0.1713323398727258  T  T  T

0.00000000E+00  0.00000000E+00  0.00000000E+00
0.00000000E+00  0.00000000E+00  0.00000000E+00
0.00000000E+00  0.00000000E+00  0.00000000E+00
0.00000000E+00  0.00000000E+00  0.00000000E+00
0.00000000E+00  0.00000000E+00  0.00000000E+00
