Mo2N  (n=1)
1.00000000000000
3.0540716347391470  -0.0000000000000000  0.0000000000000000
-1.5270358173695735  2.6449036207920615  0.0000000000000000
0.0000000000000000  -0.0000000000000000  30.9559628588962958
Mo  N  S
2  1  2
Selective  dynamics
Direct
-0.0000000000000000  -0.0000000000000000  0.0512932899321992  T  T  T
-0.0000000000000000  0.0000000000000000  0.1411078602450642  T  T  T
0.3333333333333357  0.6666666666666643  0.0962005750886351  T  T  T
0.3333333333333357  0.6666666666666643  0.0000000000000000  T  T  T
0.3333333333333357  0.6666666666666643  0.1924011501772634  T  T  T

0.00000000E+00  0.00000000E+00  0.00000000E+00
0.00000000E+00  0.00000000E+00  0.00000000E+00
0.00000000E+00  0.00000000E+00  0.00000000E+00
0.00000000E+00  0.00000000E+00  0.00000000E+00
0.00000000E+00  0.00000000E+00  0.00000000E+00
