Zr2C  (n=1)
1.00000000000000
3.2011805286256458  0.0000000000000000  0.0000000000000000
-1.6005902643128229  2.7723036600140110  0.0000000000000000
0.0000000000000001  0.0000000000000002  30.5659992202931221
Zr  C  F
2  1  2
Selective  dynamics
Direct
-0.0000000000000000  0.0000000000000000  0.0454330747034373  T  T  T
-0.0000000000000000  0.0000000000000000  0.1380978333265234  T  T  T
0.3333333333333357  0.6666666666666643  0.0931686150831308  T  T  T
0.3333333333333357  0.6666666666666643  0.0000000000000000  T  T  T
0.6666666666666643  0.3333333333333357  0.1820977348124053  T  T  T

0.00000000E+00  0.00000000E+00  0.00000000E+00
0.00000000E+00  0.00000000E+00  0.00000000E+00
0.00000000E+00  0.00000000E+00  0.00000000E+00
0.00000000E+00  0.00000000E+00  0.00000000E+00
0.00000000E+00  0.00000000E+00  0.00000000E+00
