Sc2N  (n=1)
1.00000000000000
3.0960288440990187  0.0000000000000000  0.0000000000000000
-1.5480144220495093  2.6812396299187840  0.0000000000000000
0.0000000000000000  0.0000000000000000  30.1980935890609956
Sc  N  F
2  1  2
Selective  dynamics
Direct
0.0000000000000000  0.0000000000000000  0.0418394505541996  T  T  T
0.0000000000000000  0.0000000000000000  0.1319465507562641  T  T  T
0.3333333333333357  0.6666666666666643  0.0906673858429315  T  T  T
0.3333333333333357  0.6666666666666643  0.0000000000000000  T  T  T
0.6666666666666643  0.3333333333333357  0.1721331703847676  T  T  T

0.00000000E+00  0.00000000E+00  0.00000000E+00
0.00000000E+00  0.00000000E+00  0.00000000E+00
0.00000000E+00  0.00000000E+00  0.00000000E+00
0.00000000E+00  0.00000000E+00  0.00000000E+00
0.00000000E+00  0.00000000E+00  0.00000000E+00
