Ti2N  (n=1)
1.00000000000000
2.8396662243830040  -0.0000000000000001  0.0000000000000000
-1.4198331121915020  2.4592230886120197  0.0000000000000000
0.0000000000000000  -0.0000000000000007  30.3078490906507803
Ti  N  F
2  1  2
Selective  dynamics
Direct
0.0000000000000000  0.0000000000000000  0.0434212131773957  T  T  T
0.0000000000000000  0.0000000000000000  0.1317261565126779  T  T  T
0.3333333333333357  0.6666666666666643  0.0877185905146815  T  T  T
0.3333333333333357  0.6666666666666643  0.0000000000000000  T  T  T
0.6666666666666643  0.3333333333333357  0.1751311706342144  T  T  T

0.00000000E+00  0.00000000E+00  0.00000000E+00
0.00000000E+00  0.00000000E+00  0.00000000E+00
0.00000000E+00  0.00000000E+00  0.00000000E+00
0.00000000E+00  0.00000000E+00  0.00000000E+00
0.00000000E+00  0.00000000E+00  0.00000000E+00
