Ta2N  (n=1)
1.00000000000000
2.8761217461193893  0.0000000000000000  0.0000000000000000
-1.4380608730596947  2.4907944965800768  0.0000000000000000
0.0000000000000000  -0.0000000000000005  30.9216091587198534
Ta  N  F
2  1  2
Selective  dynamics
Direct
-0.0000000000000000  -0.0000000000000000  0.0480047782431748  T  T  T
-0.0000000000000000  -0.0000000000000000  0.1423350995933758  T  T  T
0.3333333333333357  0.6666666666666643  0.0925633725115558  T  T  T
0.3333333333333357  0.6666666666666643  0.0000000000000000  T  T  T
0.6666666666666643  0.3333333333333357  0.1915039132770996  T  T  T

0.00000000E+00  0.00000000E+00  0.00000000E+00
0.00000000E+00  0.00000000E+00  0.00000000E+00
0.00000000E+00  0.00000000E+00  0.00000000E+00
0.00000000E+00  0.00000000E+00  0.00000000E+00
0.00000000E+00  0.00000000E+00  0.00000000E+00
