Sc2C  (n=1)
1.00000000000000
3.1812279259737393  0.0000000000000000  0.0000000000000000
-1.5906139629868696  2.7550241991930431  0.0000000000000000
0.0000000000000000  0.0000000000000001  30.1898720591974907
Sc  C  F
2  1  2
Selective  dynamics
Direct
-0.0000000000000000  -0.0000000000000000  0.0420641009875451  T  T  T
-0.0000000000000000  -0.0000000000000000  0.1331495025098636  T  T  T
0.3333333333333357  0.6666666666666643  0.0884989835932964  T  T  T
0.3333333333333357  0.6666666666666643  0.0000000000000000  T  T  T
0.6666666666666643  0.3333333333333357  0.1719077195498208  T  T  T

0.00000000E+00  0.00000000E+00  0.00000000E+00
0.00000000E+00  0.00000000E+00  0.00000000E+00
0.00000000E+00  0.00000000E+00  0.00000000E+00
0.00000000E+00  0.00000000E+00  0.00000000E+00
0.00000000E+00  0.00000000E+00  0.00000000E+00
