Hf2N  (n=1)
1.00000000000000
2.9996819771420915  0.0000000000000001  0.0000000000000000
-1.4998409885710458  2.5978007955755311  0.0000000000000000
0.0000000000000001  0.0000000000000001  30.8100321572983553
Hf  N  F
2  1  2
Selective  dynamics
Direct
0.0000000000000000  0.0000000000000000  0.0463578794432812  T  T  T
0.0000000000000000  0.0000000000000000  0.1418649610143875  T  T  T
0.3333333333333357  0.6666666666666643  0.0939428560733459  T  T  T
0.3333333333333357  0.6666666666666643  0.0000000000000000  T  T  T
0.6666666666666643  0.3333333333333357  0.1885759848492096  T  T  T

0.00000000E+00  0.00000000E+00  0.00000000E+00
0.00000000E+00  0.00000000E+00  0.00000000E+00
0.00000000E+00  0.00000000E+00  0.00000000E+00
0.00000000E+00  0.00000000E+00  0.00000000E+00
0.00000000E+00  0.00000000E+00  0.00000000E+00
