Nb2C  (n=1)
1.00000000000000
2.9550651011157374  -0.0000000000000001  0.0000000000000000
-1.4775325505578685  2.5591614474843722  0.0000000000000000
0.0000000000000005  -0.0000000000000002  30.7923175751887328
Nb  C  F
2  1  2
Selective  dynamics
Direct
0.0000000000000000  0.0000000000000000  0.0465215440926832  T  T  T
0.0000000000000000  0.0000000000000000  0.1399287718437631  T  T  T
0.3333333333333357  0.6666666666666643  0.0921129934902343  T  T  T
0.3333333333333357  0.6666666666666643  0.0000000000000000  T  T  T
0.6666666666666643  0.3333333333333357  0.1881091788899956  T  T  T

0.00000000E+00  0.00000000E+00  0.00000000E+00
0.00000000E+00  0.00000000E+00  0.00000000E+00
0.00000000E+00  0.00000000E+00  0.00000000E+00
0.00000000E+00  0.00000000E+00  0.00000000E+00
0.00000000E+00  0.00000000E+00  0.00000000E+00
