Zr2N  (n=1)
1.00000000000000
3.0624325667912027  0.0000000000000001  0.0000000000000000
-1.5312162833956016  2.6521444003320096  0.0000000000000000
-0.0000000000000003  -0.0000000000000005  30.8269621187266409
Zr  N  F
2  1  2
Selective  dynamics
Direct
0.0000000000000000  0.0000000000000000  0.0461994678121284  T  T  T
0.0000000000000000  0.0000000000000000  0.1424510972673274  T  T  T
0.3333333333333357  0.6666666666666643  0.0939079934326653  T  T  T
0.3333333333333357  0.6666666666666643  0.0000000000000000  T  T  T
0.6666666666666643  0.3333333333333357  0.1890216134916161  T  T  T

0.00000000E+00  0.00000000E+00  0.00000000E+00
0.00000000E+00  0.00000000E+00  0.00000000E+00
0.00000000E+00  0.00000000E+00  0.00000000E+00
0.00000000E+00  0.00000000E+00  0.00000000E+00
0.00000000E+00  0.00000000E+00  0.00000000E+00
