Mo2C  (n=1)
1.00000000000000
2.8769095043106043  0.0000000000000000  0.0000000000000000
-1.4384547521553022  2.4914767151745560  0.0000000000000000
0.0000000000000000  -0.0000000000000001  30.7039821594143589
Mo  C  F
2  1  2
Selective  dynamics
Direct
-0.0000000000000000  -0.0000000000000000  0.0491668929903193  T  T  T
-0.0000000000000000  -0.0000000000000000  0.1369279944879151  T  T  T
0.3333333333333357  0.6666666666666643  0.0920239238485668  T  T  T
0.3333333333333357  0.6666666666666643  0.0000000000000000  T  T  T
0.6666666666666643  0.3333333333333357  0.1857733674348629  T  T  T

0.00000000E+00  0.00000000E+00  0.00000000E+00
0.00000000E+00  0.00000000E+00  0.00000000E+00
0.00000000E+00  0.00000000E+00  0.00000000E+00
0.00000000E+00  0.00000000E+00  0.00000000E+00
0.00000000E+00  0.00000000E+00  0.00000000E+00
