Mo2N  (n=1)
1.00000000000000
2.7834938630563348  0.0000000000000000  0.0000000000000000
-1.3917469315281674  2.4105763967229046  0.0000000000000000
-0.0000000000000002  0.0000000000000000  30.9765630403045549
Mo  N  F
2  1  2
Selective  dynamics
Direct
0.0000000000000000  0.0000000000000000  0.0514590116650162  T  T  T
0.0000000000000000  0.0000000000000000  0.1437038730933194  T  T  T
0.3333333333333357  0.6666666666666643  0.0969102528774956  T  T  T
0.3333333333333357  0.6666666666666643  0.0000000000000000  T  T  T
0.6666666666666643  0.3333333333333357  0.1929382234087192  T  T  T

0.00000000E+00  0.00000000E+00  0.00000000E+00
0.00000000E+00  0.00000000E+00  0.00000000E+00
0.00000000E+00  0.00000000E+00  0.00000000E+00
0.00000000E+00  0.00000000E+00  0.00000000E+00
0.00000000E+00  0.00000000E+00  0.00000000E+00
