Ta2C  (n=1)
1.00000000000000
2.9374510603861816  -0.0000000000000009  0.0000000000000000
-1.4687255301930913  2.5439072407459968  0.0000000000000000
0.0000000000000002  -0.0000000000000002  30.8127332842824799
Ta  C  F
2  1  2
Selective  dynamics
Direct
0.0000000000000000  0.0000000000000000  0.0469819228141614  T  T  T
0.0000000000000000  0.0000000000000000  0.1397596585834456  T  T  T
0.3333333333333357  0.6666666666666643  0.0924139853238119  T  T  T
0.3333333333333357  0.6666666666666643  0.0000000000000000  T  T  T
0.6666666666666643  0.3333333333333357  0.1886471164584268  T  T  T

0.00000000E+00  0.00000000E+00  0.00000000E+00
0.00000000E+00  0.00000000E+00  0.00000000E+00
0.00000000E+00  0.00000000E+00  0.00000000E+00
0.00000000E+00  0.00000000E+00  0.00000000E+00
0.00000000E+00  0.00000000E+00  0.00000000E+00
