Cr2N  (n=1)
1.00000000000000
2.6795799597813059  0.0000000000000000  0.0000000000000000
-1.3397899798906530  2.3205843167301494  0.0000000000000000
0.0000000000000000  0.0000000000000000  30.2158257257281306
Cr  N  F
2  1  2
Selective  dynamics
Direct
0.0000000000000000  -0.0000000000000000  0.0460204626490358  T  T  T
0.0000000000000000  -0.0000000000000000  0.1276861245728614  T  T  T
0.3333333333333357  0.6666666666666643  0.0865339755333051  T  T  T
0.3333333333333357  0.6666666666666643  0.0000000000000000  T  T  T
0.6666666666666643  0.3333333333333357  0.1726190034676751  T  T  T

0.00000000E+00  0.00000000E+00  0.00000000E+00
0.00000000E+00  0.00000000E+00  0.00000000E+00
0.00000000E+00  0.00000000E+00  0.00000000E+00
0.00000000E+00  0.00000000E+00  0.00000000E+00
0.00000000E+00  0.00000000E+00  0.00000000E+00
