Hf2C  (n=1)
1.00000000000000
3.1449593394471238  0.0000000000000000  0.0000000000000000
-1.5724796697235619  2.7236146819577627  0.0000000000000000
0.0000000000000000  0.0000000000000000  30.5272284345854708
Hf  C  F
2  1  2
Selective  dynamics
Direct
0.0000000000000000  0.0000000000000000  0.0456258686019938  T  T  T
0.0000000000000000  0.0000000000000000  0.1372751030820800  T  T  T
0.3333333333333357  0.6666666666666643  0.0934144844671742  T  T  T
0.3333333333333357  0.6666666666666643  0.0000000000000000  T  T  T
0.6666666666666643  0.3333333333333357  0.1810589666346343  T  T  T

0.00000000E+00  0.00000000E+00  0.00000000E+00
0.00000000E+00  0.00000000E+00  0.00000000E+00
0.00000000E+00  0.00000000E+00  0.00000000E+00
0.00000000E+00  0.00000000E+00  0.00000000E+00
0.00000000E+00  0.00000000E+00  0.00000000E+00
