Nb2N  (n=1)
1.00000000000000
2.9003103726779114  0.0000000000000000  0.0000000000000000
-1.4501551863389557  2.5117424616766582  0.0000000000000000
-0.0000000000000002  0.0000000000000001  30.8662367372265507
Nb  N  F
2  1  2
Selective  dynamics
Direct
0.0000000000000000  0.0000000000000000  0.0474151248457853  T  T  T
0.0000000000000000  0.0000000000000000  0.1416297546353964  T  T  T
0.3333333333333357  0.6666666666666643  0.0924083162652681  T  T  T
0.3333333333333357  0.6666666666666643  0.0000000000000000  T  T  T
0.6666666666666643  0.3333333333333357  0.1900535133961281  T  T  T

0.00000000E+00  0.00000000E+00  0.00000000E+00
0.00000000E+00  0.00000000E+00  0.00000000E+00
0.00000000E+00  0.00000000E+00  0.00000000E+00
0.00000000E+00  0.00000000E+00  0.00000000E+00
0.00000000E+00  0.00000000E+00  0.00000000E+00
