Ti2C  (n=1)
1.00000000000000
2.9536497850528325  0.0000000000000000  0.0000000000000000
-1.4768248925264165  2.5579357477902205  0.0000000000000000
0.0000000000000001  0.0000000000000001  30.1497097116815027
Ti  C  F
2  1  2
Selective  dynamics
Direct
-0.0000000000000000  -0.0000000000000000  0.0433865213198422  T  T  T
-0.0000000000000000  -0.0000000000000000  0.1292438824927957  T  T  T
0.3333333333333357  0.6666666666666643  0.0877280283524917  T  T  T
0.3333333333333357  0.6666666666666643  0.0000000000000000  T  T  T
0.6666666666666643  0.3333333333333357  0.1708046200420379  T  T  T

0.00000000E+00  0.00000000E+00  0.00000000E+00
0.00000000E+00  0.00000000E+00  0.00000000E+00
0.00000000E+00  0.00000000E+00  0.00000000E+00
0.00000000E+00  0.00000000E+00  0.00000000E+00
0.00000000E+00  0.00000000E+00  0.00000000E+00
