Cr2C  (n=1)
1.00000000000000
2.6751724080328585  0.0000000000000000  0.0000000000000000
-1.3375862040164292  2.3167672649088575  0.0000000000000000
-0.0000000000000003  0.0000000000000002  30.2337742332672832
Cr  C  F
2  1  2
Selective  dynamics
Direct
0.0000000000000000  0.0000000000000000  0.0452837443664904  T  T  T
0.0000000000000000  0.0000000000000000  0.1284719459366905  T  T  T
0.3333333333333357  0.6666666666666643  0.0862435681854182  T  T  T
0.3333333333333357  0.6666666666666643  0.0000000000000000  T  T  T
0.6666666666666643  0.3333333333333357  0.1731101844211159  T  T  T

0.00000000E+00  0.00000000E+00  0.00000000E+00
0.00000000E+00  0.00000000E+00  0.00000000E+00
0.00000000E+00  0.00000000E+00  0.00000000E+00
0.00000000E+00  0.00000000E+00  0.00000000E+00
0.00000000E+00  0.00000000E+00  0.00000000E+00
