Mo2N  (n=1)
1.00000000000000
2.9093374436695760  -0.0000000000000001  0.0000000000000001
-1.4546687218347878  2.5195601344380654  -0.0000000000000002
0.0000000000000000  -0.0000000000000015  32.2821785533861245
Mo  N  H
2  3  2
Selective  dynamics
Direct
0.0000000000000000  -0.0000000000000000  0.0693398560781098  T  T  T
0.6666666666666643  0.3333333333333357  0.1562390509136640  T  T  T
0.3333333333333357  0.6666666666666643  0.1127894534958911  T  T  T
0.3333333333333357  0.6666666666666643  0.0316822758160485  T  T  T
0.3333333333333357  0.6666666666666643  0.1938966311757252  T  T  T
0.3333333333333357  0.6666666666666643  0.0000000000000000  T  T  T
0.3333333333333357  0.6666666666666643  0.2255789069917738  T  T  T

0.00000000E+00  0.00000000E+00  0.00000000E+00
0.00000000E+00  0.00000000E+00  0.00000000E+00
0.00000000E+00  0.00000000E+00  0.00000000E+00
0.00000000E+00  0.00000000E+00  0.00000000E+00
0.00000000E+00  0.00000000E+00  0.00000000E+00
0.00000000E+00  0.00000000E+00  0.00000000E+00
0.00000000E+00  0.00000000E+00  0.00000000E+00
