Ti2N  (n=1)
1.00000000000000
2.9716784869262525  0.0000000000000000  0.0000000000000000
-1.4858392434631262  2.5735490615929200  0.0000000000000000
0.0000000000000000  0.0000000000000000  31.8890680607337273
Ti  N  H
2  3  2
Selective  dynamics
Direct
0.0000000000000000  -0.0000000000000000  0.0675978540895709  T  T  T
0.6666666666666643  0.3333333333333357  0.1484344252988793  T  T  T
0.3333333333333357  0.6666666666666643  0.1080161396942251  T  T  T
0.3333333333333357  0.6666666666666643  0.0321754441496876  T  T  T
0.3333333333333357  0.6666666666666643  0.1838568352387626  T  T  T
0.3333333333333357  0.6666666666666643  0.0000000000000000  T  T  T
0.3333333333333357  0.6666666666666643  0.2160322793884500  T  T  T

0.00000000E+00  0.00000000E+00  0.00000000E+00
0.00000000E+00  0.00000000E+00  0.00000000E+00
0.00000000E+00  0.00000000E+00  0.00000000E+00
0.00000000E+00  0.00000000E+00  0.00000000E+00
0.00000000E+00  0.00000000E+00  0.00000000E+00
0.00000000E+00  0.00000000E+00  0.00000000E+00
0.00000000E+00  0.00000000E+00  0.00000000E+00
