Hf2C  (n=1)
1.00000000000000
3.2316624027395964  0.0000000000000004  0.0000000000000000
-1.6158312013697982  2.7987017372846266  0.0000000000000000
-0.0000000000000001  -0.0000000000000025  32.2127018111794996
Hf  C  N  H
2  1  2  2
Selective  dynamics
Direct
0.0000000000000000  -0.0000000000000000  0.0678134273990808  T  T  T
0.6666666666666643  0.3333333333333357  0.1560951988769155  T  T  T
0.3333333333333357  0.6666666666666643  0.1119543131379982  T  T  T
0.3333333333333357  0.6666666666666643  0.0319995860792387  T  T  T
0.3333333333333357  0.6666666666666643  0.1919090401967576  T  T  T
0.3333333333333357  0.6666666666666643  0.0000000000000000  T  T  T
0.3333333333333357  0.6666666666666643  0.2239086262759963  T  T  T

0.00000000E+00  0.00000000E+00  0.00000000E+00
0.00000000E+00  0.00000000E+00  0.00000000E+00
0.00000000E+00  0.00000000E+00  0.00000000E+00
0.00000000E+00  0.00000000E+00  0.00000000E+00
0.00000000E+00  0.00000000E+00  0.00000000E+00
0.00000000E+00  0.00000000E+00  0.00000000E+00
0.00000000E+00  0.00000000E+00  0.00000000E+00
