Nb2N  (n=1)
1.00000000000000
3.0386242314726615  0.0000000000000000  0.0000000000000000
-1.5193121157363307  2.6315257770673903  0.0000000000000000
0.0000000000000000  0.0000000000000000  32.2479779051105027
Nb  N  H
2  3  2
Selective  dynamics
Direct
0.0000000000000000  -0.0000000000000000  0.0702824521500080  T  T  T
0.6666666666666643  0.3333333333333357  0.1544751412233701  T  T  T
0.3333333333333357  0.6666666666666643  0.1123787966866891  T  T  T
0.3333333333333357  0.6666666666666643  0.0317030006094001  T  T  T
0.3333333333333357  0.6666666666666643  0.1930545927639780  T  T  T
0.3333333333333357  0.6666666666666643  0.0000000000000000  T  T  T
0.3333333333333357  0.6666666666666643  0.2247575933733780  T  T  T

0.00000000E+00  0.00000000E+00  0.00000000E+00
0.00000000E+00  0.00000000E+00  0.00000000E+00
0.00000000E+00  0.00000000E+00  0.00000000E+00
0.00000000E+00  0.00000000E+00  0.00000000E+00
0.00000000E+00  0.00000000E+00  0.00000000E+00
0.00000000E+00  0.00000000E+00  0.00000000E+00
0.00000000E+00  0.00000000E+00  0.00000000E+00
