Nb2C  (n=1)
1.00000000000000
3.1080293814890503  0.0000000000000000  0.0000000000000000
-1.5540146907445251  2.6916324001419123  0.0000000000000000
0.0000000000000000  0.0000000000000000  32.1305444938462159
Nb  C  N  H
2  1  2  2
Selective  dynamics
Direct
0.0000000000000000  -0.0000000000000000  0.0705395604464198  T  T  T
0.6666666666666643  0.3333333333333357  0.1513846119002901  T  T  T
0.3333333333333357  0.6666666666666643  0.1109620861733590  T  T  T
0.3333333333333357  0.6666666666666643  0.0319285653325455  T  T  T
0.3333333333333357  0.6666666666666643  0.1899956070141643  T  T  T
0.3333333333333357  0.6666666666666643  0.0000000000000000  T  T  T
0.3333333333333357  0.6666666666666643  0.2219241723467179  T  T  T

0.00000000E+00  0.00000000E+00  0.00000000E+00
0.00000000E+00  0.00000000E+00  0.00000000E+00
0.00000000E+00  0.00000000E+00  0.00000000E+00
0.00000000E+00  0.00000000E+00  0.00000000E+00
0.00000000E+00  0.00000000E+00  0.00000000E+00
0.00000000E+00  0.00000000E+00  0.00000000E+00
0.00000000E+00  0.00000000E+00  0.00000000E+00
