Ti2C  (n=1)
1.00000000000000
3.0192034777315793  0.0000000000000000  0.0000000000000000
-1.5096017388657896  2.6147069109577390  0.0000000000000000
0.0000000000000000  -0.0000000000000001  31.9422382551652788
Ti  C  N  H
2  1  2  2
Selective  dynamics
Direct
-0.0000000000000000  0.0000000000000000  0.0668664678944610  T  T  T
0.6666666666666643  0.3333333333333357  0.1504707831681713  T  T  T
0.3333333333333357  0.6666666666666643  0.1086686255313201  T  T  T
0.3333333333333357  0.6666666666666643  0.0322764433656291  T  T  T
0.3333333333333357  0.6666666666666643  0.1850608076970031  T  T  T
0.3333333333333357  0.6666666666666643  0.0000000000000000  T  T  T
0.3333333333333357  0.6666666666666643  0.2173372510626324  T  T  T

0.00000000E+00  0.00000000E+00  0.00000000E+00
0.00000000E+00  0.00000000E+00  0.00000000E+00
0.00000000E+00  0.00000000E+00  0.00000000E+00
0.00000000E+00  0.00000000E+00  0.00000000E+00
0.00000000E+00  0.00000000E+00  0.00000000E+00
0.00000000E+00  0.00000000E+00  0.00000000E+00
0.00000000E+00  0.00000000E+00  0.00000000E+00
