Hf2N  (n=1)
1.00000000000000
3.1859162133195524  -0.0000000000000003  0.0000000000000000
-1.5929581066597764  2.7590843751181531  0.0000000000000000
0.0000000000000000  0.0000000000000000  32.1287590587747900
Hf  N  H
2  3  2
Selective  dynamics
Direct
-0.0000000000000000  -0.0000000000000000  0.0681889370338093  T  T  T
0.6666666666666643  0.3333333333333357  0.1536919966721512  T  T  T
0.3333333333333357  0.6666666666666643  0.1109404668529844  T  T  T
0.3333333333333357  0.6666666666666643  0.0319369634879254  T  T  T
0.3333333333333357  0.6666666666666643  0.1899439702180352  T  T  T
0.3333333333333357  0.6666666666666643  0.0000000000000000  T  T  T
0.3333333333333357  0.6666666666666643  0.2218809337059606  T  T  T

0.00000000E+00  0.00000000E+00  0.00000000E+00
0.00000000E+00  0.00000000E+00  0.00000000E+00
0.00000000E+00  0.00000000E+00  0.00000000E+00
0.00000000E+00  0.00000000E+00  0.00000000E+00
0.00000000E+00  0.00000000E+00  0.00000000E+00
0.00000000E+00  0.00000000E+00  0.00000000E+00
0.00000000E+00  0.00000000E+00  0.00000000E+00
