Zr2C  (n=1)
1.00000000000000
3.2841051472932170  -0.0000000000000006  0.0000000000000002
-1.6420525736466085  2.8441184863151436  0.0000000000000000
0.0000000000000003  -0.0000000000000016  32.2789843442700217
Zr  C  N  H
2  1  2  2
Selective  dynamics
Direct
-0.0000000000000000  0.0000000000000000  0.0679696335868863  T  T  T
0.6666666666666643  0.3333333333333357  0.1575326395526925  T  T  T
0.3333333333333357  0.6666666666666643  0.1127511365697934  T  T  T
0.3333333333333357  0.6666666666666643  0.0319465674657571  T  T  T
0.3333333333333357  0.6666666666666643  0.1935557056738218  T  T  T
0.3333333333333357  0.6666666666666643  0.0000000000000000  T  T  T
0.3333333333333357  0.6666666666666643  0.2255022731395867  T  T  T

0.00000000E+00  0.00000000E+00  0.00000000E+00
0.00000000E+00  0.00000000E+00  0.00000000E+00
0.00000000E+00  0.00000000E+00  0.00000000E+00
0.00000000E+00  0.00000000E+00  0.00000000E+00
0.00000000E+00  0.00000000E+00  0.00000000E+00
0.00000000E+00  0.00000000E+00  0.00000000E+00
0.00000000E+00  0.00000000E+00  0.00000000E+00
