Cr2N  (n=1)
1.00000000000000
2.7015282297781043  0.0000000000000000  0.0000000000000000
-1.3507641148890521  2.3395920760706832  0.0000000000000000
0.0000000000000000  0.0000000000000000  31.9030223397665544
Cr  N  H
2  3  2
Selective  dynamics
Direct
-0.0000000000000000  -0.0000000000000000  0.0675983954257037  T  T  T
0.6666666666666643  0.3333333333333357  0.1487767889141766  T  T  T
0.3333333333333357  0.6666666666666643  0.1081875921699479  T  T  T
0.3333333333333357  0.6666666666666643  0.0321153770931286  T  T  T
0.3333333333333357  0.6666666666666643  0.1842598072467593  T  T  T
0.3333333333333357  0.6666666666666643  0.0000000000000000  T  T  T
0.3333333333333357  0.6666666666666643  0.2163751843398881  T  T  T

0.00000000E+00  0.00000000E+00  0.00000000E+00
0.00000000E+00  0.00000000E+00  0.00000000E+00
0.00000000E+00  0.00000000E+00  0.00000000E+00
0.00000000E+00  0.00000000E+00  0.00000000E+00
0.00000000E+00  0.00000000E+00  0.00000000E+00
0.00000000E+00  0.00000000E+00  0.00000000E+00
0.00000000E+00  0.00000000E+00  0.00000000E+00
