Ta2N  (n=1)
1.00000000000000
3.0175636115235638  0.0000000000000000  0.0000000000000000
-1.5087818057617819  2.6132867451675423  0.0000000000000000
0.0000000000000000  0.0000000000000000  32.2399799127605462
Ta  N  H
2  3  2
Selective  dynamics
Direct
0.0000000000000000  0.0000000000000000  0.0700828549194792  T  T  T
0.6666666666666643  0.3333333333333357  0.1544824187671517  T  T  T
0.3333333333333357  0.6666666666666643  0.1122826368433154  T  T  T
0.3333333333333357  0.6666666666666643  0.0316969059688429  T  T  T
0.3333333333333357  0.6666666666666643  0.1928683677177879  T  T  T
0.3333333333333357  0.6666666666666643  0.0000000000000000  T  T  T
0.3333333333333357  0.6666666666666643  0.2245652736866306  T  T  T

0.00000000E+00  0.00000000E+00  0.00000000E+00
0.00000000E+00  0.00000000E+00  0.00000000E+00
0.00000000E+00  0.00000000E+00  0.00000000E+00
0.00000000E+00  0.00000000E+00  0.00000000E+00
0.00000000E+00  0.00000000E+00  0.00000000E+00
0.00000000E+00  0.00000000E+00  0.00000000E+00
0.00000000E+00  0.00000000E+00  0.00000000E+00
