Sc2C  (n=1)
1.00000000000000
3.4436401258828959  0.0000000000000000  0.0000000000000000
-1.7218200629414480  2.9822798305972231  0.0000000000000000
0.0000000000000000  0.0000000000000001  31.2725819663557196
Sc  C  N  H
2  1  2  2
Selective  dynamics
Direct
0.0000000000000000  0.0000000000000000  0.0589282231634294  T  T  T
0.6666666666666643  0.3333333333333357  0.1416494577298210  T  T  T
0.3333333333333357  0.6666666666666643  0.1002888404466251  T  T  T
0.3333333333333357  0.6666666666666643  0.0330417959182101  T  T  T
0.3333333333333357  0.6666666666666643  0.1675358849750403  T  T  T
0.3333333333333357  0.6666666666666643  0.0000000000000000  T  T  T
0.3333333333333357  0.6666666666666643  0.2005776808932505  T  T  T

0.00000000E+00  0.00000000E+00  0.00000000E+00
0.00000000E+00  0.00000000E+00  0.00000000E+00
0.00000000E+00  0.00000000E+00  0.00000000E+00
0.00000000E+00  0.00000000E+00  0.00000000E+00
0.00000000E+00  0.00000000E+00  0.00000000E+00
0.00000000E+00  0.00000000E+00  0.00000000E+00
0.00000000E+00  0.00000000E+00  0.00000000E+00
