Mo2C  (n=1)
1.00000000000000
2.9271646208886501  0.0000000000000000  0.0000000000000000
-1.4635823104443251  2.5349989227835210  0.0000000000000000
0.0000000000000000  0.0000000000000000  32.2378147642874637
Mo  C  N  H
2  1  2  2
Selective  dynamics
Direct
-0.0000000000000000  -0.0000000000000000  0.0698640747894725  T  T  T
0.6666666666666643  0.3333333333333357  0.1546491193338897  T  T  T
0.3333333333333357  0.6666666666666643  0.1122565970616811  T  T  T
0.3333333333333357  0.6666666666666643  0.0317150217561578  T  T  T
0.3333333333333357  0.6666666666666643  0.1927981723672045  T  T  T
0.3333333333333357  0.6666666666666643  0.0000000000000000  T  T  T
0.3333333333333357  0.6666666666666643  0.2245131941233622  T  T  T

0.00000000E+00  0.00000000E+00  0.00000000E+00
0.00000000E+00  0.00000000E+00  0.00000000E+00
0.00000000E+00  0.00000000E+00  0.00000000E+00
0.00000000E+00  0.00000000E+00  0.00000000E+00
0.00000000E+00  0.00000000E+00  0.00000000E+00
0.00000000E+00  0.00000000E+00  0.00000000E+00
0.00000000E+00  0.00000000E+00  0.00000000E+00
