Zr2N  (n=1)
1.00000000000000
3.2396853700986563  0.0000000000000003  -0.0000000000000001
-1.6198426850493282  2.8056498308318818  0.0000000000000002
-0.0000000000000002  0.0000000000000005  32.2036668781967848
Zr  N  H
2  3  2
Selective  dynamics
Direct
0.0000000000000000  0.0000000000000000  0.0685762572058874  T  T  T
0.6666666666666643  0.3333333333333357  0.1551146319541200  T  T  T
0.3333333333333357  0.6666666666666643  0.1118454445800078  T  T  T
0.3333333333333357  0.6666666666666643  0.0319007780665118  T  T  T
0.3333333333333357  0.6666666666666643  0.1917901110935036  T  T  T
0.3333333333333357  0.6666666666666643  0.0000000000000000  T  T  T
0.3333333333333357  0.6666666666666643  0.2236908891600156  T  T  T

0.00000000E+00  0.00000000E+00  0.00000000E+00
0.00000000E+00  0.00000000E+00  0.00000000E+00
0.00000000E+00  0.00000000E+00  0.00000000E+00
0.00000000E+00  0.00000000E+00  0.00000000E+00
0.00000000E+00  0.00000000E+00  0.00000000E+00
0.00000000E+00  0.00000000E+00  0.00000000E+00
0.00000000E+00  0.00000000E+00  0.00000000E+00
