Sc2N
1.00000000000000
3.2731029163762626  0.0000000000000000  0.0000000000000002
-1.6365514581881315  2.8345902748389289  0.0000000000000000
0.0000000000000004  0.0000000000000005  31.8482547440733441
Sc  N  H
2  3  2
Selective  dynamics
Direct
0.0000000000000000  -0.0000000000000000  0.0627237125639979  T  T  T
0.6666666666666643  0.3333333333333357  0.1523039176501110  T  T  T
0.3333333333333357  0.6666666666666643  0.1075138151070544  T  T  T
0.3333333333333357  0.6666666666666643  0.0324214560163621  T  T  T
0.3333333333333357  0.6666666666666643  0.1826061741977468  T  T  T
0.3333333333333357  0.6666666666666643  0.0000000000000000  T  T  T
0.3333333333333357  0.6666666666666643  0.2150276302141090  T  T  T

0.00000000E+00  0.00000000E+00  0.00000000E+00
0.00000000E+00  0.00000000E+00  0.00000000E+00
0.00000000E+00  0.00000000E+00  0.00000000E+00
0.00000000E+00  0.00000000E+00  0.00000000E+00
0.00000000E+00  0.00000000E+00  0.00000000E+00
0.00000000E+00  0.00000000E+00  0.00000000E+00
0.00000000E+00  0.00000000E+00  0.00000000E+00
