Ta2C  (n=1)
1.00000000000000
3.0864133839076899  0.0000000000000000  0.0000000000000002
-1.5432066919538450  2.6729123970949082  -0.0000000000000006
0.0000000000000008  -0.0000000000000009  32.1070649593217254
Ta  C  N  H
2  1  2  2
Selective  dynamics
Direct
0.0000000000000000  -0.0000000000000000  0.0704056534153818  T  T  T
0.6666666666666643  0.3333333333333357  0.1509495208531416  T  T  T
0.3333333333333357  0.6666666666666643  0.1106775871342577  T  T  T
0.3333333333333357  0.6666666666666643  0.0319382504927597  T  T  T
0.3333333333333357  0.6666666666666643  0.1894169237757636  T  T  T
0.3333333333333357  0.6666666666666643  0.0000000000000000  T  T  T
0.3333333333333357  0.6666666666666643  0.2213551742685315  T  T  T

0.00000000E+00  0.00000000E+00  0.00000000E+00
0.00000000E+00  0.00000000E+00  0.00000000E+00
0.00000000E+00  0.00000000E+00  0.00000000E+00
0.00000000E+00  0.00000000E+00  0.00000000E+00
0.00000000E+00  0.00000000E+00  0.00000000E+00
0.00000000E+00  0.00000000E+00  0.00000000E+00
0.00000000E+00  0.00000000E+00  0.00000000E+00
