Cr2C  (n=1)
1.00000000000000
2.7309336310958896  0.0000000000000000  0.0000000000000000
-1.3654668155479448  2.3650579005852221  0.0000000000000000
0.0000000000000000  -0.0000000000000001  31.8483264946119533
Cr  C  N  H
2  1  2  2
Selective  dynamics
Direct
0.0000000000000000  0.0000000000000000  0.0680520033643119  T  T  T
0.6666666666666643  0.3333333333333357  0.1469773953003413  T  T  T
0.3333333333333357  0.6666666666666643  0.1075146993323266  T  T  T
0.3333333333333357  0.6666666666666643  0.0322069249504290  T  T  T
0.3333333333333357  0.6666666666666643  0.1828224737142242  T  T  T
0.3333333333333357  0.6666666666666643  0.0000000000000000  T  T  T
0.3333333333333357  0.6666666666666643  0.2150293986646533  T  T  T

0.00000000E+00  0.00000000E+00  0.00000000E+00
0.00000000E+00  0.00000000E+00  0.00000000E+00
0.00000000E+00  0.00000000E+00  0.00000000E+00
0.00000000E+00  0.00000000E+00  0.00000000E+00
0.00000000E+00  0.00000000E+00  0.00000000E+00
0.00000000E+00  0.00000000E+00  0.00000000E+00
0.00000000E+00  0.00000000E+00  0.00000000E+00
