Mo2N  (n=1)
1.00000000000000
2.8940450711584660  0.0000000000000001  0.0000000000000000
-1.4470225355792332  2.5063165513475809  0.0000000000000000
0.0000000000000001  0.0000000000000001  32.3997977085973616
Mo  N  H
2  3  2
Selective  dynamics
Direct
0.0000000000000000  -0.0000000000000000  0.0697923751547151  T  T  T
0.0000000000000000  -0.0000000000000000  0.1586029647306421  T  T  T
0.3333333333333357  0.6666666666666643  0.1101803971257708  T  T  T
0.3333333333333357  0.6666666666666643  0.0315286098576653  T  T  T
0.6666666666666643  0.3333333333333357  0.1967606143745450  T  T  T
0.3333333333333357  0.6666666666666643  0.0000000000000000  T  T  T
0.6666666666666643  0.3333333333333357  0.2283902441351913  T  T  T

0.00000000E+00  0.00000000E+00  0.00000000E+00
0.00000000E+00  0.00000000E+00  0.00000000E+00
0.00000000E+00  0.00000000E+00  0.00000000E+00
0.00000000E+00  0.00000000E+00  0.00000000E+00
0.00000000E+00  0.00000000E+00  0.00000000E+00
0.00000000E+00  0.00000000E+00  0.00000000E+00
0.00000000E+00  0.00000000E+00  0.00000000E+00
