Sc2C  (n=1)
1.00000000000000
3.2565995298799999  0.0000000000000000  0.0000000000000000
-1.6282997649399999  2.8202979229298419  0.0000000000000000
0.0000000000000000  0.0000000000000000  32.3642432561177316
Sc  C  N  H
2  1  2  2
Selective  dynamics
Direct
-0.0000000000000000  0.0000000000000000  0.0613275775152102  T  T  T
-0.0000000000000000  0.0000000000000000  0.1663349707091110  T  T  T
0.3333333333333357  0.6666666666666643  0.1167311452684533  T  T  T
0.3333333333333357  0.6666666666666643  0.0318747622824678  T  T  T
0.6666666666666643  0.3333333333333357  0.1957515750747451  T  T  T
0.3333333333333357  0.6666666666666643  0.0000000000000000  T  T  T
0.6666666666666643  0.3333333333333357  0.2275425752377412  T  T  T

0.00000000E+00  0.00000000E+00  0.00000000E+00
0.00000000E+00  0.00000000E+00  0.00000000E+00
0.00000000E+00  0.00000000E+00  0.00000000E+00
0.00000000E+00  0.00000000E+00  0.00000000E+00
0.00000000E+00  0.00000000E+00  0.00000000E+00
0.00000000E+00  0.00000000E+00  0.00000000E+00
0.00000000E+00  0.00000000E+00  0.00000000E+00
