Sc2N  (n=1)
1.00000000000000
3.1844442934671311  0.0000000000000000  0.0000000000000000
-1.5922221467335655  2.7578096551618234  0.0000000000000000
0.0000000000000000  0.0000000000000000  32.2298583454447467
Sc  N  H
2  3  2
Selective  dynamics
Direct
-0.0000000000000000  0.0000000000000000  0.0633395501458138  T  T  T
-0.0000000000000000  0.0000000000000000  0.1574177169573518  T  T  T
0.3333333333333357  0.6666666666666643  0.1154026461986262  T  T  T
0.3333333333333357  0.6666666666666643  0.0319189245673467  T  T  T
0.6666666666666643  0.3333333333333357  0.1925144418024727  T  T  T
0.3333333333333357  0.6666666666666643  0.0000000000000000  T  T  T
0.6666666666666643  0.3333333333333357  0.2243217536966490  T  T  T

0.00000000E+00  0.00000000E+00  0.00000000E+00
0.00000000E+00  0.00000000E+00  0.00000000E+00
0.00000000E+00  0.00000000E+00  0.00000000E+00
0.00000000E+00  0.00000000E+00  0.00000000E+00
0.00000000E+00  0.00000000E+00  0.00000000E+00
0.00000000E+00  0.00000000E+00  0.00000000E+00
0.00000000E+00  0.00000000E+00  0.00000000E+00
