Zr2N  (n=1)
1.00000000000000
3.2609815135242091  0.0000000000000000  0.0000000000000000
-1.6304907567621045  2.8240928320686933  0.0000000000000000
0.0000000000000000  0.0000000000000000  32.2410215488105010
Zr  N  H
2  3  2
Selective  dynamics
Direct
-0.0000000000000000  -0.0000000000000000  0.0675288020039073  T  T  T
-0.0000000000000000  -0.0000000000000000  0.1583557686535467  T  T  T
0.3333333333333357  0.6666666666666643  0.1148784565283482  T  T  T
0.3333333333333357  0.6666666666666643  0.0318717275499423  T  T  T
0.6666666666666643  0.3333333333333357  0.1928157097316885  T  T  T
0.3333333333333357  0.6666666666666643  0.0000000000000000  T  T  T
0.6666666666666643  0.3333333333333357  0.2245903262664347  T  T  T

0.00000000E+00  0.00000000E+00  0.00000000E+00
0.00000000E+00  0.00000000E+00  0.00000000E+00
0.00000000E+00  0.00000000E+00  0.00000000E+00
0.00000000E+00  0.00000000E+00  0.00000000E+00
0.00000000E+00  0.00000000E+00  0.00000000E+00
0.00000000E+00  0.00000000E+00  0.00000000E+00
0.00000000E+00  0.00000000E+00  0.00000000E+00
