Zr2C  (n=1)
1.00000000000000
3.3202450101243151  0.0000000000000000  0.0000000000000000
-1.6601225050621575  2.8754165256681081  0.0000000000000000
0.0000000000000000  0.0000000000000000  32.2532785914597611
Zr  C  N  H
2  1  2  2
Selective  dynamics
Direct
0.0000000000000000  -0.0000000000000000  0.0659350832981600  T  T  T
0.0000000000000000  -0.0000000000000000  0.1599817645599677  T  T  T
0.3333333333333357  0.6666666666666643  0.1140493702083482  T  T  T
0.3333333333333357  0.6666666666666643  0.0320633534750952  T  T  T
0.6666666666666643  0.3333333333333357  0.1930797424783000  T  T  T
0.3333333333333357  0.6666666666666643  0.0000000000000000  T  T  T
0.6666666666666643  0.3333333333333357  0.2248850010981622  T  T  T

0.00000000E+00  0.00000000E+00  0.00000000E+00
0.00000000E+00  0.00000000E+00  0.00000000E+00
0.00000000E+00  0.00000000E+00  0.00000000E+00
0.00000000E+00  0.00000000E+00  0.00000000E+00
0.00000000E+00  0.00000000E+00  0.00000000E+00
0.00000000E+00  0.00000000E+00  0.00000000E+00
0.00000000E+00  0.00000000E+00  0.00000000E+00
