Mo2C  (n=1)
1.00000000000000
2.9234234618821815  0.0000000000000000  0.0000000000000000
-1.4617117309410907  2.5317589840386354  0.0000000000000000
0.0000000000000000  0.0000000000000000  32.3465273352373401
Mo  C  N  H
2  1  2  2
Selective  dynamics
Direct
-0.0000000000000000  -0.0000000000000000  0.0697470325087758  T  T  T
-0.0000000000000000  -0.0000000000000000  0.1570379003899840  T  T  T
0.3333333333333357  0.6666666666666643  0.1117491794030588  T  T  T
0.3333333333333357  0.6666666666666643  0.0315991610863008  T  T  T
0.6666666666666643  0.3333333333333357  0.1954467227527736  T  T  T
0.3333333333333357  0.6666666666666643  0.0000000000000000  T  T  T
0.6666666666666643  0.3333333333333357  0.2271195068051171  T  T  T

0.00000000E+00  0.00000000E+00  0.00000000E+00
0.00000000E+00  0.00000000E+00  0.00000000E+00
0.00000000E+00  0.00000000E+00  0.00000000E+00
0.00000000E+00  0.00000000E+00  0.00000000E+00
0.00000000E+00  0.00000000E+00  0.00000000E+00
0.00000000E+00  0.00000000E+00  0.00000000E+00
0.00000000E+00  0.00000000E+00  0.00000000E+00
