Cr2N  (n=1)
1.00000000000000
2.7024001990429118  0.0000000000000000  0.0000000000000000
-1.3512000995214559  2.3403472236053391  0.0000000000000000
0.0000000000000000  0.0000000000000000  31.9223665919319401
Cr  N  H
2  3  2
Selective  dynamics
Direct
-0.0000000000000000  -0.0000000000000000  0.0679421669418072  T  T  T
-0.0000000000000000  -0.0000000000000000  0.1493797542871937  T  T  T
0.3333333333333357  0.6666666666666643  0.1064871810707153  T  T  T
0.3333333333333357  0.6666666666666643  0.0320688694079014  T  T  T
0.6666666666666643  0.3333333333333357  0.1847257119771924  T  T  T
0.3333333333333357  0.6666666666666643  0.0000000000000000  T  T  T
0.6666666666666643  0.3333333333333357  0.2168500437458637  T  T  T

0.00000000E+00  0.00000000E+00  0.00000000E+00
0.00000000E+00  0.00000000E+00  0.00000000E+00
0.00000000E+00  0.00000000E+00  0.00000000E+00
0.00000000E+00  0.00000000E+00  0.00000000E+00
0.00000000E+00  0.00000000E+00  0.00000000E+00
0.00000000E+00  0.00000000E+00  0.00000000E+00
0.00000000E+00  0.00000000E+00  0.00000000E+00
