Nb2C  (n=1)
1.00000000000000
3.1130739608358629  0.0000000000000000  0.0000000000000000
-1.5565369804179314  2.6960011340004115  0.0000000000000000
0.0000000000000000  0.0000000000000000  32.2250179411666906
Nb  C  N  H
2  1  2  2
Selective  dynamics
Direct
-0.0000000000000000  0.0000000000000000  0.0694152150672558  T  T  T
-0.0000000000000000  0.0000000000000000  0.1559264747101370  T  T  T
0.3333333333333357  0.6666666666666643  0.1131927347085822  T  T  T
0.3333333333333357  0.6666666666666643  0.0318427608129235  T  T  T
0.6666666666666643  0.3333333333333357  0.1924182780055320  T  T  T
0.3333333333333357  0.6666666666666643  0.0000000000000000  T  T  T
0.6666666666666643  0.3333333333333357  0.2242052418514530  T  T  T

0.00000000E+00  0.00000000E+00  0.00000000E+00
0.00000000E+00  0.00000000E+00  0.00000000E+00
0.00000000E+00  0.00000000E+00  0.00000000E+00
0.00000000E+00  0.00000000E+00  0.00000000E+00
0.00000000E+00  0.00000000E+00  0.00000000E+00
0.00000000E+00  0.00000000E+00  0.00000000E+00
0.00000000E+00  0.00000000E+00  0.00000000E+00
