Cr2C  (n=1)
1.00000000000000
2.7149065342376959  0.0000000000000001  0.0000000000000000
-1.3574532671188480  2.3511780275813474  0.0000000000000000
0.0000000000000000  0.0000000000000000  31.9521704942664719
Cr  C  N  H
2  1  2  2
Selective  dynamics
Direct
0.0000000000000000  0.0000000000000000  0.0680067295816133  T  T  T
0.0000000000000000  0.0000000000000000  0.1498034768964174  T  T  T
0.3333333333333357  0.6666666666666643  0.1076634446481392  T  T  T
0.3333333333333357  0.6666666666666643  0.0320782312867684  T  T  T
0.6666666666666643  0.3333333333333357  0.1854956984329746  T  T  T
0.3333333333333357  0.6666666666666643  0.0000000000000000  T  T  T
0.6666666666666643  0.3333333333333357  0.2175805394977464  T  T  T

0.00000000E+00  0.00000000E+00  0.00000000E+00
0.00000000E+00  0.00000000E+00  0.00000000E+00
0.00000000E+00  0.00000000E+00  0.00000000E+00
0.00000000E+00  0.00000000E+00  0.00000000E+00
0.00000000E+00  0.00000000E+00  0.00000000E+00
0.00000000E+00  0.00000000E+00  0.00000000E+00
0.00000000E+00  0.00000000E+00  0.00000000E+00
