Nb2N  (n=1)
1.00000000000000
3.0273186440376163  0.0000000000000000  0.0000000000000000
-1.5136593220188082  2.6217348511339451  0.0000000000000000
0.0000000000000000  0.0000000000000000  32.3750158126190541
Nb  N  H
2  3  2
Selective  dynamics
Direct
0.0000000000000000  -0.0000000000000000  0.0696237980827210  T  T  T
-0.0000000000000000  -0.0000000000000000  0.1581182523440746  T  T  T
0.3333333333333357  0.6666666666666643  0.1132278559399018  T  T  T
0.3333333333333357  0.6666666666666643  0.0315767431795844  T  T  T
0.6666666666666643  0.3333333333333357  0.1961831135489667  T  T  T
0.3333333333333357  0.6666666666666643  0.0000000000000000  T  T  T
0.6666666666666643  0.3333333333333357  0.2277996049578588  T  T  T

0.00000000E+00  0.00000000E+00  0.00000000E+00
0.00000000E+00  0.00000000E+00  0.00000000E+00
0.00000000E+00  0.00000000E+00  0.00000000E+00
0.00000000E+00  0.00000000E+00  0.00000000E+00
0.00000000E+00  0.00000000E+00  0.00000000E+00
0.00000000E+00  0.00000000E+00  0.00000000E+00
0.00000000E+00  0.00000000E+00  0.00000000E+00
