Hf2N  (n=1)
1.00000000000000
3.2099644709327975  0.0000000000000000  0.0000000000000000
-1.6049822354663987  2.7799107771481646  0.0000000000000000
0.0000000000000000  0.0000000000000000  32.1620203834436680
Hf  N  H
2  3  2
Selective  dynamics
Direct
-0.0000000000000000  0.0000000000000000  0.0671508180220351  T  T  T
-0.0000000000000000  0.0000000000000000  0.1569822368399359  T  T  T
0.3333333333333357  0.6666666666666643  0.1143389834550566  T  T  T
0.3333333333333357  0.6666666666666643  0.0319312106700913  T  T  T
0.6666666666666643  0.3333333333333357  0.1908517281250995  T  T  T
0.3333333333333357  0.6666666666666643  0.0000000000000000  T  T  T
0.6666666666666643  0.3333333333333357  0.2226856490374754  T  T  T

0.00000000E+00  0.00000000E+00  0.00000000E+00
0.00000000E+00  0.00000000E+00  0.00000000E+00
0.00000000E+00  0.00000000E+00  0.00000000E+00
0.00000000E+00  0.00000000E+00  0.00000000E+00
0.00000000E+00  0.00000000E+00  0.00000000E+00
0.00000000E+00  0.00000000E+00  0.00000000E+00
0.00000000E+00  0.00000000E+00  0.00000000E+00
