Ti2C  (n=1)
1.00000000000000
3.0406316440735739  0.0000000000000000  0.0000000000000000
-1.5203158220367869  2.6332642473718861  0.0000000000000000
0.0000000000000000  0.0000000000000000  31.9381630226876823
Ti  C  N  H
2  1  2  2
Selective  dynamics
Direct
-0.0000000000000000  -0.0000000000000000  0.0650128946284404  T  T  T
-0.0000000000000000  -0.0000000000000000  0.1528687384559252  T  T  T
0.3333333333333357  0.6666666666666643  0.1101892558666040  T  T  T
0.3333333333333357  0.6666666666666643  0.0323463241734734  T  T  T
0.6666666666666643  0.3333333333333357  0.1851750860732674  T  T  T
0.3333333333333357  0.6666666666666643  0.0000000000000000  T  T  T
0.6666666666666643  0.3333333333333357  0.2172373851858376  T  T  T

0.00000000E+00  0.00000000E+00  0.00000000E+00
0.00000000E+00  0.00000000E+00  0.00000000E+00
0.00000000E+00  0.00000000E+00  0.00000000E+00
0.00000000E+00  0.00000000E+00  0.00000000E+00
0.00000000E+00  0.00000000E+00  0.00000000E+00
0.00000000E+00  0.00000000E+00  0.00000000E+00
0.00000000E+00  0.00000000E+00  0.00000000E+00
