Hf2C  (n=1)
1.00000000000000
3.2672991136139542  0.0000000000000000  0.0000000000000000
-1.6336495568069771  2.8295640342498412  0.0000000000000000
0.0000000000000000  0.0000000000000000  32.1819007808798148
Hf  C  N  H
2  1  2  2
Selective  dynamics
Direct
-0.0000000000000000  0.0000000000000000  0.0660972551872304  T  T  T
-0.0000000000000000  0.0000000000000000  0.1585086260134833  T  T  T
0.3333333333333357  0.6666666666666643  0.1132880602949030  T  T  T
0.3333333333333357  0.6666666666666643  0.0321257050680409  T  T  T
0.6666666666666643  0.3333333333333357  0.1913214726168031  T  T  T
0.3333333333333357  0.6666666666666643  0.0000000000000000  T  T  T
0.6666666666666643  0.3333333333333357  0.2231658356596135  T  T  T

0.00000000E+00  0.00000000E+00  0.00000000E+00
0.00000000E+00  0.00000000E+00  0.00000000E+00
0.00000000E+00  0.00000000E+00  0.00000000E+00
0.00000000E+00  0.00000000E+00  0.00000000E+00
0.00000000E+00  0.00000000E+00  0.00000000E+00
0.00000000E+00  0.00000000E+00  0.00000000E+00
0.00000000E+00  0.00000000E+00  0.00000000E+00
