Ta2N  (n=1)
1.00000000000000
3.0087557732157357  0.0000000000000000  0.0000000000000000
-1.5043778866078679  2.6056589334282663  0.0000000000000000
0.0000000000000000  0.0000000000000000  32.3561309248514561
Ta  N  H
2  3  2
Selective  dynamics
Direct
0.0000000000000000  0.0000000000000000  0.0694462007932389  T  T  T
0.0000000000000000  0.0000000000000000  0.1579784113953476  T  T  T
0.3333333333333357  0.6666666666666643  0.1133103388123537  T  T  T
0.3333333333333357  0.6666666666666643  0.0315688690183339  T  T  T
0.6666666666666643  0.3333333333333357  0.1956991653204259  T  T  T
0.3333333333333357  0.6666666666666643  0.0000000000000000  T  T  T
0.6666666666666643  0.3333333333333357  0.2273489046615739  T  T  T

0.00000000E+00  0.00000000E+00  0.00000000E+00
0.00000000E+00  0.00000000E+00  0.00000000E+00
0.00000000E+00  0.00000000E+00  0.00000000E+00
0.00000000E+00  0.00000000E+00  0.00000000E+00
0.00000000E+00  0.00000000E+00  0.00000000E+00
0.00000000E+00  0.00000000E+00  0.00000000E+00
0.00000000E+00  0.00000000E+00  0.00000000E+00
