Ti2N  (n=1)
1.00000000000000
2.9893761418206020  0.0000000000000000  0.0000000000000000
-1.4946880709103010  2.5888756803165864  0.0000000000000000
0.0000000000000000  0.0000000000000000  31.9011234973840132
Ti  N  H
2  3  2
Selective  dynamics
Direct
0.0000000000000000  -0.0000000000000000  0.0666002288825547  T  T  T
0.0000000000000000  -0.0000000000000000  0.1508882891987233  T  T  T
0.3333333333333357  0.6666666666666643  0.1102730581881510  T  T  T
0.3333333333333357  0.6666666666666643  0.0321975452790737  T  T  T
0.6666666666666643  0.3333333333333357  0.1842665819516343  T  T  T
0.3333333333333357  0.6666666666666643  0.0000000000000000  T  T  T
0.6666666666666643  0.3333333333333357  0.2163285408412004  T  T  T

0.00000000E+00  0.00000000E+00  0.00000000E+00
0.00000000E+00  0.00000000E+00  0.00000000E+00
0.00000000E+00  0.00000000E+00  0.00000000E+00
0.00000000E+00  0.00000000E+00  0.00000000E+00
0.00000000E+00  0.00000000E+00  0.00000000E+00
0.00000000E+00  0.00000000E+00  0.00000000E+00
0.00000000E+00  0.00000000E+00  0.00000000E+00
