Ta2C  (n=1)
1.00000000000000
3.0994577452595338  -0.0000000000000006  0.0000000000000000
-1.5497288726297669  2.6842091453982198  0.0000000000000000
0.0000000000000000  0.0000000000000000  32.1912607064889258
Ta  C  N  H
2  1  2  2
Selective  dynamics
Direct
-0.0000000000000000  -0.0000000000000000  0.0693010181567335  T  T  T
-0.0000000000000000  -0.0000000000000000  0.1554582773463595  T  T  T
0.3333333333333357  0.6666666666666643  0.1132146503535443  T  T  T
0.3333333333333357  0.6666666666666643  0.0318545720774462  T  T  T
0.6666666666666643  0.3333333333333357  0.1915697712650090  T  T  T
0.3333333333333357  0.6666666666666643  0.0000000000000000  T  T  T
0.6666666666666643  0.3333333333333357  0.2233917078320376  T  T  T

0.00000000E+00  0.00000000E+00  0.00000000E+00
0.00000000E+00  0.00000000E+00  0.00000000E+00
0.00000000E+00  0.00000000E+00  0.00000000E+00
0.00000000E+00  0.00000000E+00  0.00000000E+00
0.00000000E+00  0.00000000E+00  0.00000000E+00
0.00000000E+00  0.00000000E+00  0.00000000E+00
0.00000000E+00  0.00000000E+00  0.00000000E+00
