Ta2C  (n=1)
1.00000000000000
3.4861548199666861  0.0000000000000000  0.0000000000000005
-1.7430774099833430  3.0190986358195002  -0.0000000000000013
0.0000000000000044  -0.0000000000000093  31.5171029611287672
Ta  C  I
2  1  2
Selective  dynamics
Direct
0.0000000000000000  0.0000000000000000  0.0715843775312519  T  T  T
0.6666666666666643  0.3333333333333357  0.1351955085885720  T  T  T
0.3333333333333357  0.6666666666666643  0.1033899430599119  T  T  T
0.3333333333333357  0.6666666666666643  0.0000000000000000  T  T  T
0.3333333333333357  0.6666666666666643  0.2067798861198174  T  T  T

0.00000000E+00  0.00000000E+00  0.00000000E+00
0.00000000E+00  0.00000000E+00  0.00000000E+00
0.00000000E+00  0.00000000E+00  0.00000000E+00
0.00000000E+00  0.00000000E+00  0.00000000E+00
0.00000000E+00  0.00000000E+00  0.00000000E+00
