Hf2N  (n=1)
1.00000000000000
3.5212412723759150  -0.0000000000000003  0.0000000000000000
-1.7606206361879577  3.0494843947922372  0.0000000000000000
0.0000000000000000  0.0000000000000000  31.5890165059624763
Hf  N  I
2  1  2
Selective  dynamics
Direct
-0.0000000000000000  0.0000000000000000  0.0693782945634262  T  T  T
0.6666666666666643  0.3333333333333357  0.1392073859916829  T  T  T
0.3333333333333357  0.6666666666666643  0.1042928402775501  T  T  T
0.3333333333333357  0.6666666666666643  0.0000000000000000  T  T  T
0.3333333333333357  0.6666666666666643  0.2085856805551001  T  T  T

0.00000000E+00  0.00000000E+00  0.00000000E+00
0.00000000E+00  0.00000000E+00  0.00000000E+00
0.00000000E+00  0.00000000E+00  0.00000000E+00
0.00000000E+00  0.00000000E+00  0.00000000E+00
0.00000000E+00  0.00000000E+00  0.00000000E+00
