Cr2C  (n=1)
1.00000000000000
3.3464994006485527  0.0000000000000001  0.0000000000000000
-1.6732497003242763  2.8981534947204559  -0.0000000000000001
0.0000000000000001  0.0000000000000019  30.9637075881504629
Cr  C  I
2  1  2
Selective  dynamics
Direct
0.0000000000000000  0.0000000000000000  0.0663997066538702  T  T  T
0.6666666666666643  0.3333333333333357  0.1262034424093486  T  T  T
0.3333333333333357  0.6666666666666643  0.0963015745316046  T  T  T
0.3333333333333357  0.6666666666666643  0.0000000000000000  T  T  T
0.3333333333333357  0.6666666666666643  0.1926031490632188  T  T  T

0.00000000E+00  0.00000000E+00  0.00000000E+00
0.00000000E+00  0.00000000E+00  0.00000000E+00
0.00000000E+00  0.00000000E+00  0.00000000E+00
0.00000000E+00  0.00000000E+00  0.00000000E+00
0.00000000E+00  0.00000000E+00  0.00000000E+00
