Ti2C  (n=1)
1.00000000000000
3.4320711719253647  0.0000000000000000  0.0000000000000000
-1.7160355859626824  2.9722608225584417  -0.0000000000000001
0.0000000000000002  0.0000000000000004  31.2303361173900207
Ti  C  I
2  1  2
Selective  dynamics
Direct
-0.0000000000000000  -0.0000000000000000  0.0656809118533922  T  T  T
0.6666666666666643  0.3333333333333357  0.1338153757936937  T  T  T
0.3333333333333357  0.6666666666666643  0.0997481438235473  T  T  T
0.3333333333333357  0.6666666666666643  0.0000000000000000  T  T  T
0.3333333333333357  0.6666666666666643  0.1994962876470861  T  T  T

0.00000000E+00  0.00000000E+00  0.00000000E+00
0.00000000E+00  0.00000000E+00  0.00000000E+00
0.00000000E+00  0.00000000E+00  0.00000000E+00
0.00000000E+00  0.00000000E+00  0.00000000E+00
0.00000000E+00  0.00000000E+00  0.00000000E+00
