Zr2N  (n=1)
1.00000000000000
3.5589205653983527  0.0000000000000005  -0.0000000000000001
-1.7794602826991763  3.0821156198848434  0.0000000000000004
-0.0000000000000011  0.0000000000000019  31.7057360994710358
Zr  N  I
2  1  2
Selective  dynamics
Direct
0.0000000000000000  0.0000000000000000  0.0701577033501325  T  T  T
0.6666666666666643  0.3333333333333357  0.1413414423701627  T  T  T
0.3333333333333357  0.6666666666666643  0.1057495728601442  T  T  T
0.3333333333333357  0.6666666666666643  0.0000000000000000  T  T  T
0.3333333333333357  0.6666666666666643  0.2114991457202885  T  T  T

0.00000000E+00  0.00000000E+00  0.00000000E+00
0.00000000E+00  0.00000000E+00  0.00000000E+00
0.00000000E+00  0.00000000E+00  0.00000000E+00
0.00000000E+00  0.00000000E+00  0.00000000E+00
0.00000000E+00  0.00000000E+00  0.00000000E+00
