Nb2N  (n=1)
1.00000000000000
3.3883309270569111  0.0000000000000000  0.0000000000000000
-1.6941654635284555  2.9343806593746877  0.0000000000000000
0.0000000000000001  0.0000000000000000  31.6699778305296960
Nb  N  I
2  1  2
Selective  dynamics
Direct
0.0000000000000000  0.0000000000000000  0.0695622871018201  T  T  T
0.6666666666666643  0.3333333333333357  0.1410465698484954  T  T  T
0.3333333333333357  0.6666666666666643  0.1053044284751578  T  T  T
0.3333333333333357  0.6666666666666643  0.0000000000000000  T  T  T
0.3333333333333357  0.6666666666666643  0.2106088569503156  T  T  T

0.00000000E+00  0.00000000E+00  0.00000000E+00
0.00000000E+00  0.00000000E+00  0.00000000E+00
0.00000000E+00  0.00000000E+00  0.00000000E+00
0.00000000E+00  0.00000000E+00  0.00000000E+00
0.00000000E+00  0.00000000E+00  0.00000000E+00
