Zr2C  (n=1)
1.00000000000000
3.5896168036194944  -0.0000000000000008  0.0000000000000004
-1.7948084018097470  3.1086993418897944  -0.0000000000000002
0.0000000000000010  -0.0000000000000029  31.7163779586945651
Zr  C  I
2  1  2
Selective  dynamics
Direct
-0.0000000000000000  0.0000000000000000  0.0682283088798657  T  T  T
0.6666666666666643  0.3333333333333357  0.1435354040964887  T  T  T
0.3333333333333357  0.6666666666666643  0.1058818564881813  T  T  T
0.3333333333333357  0.6666666666666643  0.0000000000000000  T  T  T
0.3333333333333357  0.6666666666666643  0.2117637129763542  T  T  T

0.00000000E+00  0.00000000E+00  0.00000000E+00
0.00000000E+00  0.00000000E+00  0.00000000E+00
0.00000000E+00  0.00000000E+00  0.00000000E+00
0.00000000E+00  0.00000000E+00  0.00000000E+00
0.00000000E+00  0.00000000E+00  0.00000000E+00
