Cr2N  (n=1)
1.00000000000000
3.2943605925634070  -0.0000000000000000  -0.0000000000000000
-1.6471802962817035  2.8529999626250122  -0.0000000000000000
-0.0000000000000000  -0.0000000000000003  31.1146016363676878
Cr  N  I
2  1  2
Selective  dynamics
Direct
-0.0000000000000000  -0.0000000000000000  0.0698952191862444  T  T  T
0.6666666666666643  0.3333333333333357  0.1266234991900424  T  T  T
0.3333333333333357  0.6666666666666643  0.0982593591881433  T  T  T
0.3333333333333357  0.6666666666666643  0.0000000000000000  T  T  T
0.3333333333333357  0.6666666666666643  0.1965187183762866  T  T  T

0.00000000E+00  0.00000000E+00  0.00000000E+00
0.00000000E+00  0.00000000E+00  0.00000000E+00
0.00000000E+00  0.00000000E+00  0.00000000E+00
0.00000000E+00  0.00000000E+00  0.00000000E+00
0.00000000E+00  0.00000000E+00  0.00000000E+00
