Sc2N
1.00000000000000
3.5486754819160304  0.0000000000000000  0.0000000000000002
-1.7743377409580154  3.0732431171871473  0.0000000000000000
0.0000000000000004  0.0000000000000005  31.5588685688613673
Sc  N  I
2  1  2
Selective  dynamics
Direct
-0.0000000000000000  -0.0000000000000000  0.0666823443487565  T  T  T
0.6666666666666643  0.3333333333333357  0.1411473043773990  T  T  T
0.3333333333333357  0.6666666666666643  0.1039148243630778  T  T  T
0.3333333333333357  0.6666666666666643  0.0000000000000000  T  T  T
0.3333333333333357  0.6666666666666643  0.2078296487261555  T  T  T

0.00000000E+00  0.00000000E+00  0.00000000E+00
0.00000000E+00  0.00000000E+00  0.00000000E+00
0.00000000E+00  0.00000000E+00  0.00000000E+00
0.00000000E+00  0.00000000E+00  0.00000000E+00
0.00000000E+00  0.00000000E+00  0.00000000E+00
