Ti2N  (n=1)
1.00000000000000
3.4001103739576779  0.0000000000000000  0.0000000000000000
-1.7000551869788390  2.9445819596774676  0.0000000000000000
-0.0000000000000001  0.0000000000000010  31.2364823741443800
Ti  N  I
2  1  2
Selective  dynamics
Direct
0.0000000000000000  0.0000000000000000  0.0680730613154626  T  T  T
0.6666666666666643  0.3333333333333357  0.1315807377085512  T  T  T
0.3333333333333357  0.6666666666666643  0.0998268995120038  T  T  T
0.3333333333333357  0.6666666666666643  0.0000000000000000  T  T  T
0.3333333333333357  0.6666666666666643  0.1996537990240076  T  T  T

0.00000000E+00  0.00000000E+00  0.00000000E+00
0.00000000E+00  0.00000000E+00  0.00000000E+00
0.00000000E+00  0.00000000E+00  0.00000000E+00
0.00000000E+00  0.00000000E+00  0.00000000E+00
0.00000000E+00  0.00000000E+00  0.00000000E+00
