Hf2C  (n=1)
1.00000000000000
3.5466119331335215  0.0000000000000004  0.0000000000000000
-1.7733059665667608  3.0714560315213082  0.0000000000000000
-0.0000000000000001  -0.0000000000000027  31.6443186025099337
Hf  C  I
2  1  2
Selective  dynamics
Direct
0.0000000000000000  0.0000000000000000  0.0682039265302237  T  T  T
0.6666666666666643  0.3333333333333357  0.1417648418281801  T  T  T
0.3333333333333357  0.6666666666666643  0.1049843841791947  T  T  T
0.3333333333333357  0.6666666666666643  0.0000000000000000  T  T  T
0.3333333333333357  0.6666666666666643  0.2099687683584038  T  T  T

0.00000000E+00  0.00000000E+00  0.00000000E+00
0.00000000E+00  0.00000000E+00  0.00000000E+00
0.00000000E+00  0.00000000E+00  0.00000000E+00
0.00000000E+00  0.00000000E+00  0.00000000E+00
0.00000000E+00  0.00000000E+00  0.00000000E+00
