Nb2C  (n=1)
1.00000000000000
3.4062266262816001  0.0000000000000000  0.0000000000000000
-1.7031133131408001  2.9498787895102372  0.0000000000000000
0.0000000000000001  0.0000000000000000  31.7156958032335758
Nb  C  I
2  1  2
Selective  dynamics
Direct
0.0000000000000000  0.0000000000000000  0.0702219559685852  T  T  T
0.6666666666666643  0.3333333333333357  0.1415248032669122  T  T  T
0.3333333333333357  0.6666666666666643  0.1058733796177527  T  T  T
0.3333333333333357  0.6666666666666643  0.0000000000000000  T  T  T
0.3333333333333357  0.6666666666666643  0.2117467592354974  T  T  T

0.00000000E+00  0.00000000E+00  0.00000000E+00
0.00000000E+00  0.00000000E+00  0.00000000E+00
0.00000000E+00  0.00000000E+00  0.00000000E+00
0.00000000E+00  0.00000000E+00  0.00000000E+00
0.00000000E+00  0.00000000E+00  0.00000000E+00
