Mo2C  (n=1)
1.00000000000000
3.4737408631886302  0.0000000000000001  -0.0000000000000001
-1.7368704315943149  3.0083478338110554  0.0000000000000001
-0.0000000000000012  0.0000000000000003  31.3451371049810348
Mo  C  I
2  1  2
Selective  dynamics
Direct
-0.0000000000000000  -0.0000000000000000  0.0723809210886855  T  T  T
0.6666666666666643  0.3333333333333357  0.1300471966678239  T  T  T
0.3333333333333357  0.6666666666666643  0.1012140588782576  T  T  T
0.3333333333333357  0.6666666666666643  0.0000000000000000  T  T  T
0.3333333333333357  0.6666666666666643  0.2024281177565094  T  T  T

0.00000000E+00  0.00000000E+00  0.00000000E+00
0.00000000E+00  0.00000000E+00  0.00000000E+00
0.00000000E+00  0.00000000E+00  0.00000000E+00
0.00000000E+00  0.00000000E+00  0.00000000E+00
0.00000000E+00  0.00000000E+00  0.00000000E+00
