Ta2N  (n=1)
1.00000000000000
3.3469626828899472  0.0000000000000000  0.0000000000000000
-1.6734813414449736  2.8985547089832218  0.0000000000000000
0.0000000000000000  0.0000000000000000  31.7225940605059407
Ta  N  I
2  1  2
Selective  dynamics
Direct
0.0000000000000000  -0.0000000000000000  0.0694011893651750  T  T  T
0.6666666666666643  0.3333333333333357  0.1425169799901946  T  T  T
0.3333333333333357  0.6666666666666643  0.1059590846776889  T  T  T
0.3333333333333357  0.6666666666666643  0.0000000000000000  T  T  T
0.3333333333333357  0.6666666666666643  0.2119181693553697  T  T  T

0.00000000E+00  0.00000000E+00  0.00000000E+00
0.00000000E+00  0.00000000E+00  0.00000000E+00
0.00000000E+00  0.00000000E+00  0.00000000E+00
0.00000000E+00  0.00000000E+00  0.00000000E+00
0.00000000E+00  0.00000000E+00  0.00000000E+00
