Mo2N  (n=1)
1.00000000000000
3.5379245770322978  0.0000000000000007  0.0000000000000002
-1.7689622885161480  3.0639325606930243  -0.0000000000000007
0.0000000000000019  -0.0000000000000085  31.2125466067646187
Mo  N  I
2  1  2
Selective  dynamics
Direct
-0.0000000000000000  -0.0000000000000000  0.0732389091721183  T  T  T
0.6666666666666643  0.3333333333333357  0.1258011334438913  T  T  T
0.3333333333333357  0.6666666666666643  0.0995200213080022  T  T  T
0.3333333333333357  0.6666666666666643  0.0000000000000000  T  T  T
0.3333333333333357  0.6666666666666643  0.1990400426160097  T  T  T

0.00000000E+00  0.00000000E+00  0.00000000E+00
0.00000000E+00  0.00000000E+00  0.00000000E+00
0.00000000E+00  0.00000000E+00  0.00000000E+00
0.00000000E+00  0.00000000E+00  0.00000000E+00
0.00000000E+00  0.00000000E+00  0.00000000E+00
