Sc2C  (n=1)
1.00000000000000
3.6242313412219587  -0.0000000000000002  0.0000000000000000
-1.8121156706109793  3.1386764110159708  -0.0000000000000000
0.0000000000000013  -0.0000000000000012  31.6795894084084146
Sc  C  I
2  1  2
Selective  dynamics
Direct
0.0000000000000000  -0.0000000000000000  0.0670950591380642  T  T  T
0.6666666666666643  0.3333333333333357  0.1437532988471479  T  T  T
0.3333333333333357  0.6666666666666643  0.1054241789926026  T  T  T
0.3333333333333357  0.6666666666666643  0.0000000000000000  T  T  T
0.3333333333333357  0.6666666666666643  0.2108483579852053  T  T  T

0.00000000E+00  0.00000000E+00  0.00000000E+00
0.00000000E+00  0.00000000E+00  0.00000000E+00
0.00000000E+00  0.00000000E+00  0.00000000E+00
0.00000000E+00  0.00000000E+00  0.00000000E+00
0.00000000E+00  0.00000000E+00  0.00000000E+00
