Nb4C3  (n=3)
1.00000000000000
3.1531745688518527  0.0000000000000000  0.0000000000000000
-1.5765872844259263  2.7307292793665554  0.0000000000000000
0.0000000000000000  0.0000000000000001  34.7267050685332350
Nb  C  H
4  3  2
Selective  dynamics
Direct
-0.0000000000000000  -0.0000000000000000  0.0297898790137232  T  T  T
0.6666666666666643  0.3333333333333357  0.1011767017149980  T  T  T
0.3333333333333357  0.6666666666666643  0.1789162425864426  T  T  T
0.0000000000000000  0.0000000000000000  0.2503030652877174  T  T  T
0.3333333333333357  0.6666666666666643  0.0638798278294189  T  T  T
0.0000000000000000  -0.0000000000000000  0.1400464721507243  T  T  T
0.6666666666666643  0.3333333333333357  0.2162131164720138  T  T  T
0.6666666666666643  0.3333333333333357  0.0000000000000000  T  T  T
0.3333333333333357  0.6666666666666643  0.2800929443014407  T  T  T

0.00000000E+00  0.00000000E+00  0.00000000E+00
0.00000000E+00  0.00000000E+00  0.00000000E+00
0.00000000E+00  0.00000000E+00  0.00000000E+00
0.00000000E+00  0.00000000E+00  0.00000000E+00
0.00000000E+00  0.00000000E+00  0.00000000E+00
0.00000000E+00  0.00000000E+00  0.00000000E+00
0.00000000E+00  0.00000000E+00  0.00000000E+00
0.00000000E+00  0.00000000E+00  0.00000000E+00
0.00000000E+00  0.00000000E+00  0.00000000E+00
