Mo4N3  (n=3)
1.00000000000000
2.8038491412423672  0.0000000000000001  -0.0000000000000001
-1.4019245706211838  2.4282045847353411  -0.0000000000000002
0.0000000000000034  -0.0000000000000029  36.1137794699906678
Mo  N  H
4  3  2
Selective  dynamics
Direct
-0.0000000000000000  0.0000000000000000  0.0318329436077436  T  T  T
0.6666666666666643  0.3333333333333357  0.1133372492269960  T  T  T
0.3333333333333357  0.6666666666666643  0.1944062113882475  T  T  T
-0.0000000000000000  -0.0000000000000000  0.2759105170074999  T  T  T
0.3333333333333357  0.6666666666666643  0.0713856363139214  T  T  T
-0.0000000000000000  -0.0000000000000000  0.1538717303076218  T  T  T
0.6666666666666643  0.3333333333333357  0.2363578243013063  T  T  T
0.6666666666666643  0.3333333333333357  0.0000000000000000  T  T  T
0.3333333333333357  0.6666666666666643  0.3077434606152437  T  T  T

0.00000000E+00  0.00000000E+00  0.00000000E+00
0.00000000E+00  0.00000000E+00  0.00000000E+00
0.00000000E+00  0.00000000E+00  0.00000000E+00
0.00000000E+00  0.00000000E+00  0.00000000E+00
0.00000000E+00  0.00000000E+00  0.00000000E+00
0.00000000E+00  0.00000000E+00  0.00000000E+00
0.00000000E+00  0.00000000E+00  0.00000000E+00
0.00000000E+00  0.00000000E+00  0.00000000E+00
0.00000000E+00  0.00000000E+00  0.00000000E+00
