Hf4C3  (n=3)
1.00000000000000
3.2890772954688239  -0.0000000000000004  0.0000000000000000
-1.6445386477344119  2.8484244931304459  -0.0000000000000001
-0.0000000000000012  -0.0000000000000005  34.8313573270345955
Hf  C  H
4  3  2
Selective  dynamics
Direct
-0.0000000000000000  -0.0000000000000000  0.0299179294479666  T  T  T
0.6666666666666643  0.3333333333333357  0.1040330694769390  T  T  T
0.3333333333333357  0.6666666666666643  0.1782228654476507  T  T  T
0.0000000000000000  0.0000000000000000  0.2523380054766230  T  T  T
0.3333333333333357  0.6666666666666643  0.0627663426478224  T  T  T
0.0000000000000000  0.0000000000000000  0.1411279674622989  T  T  T
0.6666666666666643  0.3333333333333357  0.2194895922767592  T  T  T
0.6666666666666643  0.3333333333333357  0.0000000000000000  T  T  T
0.3333333333333357  0.6666666666666643  0.2822559349245894  T  T  T

0.00000000E+00  0.00000000E+00  0.00000000E+00
0.00000000E+00  0.00000000E+00  0.00000000E+00
0.00000000E+00  0.00000000E+00  0.00000000E+00
0.00000000E+00  0.00000000E+00  0.00000000E+00
0.00000000E+00  0.00000000E+00  0.00000000E+00
0.00000000E+00  0.00000000E+00  0.00000000E+00
0.00000000E+00  0.00000000E+00  0.00000000E+00
0.00000000E+00  0.00000000E+00  0.00000000E+00
0.00000000E+00  0.00000000E+00  0.00000000E+00
