Ta4C3  (n=3)
1.00000000000000
3.1318617322703677  0.0000000000000000  0.0000000000000000
-1.5659308661351838  2.7122718214382058  0.0000000000000000
0.0000000000000004  -0.0000000000000005  34.6796262273888374
Ta  C  H
4  3  2
Selective  dynamics
Direct
-0.0000000000000000  -0.0000000000000000  0.0297544317788791  T  T  T
0.6666666666666643  0.3333333333333357  0.1010214533548944  T  T  T
0.3333333333333357  0.6666666666666643  0.1780941912002496  T  T  T
0.0000000000000000  0.0000000000000000  0.2493612127762569  T  T  T
0.3333333333333357  0.6666666666666643  0.0638570999689020  T  T  T
-0.0000000000000000  -0.0000000000000000  0.1395578222775721  T  T  T
0.6666666666666643  0.3333333333333357  0.2152585445862340  T  T  T
0.6666666666666643  0.3333333333333357  0.0000000000000000  T  T  T
0.3333333333333357  0.6666666666666643  0.2791156445551360  T  T  T

0.00000000E+00  0.00000000E+00  0.00000000E+00
0.00000000E+00  0.00000000E+00  0.00000000E+00
0.00000000E+00  0.00000000E+00  0.00000000E+00
0.00000000E+00  0.00000000E+00  0.00000000E+00
0.00000000E+00  0.00000000E+00  0.00000000E+00
0.00000000E+00  0.00000000E+00  0.00000000E+00
0.00000000E+00  0.00000000E+00  0.00000000E+00
0.00000000E+00  0.00000000E+00  0.00000000E+00
0.00000000E+00  0.00000000E+00  0.00000000E+00
