Zr4C3  (n=3)
1.00000000000000
3.3456245676200407  0.0000000000000000  0.0000000000000000
-1.6728122838100201  2.8973958673421141  -0.0000000000000001
0.0000000000000007  0.0000000000000006  34.9810579272003608
Zr  C  H
4  3  2
Selective  dynamics
Direct
-0.0000000000000000  -0.0000000000000000  0.0300253409566934  T  T  T
0.6666666666666643  0.3333333333333357  0.1051061859678864  T  T  T
0.3333333333333357  0.6666666666666643  0.1802213175047673  T  T  T
0.0000000000000000  0.0000000000000000  0.2553021625159603  T  T  T
0.3333333333333357  0.6666666666666643  0.0632706856054548  T  T  T
0.0000000000000000  0.0000000000000000  0.1426637517363268  T  T  T
0.6666666666666643  0.3333333333333357  0.2220568178671909  T  T  T
0.6666666666666643  0.3333333333333357  0.0000000000000000  T  T  T
0.3333333333333357  0.6666666666666643  0.2853275034726537  T  T  T

0.00000000E+00  0.00000000E+00  0.00000000E+00
0.00000000E+00  0.00000000E+00  0.00000000E+00
0.00000000E+00  0.00000000E+00  0.00000000E+00
0.00000000E+00  0.00000000E+00  0.00000000E+00
0.00000000E+00  0.00000000E+00  0.00000000E+00
0.00000000E+00  0.00000000E+00  0.00000000E+00
0.00000000E+00  0.00000000E+00  0.00000000E+00
0.00000000E+00  0.00000000E+00  0.00000000E+00
0.00000000E+00  0.00000000E+00  0.00000000E+00
