Ti4C3  (n=3)
1.00000000000000
3.0692053701107289  0.0000000000000000  0.0000000000000000
-1.5346026850553645  2.6580098200010758  0.0000000000000000
0.0000000000000003  -0.0000000000000005  34.2135398691383301
Ti  C  H
4  3  2
Selective  dynamics
Direct
-0.0000000000000000  -0.0000000000000000  0.0292445191880093  T  T  T
0.6666666666666643  0.3333333333333357  0.0995241265677431  T  T  T
0.3333333333333357  0.6666666666666643  0.1697710093456626  T  T  T
0.0000000000000000  0.0000000000000000  0.2400506167253964  T  T  T
0.3333333333333357  0.6666666666666643  0.0605405136390300  T  T  T
-0.0000000000000000  0.0000000000000000  0.1346475679567029  T  T  T
0.6666666666666643  0.3333333333333357  0.2087546222743674  T  T  T
0.6666666666666643  0.3333333333333357  0.0000000000000000  T  T  T
0.3333333333333357  0.6666666666666643  0.2692951359134055  T  T  T

0.00000000E+00  0.00000000E+00  0.00000000E+00
0.00000000E+00  0.00000000E+00  0.00000000E+00
0.00000000E+00  0.00000000E+00  0.00000000E+00
0.00000000E+00  0.00000000E+00  0.00000000E+00
0.00000000E+00  0.00000000E+00  0.00000000E+00
0.00000000E+00  0.00000000E+00  0.00000000E+00
0.00000000E+00  0.00000000E+00  0.00000000E+00
0.00000000E+00  0.00000000E+00  0.00000000E+00
0.00000000E+00  0.00000000E+00  0.00000000E+00
