Zr4N3  (n=3)
1.00000000000000
3.2360284363596135  0.0000000000000000  0.0000000000000000
-1.6180142181798065  2.8024828334581051  0.0000000000000000
0.0000000000000001  -0.0000000000000005  35.0131910332929408
Zr  N  H
4  3  2
Selective  dynamics
Direct
0.0000000000000000  0.0000000000000000  0.0298269656004201  T  T  T
0.6666666666666643  0.3333333333333357  0.1033159452294478  T  T  T
0.3333333333333357  0.6666666666666643  0.1826674438244581  T  T  T
-0.0000000000000000  0.0000000000000000  0.2561564234534936  T  T  T
0.3333333333333357  0.6666666666666643  0.0663953140721269  T  T  T
-0.0000000000000000  -0.0000000000000000  0.1429916945269530  T  T  T
0.6666666666666643  0.3333333333333357  0.2195880749817708  T  T  T
0.6666666666666643  0.3333333333333357  0.0000000000000000  T  T  T
0.3333333333333357  0.6666666666666643  0.2859833890539059  T  T  T

0.00000000E+00  0.00000000E+00  0.00000000E+00
0.00000000E+00  0.00000000E+00  0.00000000E+00
0.00000000E+00  0.00000000E+00  0.00000000E+00
0.00000000E+00  0.00000000E+00  0.00000000E+00
0.00000000E+00  0.00000000E+00  0.00000000E+00
0.00000000E+00  0.00000000E+00  0.00000000E+00
0.00000000E+00  0.00000000E+00  0.00000000E+00
0.00000000E+00  0.00000000E+00  0.00000000E+00
0.00000000E+00  0.00000000E+00  0.00000000E+00
