Nb4N3  (n=3)
1.00000000000000
3.1758803090988756  0.0000000000000000  0.0000000000000000
-1.5879401545494380  2.7503930271964601  0.0000000000000000
0.0000000000000000  0.0000000000000002  34.4203233710075409
Nb  N  H
4  3  2
Selective  dynamics
Direct
-0.0000000000000000  0.0000000000000000  0.0310034145862257  T  T  T
0.6666666666666643  0.3333333333333357  0.0971678557427042  T  T  T
0.3333333333333357  0.6666666666666643  0.1765170620155741  T  T  T
0.0000000000000000  0.0000000000000000  0.2426815031720525  T  T  T
0.3333333333333357  0.6666666666666643  0.0613149212482873  T  T  T
-0.0000000000000000  0.0000000000000000  0.1368424588791431  T  T  T
0.6666666666666643  0.3333333333333357  0.2123699965099910  T  T  T
0.6666666666666643  0.3333333333333357  0.0000000000000000  T  T  T
0.3333333333333357  0.6666666666666643  0.2736849177582783  T  T  T

0.00000000E+00  0.00000000E+00  0.00000000E+00
0.00000000E+00  0.00000000E+00  0.00000000E+00
0.00000000E+00  0.00000000E+00  0.00000000E+00
0.00000000E+00  0.00000000E+00  0.00000000E+00
0.00000000E+00  0.00000000E+00  0.00000000E+00
0.00000000E+00  0.00000000E+00  0.00000000E+00
0.00000000E+00  0.00000000E+00  0.00000000E+00
0.00000000E+00  0.00000000E+00  0.00000000E+00
0.00000000E+00  0.00000000E+00  0.00000000E+00
