Mo4C3  (n=3)
1.00000000000000
3.0999218048087696  0.0000000000000000  0.0000000000000000
-1.5499609024043848  2.6846110328254733  0.0000000000000000
-0.0000000000000002  0.0000000000000000  34.4355551054870119
Mo  C  H
4  3  2
Selective  dynamics
Direct
0.0000000000000000  -0.0000000000000000  0.0323549168443576  T  T  T
0.6666666666666643  0.3333333333333357  0.0987199350174438  T  T  T
0.3333333333333357  0.6666666666666643  0.1752862506410475  T  T  T
-0.0000000000000000  -0.0000000000000000  0.2416512688141257  T  T  T
0.3333333333333357  0.6666666666666643  0.0615391981762557  T  T  T
-0.0000000000000000  -0.0000000000000000  0.1370030928292417  T  T  T
0.6666666666666643  0.3333333333333357  0.2124669874822278  T  T  T
0.6666666666666643  0.3333333333333357  0.0000000000000000  T  T  T
0.3333333333333357  0.6666666666666643  0.2740061856584833  T  T  T

0.00000000E+00  0.00000000E+00  0.00000000E+00
0.00000000E+00  0.00000000E+00  0.00000000E+00
0.00000000E+00  0.00000000E+00  0.00000000E+00
0.00000000E+00  0.00000000E+00  0.00000000E+00
0.00000000E+00  0.00000000E+00  0.00000000E+00
0.00000000E+00  0.00000000E+00  0.00000000E+00
0.00000000E+00  0.00000000E+00  0.00000000E+00
0.00000000E+00  0.00000000E+00  0.00000000E+00
0.00000000E+00  0.00000000E+00  0.00000000E+00
