Hf4N3  (n=3)
1.00000000000000
3.1756286707630736  0.0000000000000001  0.0000000000000000
-1.5878143353815368  2.7501751020464078  0.0000000000000000
0.0000000000000000  -0.0000000000000005  34.8254007758756927
Hf  N  H
4  3  2
Selective  dynamics
Direct
0.0000000000000000  0.0000000000000000  0.0290251429577156  T  T  T
0.6666666666666643  0.3333333333333357  0.1021347145489991  T  T  T
0.3333333333333357  0.6666666666666643  0.1799984571295951  T  T  T
-0.0000000000000000  -0.0000000000000000  0.2531080287208785  T  T  T
0.3333333333333357  0.6666666666666643  0.0653033527453079  T  T  T
-0.0000000000000000  0.0000000000000000  0.1410665858392971  T  T  T
0.6666666666666643  0.3333333333333357  0.2168298189332703  T  T  T
0.6666666666666643  0.3333333333333357  0.0000000000000000  T  T  T
0.3333333333333357  0.6666666666666643  0.2821331716785859  T  T  T

0.00000000E+00  0.00000000E+00  0.00000000E+00
0.00000000E+00  0.00000000E+00  0.00000000E+00
0.00000000E+00  0.00000000E+00  0.00000000E+00
0.00000000E+00  0.00000000E+00  0.00000000E+00
0.00000000E+00  0.00000000E+00  0.00000000E+00
0.00000000E+00  0.00000000E+00  0.00000000E+00
0.00000000E+00  0.00000000E+00  0.00000000E+00
0.00000000E+00  0.00000000E+00  0.00000000E+00
0.00000000E+00  0.00000000E+00  0.00000000E+00
