Ti4N3  (n=3)
1.00000000000000
2.9719613473208355  -0.0000000000000003  0.0000000000000000
-1.4859806736604180  2.5737940258834273  0.0000000000000000
0.0000000000000000  0.0000000000000004  34.2695697832937825
Ti  N  H
4  3  2
Selective  dynamics
Direct
-0.0000000000000000  -0.0000000000000000  0.0291192838196185  T  T  T
0.6666666666666643  0.3333333333333357  0.0982425999354550  T  T  T
0.3333333333333357  0.6666666666666643  0.1722472206812209  T  T  T
0.0000000000000000  0.0000000000000000  0.2413705367970573  T  T  T
0.3333333333333357  0.6666666666666643  0.0628069307913710  T  T  T
0.0000000000000000  0.0000000000000000  0.1352449103083339  T  T  T
0.6666666666666643  0.3333333333333357  0.2076828898252969  T  T  T
0.6666666666666643  0.3333333333333357  0.0000000000000000  T  T  T
0.3333333333333357  0.6666666666666643  0.2704898206166756  T  T  T

0.00000000E+00  0.00000000E+00  0.00000000E+00
0.00000000E+00  0.00000000E+00  0.00000000E+00
0.00000000E+00  0.00000000E+00  0.00000000E+00
0.00000000E+00  0.00000000E+00  0.00000000E+00
0.00000000E+00  0.00000000E+00  0.00000000E+00
0.00000000E+00  0.00000000E+00  0.00000000E+00
0.00000000E+00  0.00000000E+00  0.00000000E+00
0.00000000E+00  0.00000000E+00  0.00000000E+00
0.00000000E+00  0.00000000E+00  0.00000000E+00
