Sc4C3  (n=3)
1.00000000000000
3.2916753368188596  0.0000000000000000  -0.0000000000000002
-1.6458376684094298  2.8506744628047334  0.0000000000000002
-0.0000000000000020  0.0000000000000011  35.0187377022259767
Sc  C  H
4  3  2
Selective  dynamics
Direct
-0.0000000000000000  -0.0000000000000000  0.0287300007422638  T  T  T
0.6666666666666643  0.3333333333333357  0.1032489270414412  T  T  T
0.3333333333333357  0.6666666666666643  0.1828475561447341  T  T  T
0.0000000000000000  0.0000000000000000  0.2573664824439031  T  T  T
0.3333333333333357  0.6666666666666643  0.0639305063989418  T  T  T
-0.0000000000000000  -0.0000000000000000  0.1430482415930877  T  T  T
0.6666666666666643  0.3333333333333357  0.2221659767872252  T  T  T
0.6666666666666643  0.3333333333333357  0.0000000000000000  T  T  T
0.3333333333333357  0.6666666666666643  0.2860964831861753  T  T  T

0.00000000E+00  0.00000000E+00  0.00000000E+00
0.00000000E+00  0.00000000E+00  0.00000000E+00
0.00000000E+00  0.00000000E+00  0.00000000E+00
0.00000000E+00  0.00000000E+00  0.00000000E+00
0.00000000E+00  0.00000000E+00  0.00000000E+00
0.00000000E+00  0.00000000E+00  0.00000000E+00
0.00000000E+00  0.00000000E+00  0.00000000E+00
0.00000000E+00  0.00000000E+00  0.00000000E+00
0.00000000E+00  0.00000000E+00  0.00000000E+00
