Cr4N3  (n=3)
1.00000000000000
2.8252118790010377  0.0000000000000000  0.0000000000000000
-1.4126059395005188  2.4467052583038118  0.0000000000000000
0.0000000000000000  0.0000000000000005  34.1682231673247401
Cr  N  H
4  3  2
Selective  dynamics
Direct
0.0000000000000000  -0.0000000000000000  0.0282754727926576  T  T  T
0.6666666666666643  0.3333333333333357  0.0978406016891635  T  T  T
0.3333333333333357  0.6666666666666643  0.1704854134631949  T  T  T
-0.0000000000000000  -0.0000000000000000  0.2400505423596926  T  T  T
0.3333333333333357  0.6666666666666643  0.0608896323659494  T  T  T
0.0000000000000000  0.0000000000000000  0.1341630075761833  T  T  T
0.6666666666666643  0.3333333333333357  0.2074363827863846  T  T  T
0.6666666666666643  0.3333333333333357  0.0000000000000000  T  T  T
0.3333333333333357  0.6666666666666643  0.2683260151523584  T  T  T

0.00000000E+00  0.00000000E+00  0.00000000E+00
0.00000000E+00  0.00000000E+00  0.00000000E+00
0.00000000E+00  0.00000000E+00  0.00000000E+00
0.00000000E+00  0.00000000E+00  0.00000000E+00
0.00000000E+00  0.00000000E+00  0.00000000E+00
0.00000000E+00  0.00000000E+00  0.00000000E+00
0.00000000E+00  0.00000000E+00  0.00000000E+00
0.00000000E+00  0.00000000E+00  0.00000000E+00
0.00000000E+00  0.00000000E+00  0.00000000E+00
