Sc4N3  (n=3)
1.00000000000000
3.1883359202343975  0.0000000000000000  0.0000000000000000
-1.5941679601171987  2.7611799028863757  -0.0000000000000001
-0.0000000000000003  0.0000000000000013  34.7406552627775440
Sc  N  H
4  3  2
Selective  dynamics
Direct
0.0000000000000000  0.0000000000000000  0.0305432659079788  T  T  T
0.6666666666666643  0.3333333333333357  0.1037940284866426  T  T  T
0.3333333333333357  0.6666666666666643  0.1765879962362569  T  T  T
-0.0000000000000000  -0.0000000000000000  0.2498387588149208  T  T  T
0.3333333333333357  0.6666666666666643  0.0633699561858494  T  T  T
0.0000000000000000  0.0000000000000000  0.1401910123614498  T  T  T
0.6666666666666643  0.3333333333333357  0.2170120685370422  T  T  T
0.6666666666666643  0.3333333333333357  0.0000000000000000  T  T  T
0.3333333333333357  0.6666666666666643  0.2803820247228915  T  T  T

0.00000000E+00  0.00000000E+00  0.00000000E+00
0.00000000E+00  0.00000000E+00  0.00000000E+00
0.00000000E+00  0.00000000E+00  0.00000000E+00
0.00000000E+00  0.00000000E+00  0.00000000E+00
0.00000000E+00  0.00000000E+00  0.00000000E+00
0.00000000E+00  0.00000000E+00  0.00000000E+00
0.00000000E+00  0.00000000E+00  0.00000000E+00
0.00000000E+00  0.00000000E+00  0.00000000E+00
0.00000000E+00  0.00000000E+00  0.00000000E+00
