Ta4N3  (n=3)
1.00000000000000
3.0411882512307282  0.0000000000000001  0.0000000000000000
-1.5205941256153643  2.6337462833330907  -0.0000000000000001
-0.0000000000000001  0.0000000000000001  34.9028551934814644
Ta  N  H
4  3  2
Selective  dynamics
Direct
-0.0000000000000000  -0.0000000000000000  0.0292339132833295  T  T  T
0.6666666666666643  0.3333333333333357  0.1052489340510045  T  T  T
0.3333333333333357  0.6666666666666643  0.1784772865858454  T  T  T
0.0000000000000000  0.0000000000000000  0.2544923073535122  T  T  T
0.3333333333333357  0.6666666666666643  0.0661544344414759  T  T  T
0.0000000000000000  0.0000000000000000  0.1418631103184209  T  T  T
0.6666666666666643  0.3333333333333357  0.2175717861953580  T  T  T
0.6666666666666643  0.3333333333333357  0.0000000000000000  T  T  T
0.3333333333333357  0.6666666666666643  0.2837262206368419  T  T  T

0.00000000E+00  0.00000000E+00  0.00000000E+00
0.00000000E+00  0.00000000E+00  0.00000000E+00
0.00000000E+00  0.00000000E+00  0.00000000E+00
0.00000000E+00  0.00000000E+00  0.00000000E+00
0.00000000E+00  0.00000000E+00  0.00000000E+00
0.00000000E+00  0.00000000E+00  0.00000000E+00
0.00000000E+00  0.00000000E+00  0.00000000E+00
0.00000000E+00  0.00000000E+00  0.00000000E+00
0.00000000E+00  0.00000000E+00  0.00000000E+00
