Cr4C3  (n=3)
1.00000000000000
2.9045444941871383  -0.0000000000000001  0.0000000000000000
-1.4522722470935689  2.5154093183832846  0.0000000000000001
0.0000000000000016  -0.0000000000000014  33.6941154986108344
Cr  C  H
4  3  2
Selective  dynamics
Direct
0.0000000000000000  0.0000000000000000  0.0293365678034155  T  T  T
0.6666666666666643  0.3333333333333357  0.0930032459577292  T  T  T
0.3333333333333357  0.6666666666666643  0.1650274329888448  T  T  T
-0.0000000000000000  -0.0000000000000000  0.2286941111431584  T  T  T
0.3333333333333357  0.6666666666666643  0.0581018465944386  T  T  T
-0.0000000000000000  0.0000000000000000  0.1290153394732870  T  T  T
0.6666666666666643  0.3333333333333357  0.1999288323521277  T  T  T
0.6666666666666643  0.3333333333333357  0.0000000000000000  T  T  T
0.3333333333333357  0.6666666666666643  0.2580306789465740  T  T  T

0.00000000E+00  0.00000000E+00  0.00000000E+00
0.00000000E+00  0.00000000E+00  0.00000000E+00
0.00000000E+00  0.00000000E+00  0.00000000E+00
0.00000000E+00  0.00000000E+00  0.00000000E+00
0.00000000E+00  0.00000000E+00  0.00000000E+00
0.00000000E+00  0.00000000E+00  0.00000000E+00
0.00000000E+00  0.00000000E+00  0.00000000E+00
0.00000000E+00  0.00000000E+00  0.00000000E+00
0.00000000E+00  0.00000000E+00  0.00000000E+00
