Nb3N2  (n=2)
1.00000000000000
3.0021632489212009  0.0000000000000000  0.0000000000000000
-1.5010816244606004  2.5999496399478179  0.0000000000000000
0.0000000000000000  0.0000000000000005  32.9121391011439428
Nb  N  O
3  2  2
Selective  dynamics
Direct
0.0000000000000000  0.0000000000000000  0.0359729375945083  T  T  T
0.6666666666666643  0.3333333333333357  0.1202009246015391  T  T  T
0.3333333333333357  0.6666666666666643  0.2044289116085699  T  T  T
0.3333333333333357  0.6666666666666643  0.0774245231413632  T  T  T
0.0000000000000000  0.0000000000000000  0.1629773260617066  T  T  T
0.3333333333333357  0.6666666666666643  0.0000000000000000  T  T  T
0.0000000000000000  0.0000000000000000  0.2404018492030782  T  T  T

0.00000000E+00  0.00000000E+00  0.00000000E+00
0.00000000E+00  0.00000000E+00  0.00000000E+00
0.00000000E+00  0.00000000E+00  0.00000000E+00
0.00000000E+00  0.00000000E+00  0.00000000E+00
0.00000000E+00  0.00000000E+00  0.00000000E+00
0.00000000E+00  0.00000000E+00  0.00000000E+00
0.00000000E+00  0.00000000E+00  0.00000000E+00
