Hf3C2  (n=2)
1.00000000000000
3.2155058833876469  0.0000000000000000  0.0000000000000000
-1.6077529416938234  2.7847097811877286  0.0000000000000000
0.0000000000000000  -0.0000000000000008  32.6614606456065815
Hf  C  O
3  2  2
Selective  dynamics
Direct
0.0000000000000000  0.0000000000000000  0.0319713591559358  T  T  T
0.6666666666666643  0.3333333333333357  0.1172859464054183  T  T  T
0.3333333333333357  0.6666666666666643  0.2026005336549008  T  T  T
0.3333333333333357  0.6666666666666643  0.0764972971060900  T  T  T
0.0000000000000000  0.0000000000000000  0.1580745957047384  T  T  T
0.3333333333333357  0.6666666666666643  0.0000000000000000  T  T  T
0.0000000000000000  0.0000000000000000  0.2345718928108365  T  T  T

0.00000000E+00  0.00000000E+00  0.00000000E+00
0.00000000E+00  0.00000000E+00  0.00000000E+00
0.00000000E+00  0.00000000E+00  0.00000000E+00
0.00000000E+00  0.00000000E+00  0.00000000E+00
0.00000000E+00  0.00000000E+00  0.00000000E+00
0.00000000E+00  0.00000000E+00  0.00000000E+00
0.00000000E+00  0.00000000E+00  0.00000000E+00
