Ta3C2  (n=2)
1.00000000000000
3.0688739692805775  0.0000000000000000  0.0000000000000000
-1.5344369846402888  2.6577228185276680  0.0000000000000000
0.0000000000000000  0.0000000000000001  32.6381345464682795
Ta  C  O
3  2  2
Selective  dynamics
Direct
0.0000000000000000  0.0000000000000000  0.0355784914265917  T  T  T
0.6666666666666643  0.3333333333333357  0.1170124250758462  T  T  T
0.3333333333333357  0.6666666666666643  0.1984463587251088  T  T  T
0.3333333333333357  0.6666666666666643  0.0771820433133076  T  T  T
0.0000000000000000  0.0000000000000000  0.1568428068383849  T  T  T
0.3333333333333357  0.6666666666666643  0.0000000000000000  T  T  T
0.0000000000000000  0.0000000000000000  0.2340248501517005  T  T  T

0.00000000E+00  0.00000000E+00  0.00000000E+00
0.00000000E+00  0.00000000E+00  0.00000000E+00
0.00000000E+00  0.00000000E+00  0.00000000E+00
0.00000000E+00  0.00000000E+00  0.00000000E+00
0.00000000E+00  0.00000000E+00  0.00000000E+00
0.00000000E+00  0.00000000E+00  0.00000000E+00
0.00000000E+00  0.00000000E+00  0.00000000E+00
