Zr3N2  (n=2)
1.00000000000000
3.1999930086178474  0.0000000000000000  0.0000000000000000
-1.5999965043089237  2.7712752375866847  0.0000000000000000
0.0000000000000000  0.0000000000000000  32.7486447620190972
Zr  N  O
3  2  2
Selective  dynamics
Direct
0.0000000000000000  0.0000000000000000  0.0328164597541392  T  T  T
0.6666666666666643  0.3333333333333357  0.1183048156393517  T  T  T
0.3333333333333357  0.6666666666666643  0.2037931715245800  T  T  T
0.3333333333333357  0.6666666666666643  0.0782230100254463  T  T  T
0.0000000000000000  0.0000000000000000  0.1583866212532649  T  T  T
0.3333333333333357  0.6666666666666643  0.0000000000000000  T  T  T
0.0000000000000000  0.0000000000000000  0.2366096312787191  T  T  T

0.00000000E+00  0.00000000E+00  0.00000000E+00
0.00000000E+00  0.00000000E+00  0.00000000E+00
0.00000000E+00  0.00000000E+00  0.00000000E+00
0.00000000E+00  0.00000000E+00  0.00000000E+00
0.00000000E+00  0.00000000E+00  0.00000000E+00
0.00000000E+00  0.00000000E+00  0.00000000E+00
0.00000000E+00  0.00000000E+00  0.00000000E+00
