Hf3N2  (n=2)
1.00000000000000
3.1456810324145370  0.0000000000000000  0.0000000000000000
-1.5728405162072685  2.7242396864353058  0.0000000000000000
0.0000000000000000  0.0000000000000000  32.6462648803384781
Hf  N  O
3  2  2
Selective  dynamics
Direct
0.0000000000000000  0.0000000000000000  0.0326280467639717  T  T  T
0.6666666666666643  0.3333333333333357  0.1171078055692600  T  T  T
0.3333333333333357  0.6666666666666643  0.2015875643745562  T  T  T
0.3333333333333357  0.6666666666666643  0.0778118728451747  T  T  T
0.0000000000000000  0.0000000000000000  0.1564037382933375  T  T  T
0.3333333333333357  0.6666666666666643  0.0000000000000000  T  T  T
0.0000000000000000  0.0000000000000000  0.2342156111385200  T  T  T

0.00000000E+00  0.00000000E+00  0.00000000E+00
0.00000000E+00  0.00000000E+00  0.00000000E+00
0.00000000E+00  0.00000000E+00  0.00000000E+00
0.00000000E+00  0.00000000E+00  0.00000000E+00
0.00000000E+00  0.00000000E+00  0.00000000E+00
0.00000000E+00  0.00000000E+00  0.00000000E+00
0.00000000E+00  0.00000000E+00  0.00000000E+00
