Cr3C2  (n=2)
1.00000000000000
2.7365972212919196  0.0000000000000000  0.0000000000000000
-1.3682986106459598  2.3699627135661703  0.0000000000000000
0.0000000000000000  0.0000000000000004  32.2392406222250543
Cr  C  O
3  2  2
Selective  dynamics
Direct
0.0000000000000000  0.0000000000000000  0.0349561223044715  T  T  T
0.6666666666666643  0.3333333333333357  0.1122737459460181  T  T  T
0.3333333333333357  0.6666666666666643  0.1895913695875735  T  T  T
0.3333333333333357  0.6666666666666643  0.0732412681613107  T  T  T
0.0000000000000000  0.0000000000000000  0.1513062237307345  T  T  T
0.3333333333333357  0.6666666666666643  0.0000000000000000  T  T  T
0.0000000000000000  0.0000000000000000  0.2245474918920539  T  T  T

0.00000000E+00  0.00000000E+00  0.00000000E+00
0.00000000E+00  0.00000000E+00  0.00000000E+00
0.00000000E+00  0.00000000E+00  0.00000000E+00
0.00000000E+00  0.00000000E+00  0.00000000E+00
0.00000000E+00  0.00000000E+00  0.00000000E+00
0.00000000E+00  0.00000000E+00  0.00000000E+00
0.00000000E+00  0.00000000E+00  0.00000000E+00
