Sc3C2  (n=2)
1.00000000000000
3.3994185806608499  0.0000000000000000  0.0000000000000000
-1.6997092903304249  2.9439828490859323  0.0000000000000000
-0.0000000000000001  0.0000000000000004  31.4856898225676254
Sc  C  O
3  2  2
Selective  dynamics
Direct
0.0000000000000000  0.0000000000000000  0.0220747271359442  T  T  T
0.6666666666666643  0.3333333333333357  0.1029942468962352  T  T  T
0.3333333333333357  0.6666666666666643  0.1839137666565263  T  T  T
0.3333333333333357  0.6666666666666643  0.0624623173459125  T  T  T
0.0000000000000000  0.0000000000000000  0.1435261764465500  T  T  T
0.3333333333333357  0.6666666666666643  0.0000000000000000  T  T  T
0.0000000000000000  0.0000000000000000  0.2059884937924706  T  T  T

0.00000000E+00  0.00000000E+00  0.00000000E+00
0.00000000E+00  0.00000000E+00  0.00000000E+00
0.00000000E+00  0.00000000E+00  0.00000000E+00
0.00000000E+00  0.00000000E+00  0.00000000E+00
0.00000000E+00  0.00000000E+00  0.00000000E+00
0.00000000E+00  0.00000000E+00  0.00000000E+00
0.00000000E+00  0.00000000E+00  0.00000000E+00
