Nb3C2  (n=2)
1.00000000000000
3.0910663562254932  0.0000000000000000  0.0000000000000000
-1.5455331781127466  2.6769419893962736  -0.0000000000000001
0.0000000000000002  0.0000000000000004  32.6522304533664638
Nb  C  O
3  2  2
Selective  dynamics
Direct
0.0000000000000000  0.0000000000000000  0.0354647144924341  T  T  T
0.6666666666666643  0.3333333333333357  0.1171777600965926  T  T  T
0.3333333333333357  0.6666666666666643  0.1988908057007511  T  T  T
0.3333333333333357  0.6666666666666643  0.0768849435930748  T  T  T
0.0000000000000000  0.0000000000000000  0.1574705766001020  T  T  T
0.3333333333333357  0.6666666666666643  0.0000000000000000  T  T  T
0.0000000000000000  0.0000000000000000  0.2343555201931853  T  T  T

0.00000000E+00  0.00000000E+00  0.00000000E+00
0.00000000E+00  0.00000000E+00  0.00000000E+00
0.00000000E+00  0.00000000E+00  0.00000000E+00
0.00000000E+00  0.00000000E+00  0.00000000E+00
0.00000000E+00  0.00000000E+00  0.00000000E+00
0.00000000E+00  0.00000000E+00  0.00000000E+00
0.00000000E+00  0.00000000E+00  0.00000000E+00
