Ti3C2  (n=2)
1.00000000000000
3.0017260123708445  0.0000000000000000  0.0000000000000000
-1.5008630061854222  2.5995709819657873  0.0000000000000000
0.0000000000000001  0.0000000000000003  32.2120290852894087
Ti  C  O
3  2  2
Selective  dynamics
Direct
0.0000000000000000  0.0000000000000000  0.0307901396396699  T  T  T
0.6666666666666643  0.3333333333333357  0.1119462090729175  T  T  T
0.3333333333333357  0.6666666666666643  0.1931022785061735  T  T  T
0.3333333333333357  0.6666666666666643  0.0734828587144946  T  T  T
0.0000000000000000  0.0000000000000000  0.1504095594313320  T  T  T
0.3333333333333357  0.6666666666666643  0.0000000000000000  T  T  T
0.0000000000000000  0.0000000000000000  0.2238924181458348  T  T  T

0.00000000E+00  0.00000000E+00  0.00000000E+00
0.00000000E+00  0.00000000E+00  0.00000000E+00
0.00000000E+00  0.00000000E+00  0.00000000E+00
0.00000000E+00  0.00000000E+00  0.00000000E+00
0.00000000E+00  0.00000000E+00  0.00000000E+00
0.00000000E+00  0.00000000E+00  0.00000000E+00
0.00000000E+00  0.00000000E+00  0.00000000E+00
