Sc3N2  (n=2)
1.00000000000000
3.1855793725694164  0.0000000000000000  0.0000000000000000
-1.5927896862847082  2.7587926625592081  0.0000000000000000
0.0000000000000000  -0.0000000000000003  32.2945920835754663
Sc  N  O
3  2  2
Selective  dynamics
Direct
0.0000000000000000  0.0000000000000000  0.0272562563333857  T  T  T
0.6666666666666643  0.3333333333333357  0.1129382911029998  T  T  T
0.3333333333333357  0.6666666666666643  0.1986203258726217  T  T  T
0.3333333333333357  0.6666666666666643  0.0749965860213276  T  T  T
0.0000000000000000  0.0000000000000000  0.1508799961846798  T  T  T
0.3333333333333357  0.6666666666666643  0.0000000000000000  T  T  T
0.0000000000000000  0.0000000000000000  0.2258765822060154  T  T  T

0.00000000E+00  0.00000000E+00  0.00000000E+00
0.00000000E+00  0.00000000E+00  0.00000000E+00
0.00000000E+00  0.00000000E+00  0.00000000E+00
0.00000000E+00  0.00000000E+00  0.00000000E+00
0.00000000E+00  0.00000000E+00  0.00000000E+00
0.00000000E+00  0.00000000E+00  0.00000000E+00
0.00000000E+00  0.00000000E+00  0.00000000E+00
