Zr3C2  (n=2)
1.00000000000000
3.2723483488581202  0.0000000000000000  0.0000000000000000
-1.6361741744290601  2.8339368003230829  0.0000000000000000
-0.0000000000000001  -0.0000000000000013  32.7465123028042484
Zr  C  O
3  2  2
Selective  dynamics
Direct
0.0000000000000000  0.0000000000000000  0.0318875325923472  T  T  T
0.6666666666666643  0.3333333333333357  0.1182799595751282  T  T  T
0.3333333333333357  0.6666666666666643  0.2046723865579092  T  T  T
0.3333333333333357  0.6666666666666643  0.0770650763551607  T  T  T
0.0000000000000000  0.0000000000000000  0.1594948427950874  T  T  T
0.3333333333333357  0.6666666666666643  0.0000000000000000  T  T  T
0.0000000000000000  0.0000000000000000  0.2365599191502565  T  T  T

0.00000000E+00  0.00000000E+00  0.00000000E+00
0.00000000E+00  0.00000000E+00  0.00000000E+00
0.00000000E+00  0.00000000E+00  0.00000000E+00
0.00000000E+00  0.00000000E+00  0.00000000E+00
0.00000000E+00  0.00000000E+00  0.00000000E+00
0.00000000E+00  0.00000000E+00  0.00000000E+00
0.00000000E+00  0.00000000E+00  0.00000000E+00
