Mo3C2  (n=2)
1.00000000000000
2.9094966143938090  0.0000000000000000  0.0000000000000000
-1.4547483071969045  2.5196979803314314  0.0000000000000000
0.0000000000000001  0.0000000000000008  32.9432069018838618
Mo  C  O
3  2  2
Selective  dynamics
Direct
0.0000000000000000  0.0000000000000000  0.0370737529861013  T  T  T
0.6666666666666643  0.3333333333333357  0.1205591022990096  T  T  T
0.3333333333333357  0.6666666666666643  0.2040444516119262  T  T  T
0.3333333333333357  0.6666666666666643  0.0777819908984841  T  T  T
0.0000000000000000  0.0000000000000000  0.1633362136995435  T  T  T
0.3333333333333357  0.6666666666666643  0.0000000000000000  T  T  T
0.0000000000000000  0.0000000000000000  0.2411182045980359  T  T  T

0.00000000E+00  0.00000000E+00  0.00000000E+00
0.00000000E+00  0.00000000E+00  0.00000000E+00
0.00000000E+00  0.00000000E+00  0.00000000E+00
0.00000000E+00  0.00000000E+00  0.00000000E+00
0.00000000E+00  0.00000000E+00  0.00000000E+00
0.00000000E+00  0.00000000E+00  0.00000000E+00
0.00000000E+00  0.00000000E+00  0.00000000E+00
