Mo3N2  (n=2)
1.00000000000000
2.8392342727124915  0.0000000000000000  0.0000000000000000
-1.4196171363562458  2.4588490075448481  0.0000000000000001
0.0000000000000000  0.0000000000000012  33.2366839482238419
Mo  N  O
3  2  2
Selective  dynamics
Direct
0.0000000000000000  0.0000000000000000  0.0369392341237896  T  T  T
0.6666666666666643  0.3333333333333357  0.1239059539932729  T  T  T
0.3333333333333357  0.6666666666666643  0.2108798311311846  T  T  T
0.3333333333333357  0.6666666666666643  0.0780156124433954  T  T  T
0.0000000000000000  0.0000000000000000  0.1697988936717902  T  T  T
0.3333333333333357  0.6666666666666643  0.0000000000000000  T  T  T
0.0000000000000000  0.0000000000000000  0.2478190652549742  T  T  T

0.00000000E+00  0.00000000E+00  0.00000000E+00
0.00000000E+00  0.00000000E+00  0.00000000E+00
0.00000000E+00  0.00000000E+00  0.00000000E+00
0.00000000E+00  0.00000000E+00  0.00000000E+00
0.00000000E+00  0.00000000E+00  0.00000000E+00
0.00000000E+00  0.00000000E+00  0.00000000E+00
0.00000000E+00  0.00000000E+00  0.00000000E+00
