Cr3N2  (n=2)
1.00000000000000
2.6590605406661574  0.0000000000000000  0.0000000000000000
-1.3295302703330787  2.3028139784189410  0.0000000000000000
0.0000000000000000  0.0000000000000003  32.5081221742033151
Cr  N  O
3  2  2
Selective  dynamics
Direct
0.0000000000000000  0.0000000000000000  0.0349603411808533  T  T  T
0.6666666666666643  0.3333333333333357  0.1154807117736408  T  T  T
0.3333333333333357  0.6666666666666643  0.1960010823664359  T  T  T
0.3333333333333357  0.6666666666666643  0.0742888896848884  T  T  T
0.0000000000000000  0.0000000000000000  0.1566725338623932  T  T  T
0.3333333333333357  0.6666666666666643  0.0000000000000000  T  T  T
0.0000000000000000  0.0000000000000000  0.2309614235472929  T  T  T

0.00000000E+00  0.00000000E+00  0.00000000E+00
0.00000000E+00  0.00000000E+00  0.00000000E+00
0.00000000E+00  0.00000000E+00  0.00000000E+00
0.00000000E+00  0.00000000E+00  0.00000000E+00
0.00000000E+00  0.00000000E+00  0.00000000E+00
0.00000000E+00  0.00000000E+00  0.00000000E+00
0.00000000E+00  0.00000000E+00  0.00000000E+00
