Ta3N2  (n=2)
1.00000000000000
2.9677623256120507  0.0000000000000000  0.0000000000000000
-1.4838811628060253  2.5701575664416390  0.0000000000000000
0.0000000000000000  0.0000000000000000  32.9756099939517568
Ta  N  O
3  2  2
Selective  dynamics
Direct
0.0000000000000000  0.0000000000000000  0.0357998768188036  T  T  T
0.6666666666666643  0.3333333333333357  0.1209319553969525  T  T  T
0.3333333333333357  0.6666666666666643  0.2060640339751016  T  T  T
0.3333333333333357  0.6666666666666643  0.0776458442123617  T  T  T
0.0000000000000000  0.0000000000000000  0.1642180665815352  T  T  T
0.3333333333333357  0.6666666666666643  0.0000000000000000  T  T  T
0.0000000000000000  0.0000000000000000  0.2418639107939052  T  T  T

0.00000000E+00  0.00000000E+00  0.00000000E+00
0.00000000E+00  0.00000000E+00  0.00000000E+00
0.00000000E+00  0.00000000E+00  0.00000000E+00
0.00000000E+00  0.00000000E+00  0.00000000E+00
0.00000000E+00  0.00000000E+00  0.00000000E+00
0.00000000E+00  0.00000000E+00  0.00000000E+00
0.00000000E+00  0.00000000E+00  0.00000000E+00
