Mo3C2  (n=2)
1.00000000000000
3.0574517043888250  -0.0000000000000007  0.0000000000000000
-1.5287258521944131  2.6478308471713956  0.0000000000000000
0.0000000000000000  0.0000000000000000  34.1093698774329113
Mo  C  Se
3  2  2
Selective  dynamics
Direct
0.0000000000000000  0.0000000000000000  0.0524190604677113  T  T  T
0.0000000000000000  0.0000000000000000  0.1335317818852396  T  T  T
0.0000000000000000  0.0000000000000000  0.2146445033027818  T  T  T
0.3333333333333357  0.6666666666666643  0.0925952229566836  T  T  T
0.3333333333333357  0.6666666666666643  0.1744683408137957  T  T  T
0.3333333333333357  0.6666666666666643  0.0000000000000000  T  T  T
0.3333333333333357  0.6666666666666643  0.2670635637704864  T  T  T

0.00000000E+00  0.00000000E+00  0.00000000E+00
0.00000000E+00  0.00000000E+00  0.00000000E+00
0.00000000E+00  0.00000000E+00  0.00000000E+00
0.00000000E+00  0.00000000E+00  0.00000000E+00
0.00000000E+00  0.00000000E+00  0.00000000E+00
0.00000000E+00  0.00000000E+00  0.00000000E+00
0.00000000E+00  0.00000000E+00  0.00000000E+00
