Ta3C2  (n=2)
1.00000000000000
3.1775740208805110  -0.0000000000000000  0.0000000000000000
-1.5887870104402555  2.7518598251366018  -0.0000000000000000
0.0000000000000000  0.0000000000000000  34.3044859168820864
Ta  C  Se
3  2  2
Selective  dynamics
Direct
0.0000000000000000  0.0000000000000000  0.0535802009258775  T  T  T
0.0000000000000000  0.0000000000000000  0.1356161689673198  T  T  T
-0.0000000000000000  -0.0000000000000000  0.2176521370087690  T  T  T
0.3333333333333357  0.6666666666666643  0.0932851915793919  T  T  T
0.3333333333333357  0.6666666666666643  0.1779471463552476  T  T  T
0.3333333333333357  0.6666666666666643  0.0000000000000000  T  T  T
0.3333333333333357  0.6666666666666643  0.2712323379346465  T  T  T

0.00000000E+00  0.00000000E+00  0.00000000E+00
0.00000000E+00  0.00000000E+00  0.00000000E+00
0.00000000E+00  0.00000000E+00  0.00000000E+00
0.00000000E+00  0.00000000E+00  0.00000000E+00
0.00000000E+00  0.00000000E+00  0.00000000E+00
0.00000000E+00  0.00000000E+00  0.00000000E+00
0.00000000E+00  0.00000000E+00  0.00000000E+00
