Ti3C2  (n=2)
1.00000000000000
3.1007785415784652  0.0000000000000001  0.0000000000000000
-1.5503892707892326  2.6853529891066774  0.0000000000000000
0.0000000000000000  0.0000000000000000  34.1636583275474308
Ti  C  Se
3  2  2
Selective  dynamics
Direct
-0.0000000000000000  0.0000000000000000  0.0565164920630235  T  T  T
-0.0000000000000000  -0.0000000000000000  0.1341141255964153  T  T  T
-0.0000000000000000  0.0000000000000000  0.2117117591298071  T  T  T
0.3333333333333357  0.6666666666666643  0.0930247422518026  T  T  T
0.3333333333333357  0.6666666666666643  0.1752035089410281  T  T  T
0.3333333333333357  0.6666666666666643  0.0000000000000000  T  T  T
0.3333333333333357  0.6666666666666643  0.2682282511928306  T  T  T

0.00000000E+00  0.00000000E+00  0.00000000E+00
0.00000000E+00  0.00000000E+00  0.00000000E+00
0.00000000E+00  0.00000000E+00  0.00000000E+00
0.00000000E+00  0.00000000E+00  0.00000000E+00
0.00000000E+00  0.00000000E+00  0.00000000E+00
0.00000000E+00  0.00000000E+00  0.00000000E+00
0.00000000E+00  0.00000000E+00  0.00000000E+00
