Zr3N2  (n=2)
1.00000000000000
3.3291610678271861  0.0000000000000003  0.0000000000000000
-1.6645805339135928  2.8831380593949310  0.0000000000000000
0.0000000000000000  0.0000000000000000  34.3951867204470645
Zr  N  Se
3  2  2
Selective  dynamics
Direct
-0.0000000000000000  -0.0000000000000000  0.0527922828760480  T  T  T
-0.0000000000000000  -0.0000000000000000  0.1365770565051423  T  T  T
-0.0000000000000000  -0.0000000000000000  0.2203618301342434  T  T  T
0.3333333333333357  0.6666666666666643  0.0950126143804544  T  T  T
0.3333333333333357  0.6666666666666643  0.1781414986298370  T  T  T
0.3333333333333357  0.6666666666666643  0.0000000000000000  T  T  T
0.3333333333333357  0.6666666666666643  0.2731541130102912  T  T  T

0.00000000E+00  0.00000000E+00  0.00000000E+00
0.00000000E+00  0.00000000E+00  0.00000000E+00
0.00000000E+00  0.00000000E+00  0.00000000E+00
0.00000000E+00  0.00000000E+00  0.00000000E+00
0.00000000E+00  0.00000000E+00  0.00000000E+00
0.00000000E+00  0.00000000E+00  0.00000000E+00
0.00000000E+00  0.00000000E+00  0.00000000E+00
