Hf3C2  (n=2)
1.00000000000000
3.2815207260587482  -0.0000000000000000  -0.0000000000000000
-1.6407603630293739  2.8418803134439692  0.0000000000000000
0.0000000000000000  0.0000000000000000  34.7099421332269529
Hf  C  Se
3  2  2
Selective  dynamics
Direct
-0.0000000000000000  0.0000000000000000  0.0575448255367649  T  T  T
-0.0000000000000000  0.0000000000000000  0.1398726349925489  T  T  T
-0.0000000000000000  0.0000000000000000  0.2222004444483403  T  T  T
0.3333333333333357  0.6666666666666643  0.0964094141182664  T  T  T
0.3333333333333357  0.6666666666666643  0.1833358558668238  T  T  T
0.3333333333333357  0.6666666666666643  0.0000000000000000  T  T  T
0.3333333333333357  0.6666666666666643  0.2797452699851052  T  T  T

0.00000000E+00  0.00000000E+00  0.00000000E+00
0.00000000E+00  0.00000000E+00  0.00000000E+00
0.00000000E+00  0.00000000E+00  0.00000000E+00
0.00000000E+00  0.00000000E+00  0.00000000E+00
0.00000000E+00  0.00000000E+00  0.00000000E+00
0.00000000E+00  0.00000000E+00  0.00000000E+00
0.00000000E+00  0.00000000E+00  0.00000000E+00
