Nb3N2  (n=2)
1.00000000000000
3.1240764717750649  0.0000000000000000  0.0000000000000000
-1.5620382358875324  2.7055295885547195  0.0000000000000000
0.0000000000000000  0.0000000000000000  34.3332406206758591
Nb  N  Se
3  2  2
Selective  dynamics
Direct
0.0000000000000000  -0.0000000000000000  0.0529050814371839  T  T  T
0.0000000000000000  -0.0000000000000000  0.1359213469504978  T  T  T
0.0000000000000000  -0.0000000000000000  0.2189376124638187  T  T  T
0.3333333333333357  0.6666666666666643  0.0954165470420654  T  T  T
0.3333333333333357  0.6666666666666643  0.1764261468589303  T  T  T
0.3333333333333357  0.6666666666666643  0.0000000000000000  T  T  T
0.3333333333333357  0.6666666666666643  0.2718426939010026  T  T  T

0.00000000E+00  0.00000000E+00  0.00000000E+00
0.00000000E+00  0.00000000E+00  0.00000000E+00
0.00000000E+00  0.00000000E+00  0.00000000E+00
0.00000000E+00  0.00000000E+00  0.00000000E+00
0.00000000E+00  0.00000000E+00  0.00000000E+00
0.00000000E+00  0.00000000E+00  0.00000000E+00
0.00000000E+00  0.00000000E+00  0.00000000E+00
