Sc3N2  (n=2)
1.00000000000000
3.1972671535499719  0.0000000000000000  0.0000000000000000
-1.5986335767749860  2.7689145783399707  0.0000000000000000
0.0000000000000000  0.0000000000000000  34.5657517223017408
Sc  N  Se
3  2  2
Selective  dynamics
Direct
0.0000000000000000  -0.0000000000000000  0.0583136223618333  T  T  T
0.0000000000000000  0.0000000000000000  0.1383703701738053  T  T  T
0.0000000000000000  -0.0000000000000000  0.2184271179857774  T  T  T
0.3333333333333357  0.6666666666666643  0.0967089753075256  T  T  T
0.3333333333333357  0.6666666666666643  0.1800317650400852  T  T  T
0.3333333333333357  0.6666666666666643  0.0000000000000000  T  T  T
0.3333333333333357  0.6666666666666643  0.2767407403476181  T  T  T

0.00000000E+00  0.00000000E+00  0.00000000E+00
0.00000000E+00  0.00000000E+00  0.00000000E+00
0.00000000E+00  0.00000000E+00  0.00000000E+00
0.00000000E+00  0.00000000E+00  0.00000000E+00
0.00000000E+00  0.00000000E+00  0.00000000E+00
0.00000000E+00  0.00000000E+00  0.00000000E+00
0.00000000E+00  0.00000000E+00  0.00000000E+00
