Hf3N2  (n=2)
1.00000000000000
3.2865823679831978  -0.0000000000000001  0.0000000000000000
-1.6432911839915989  2.8462638235576758  0.0000000000000000
0.0000000000000000  0.0000000000000000  34.2797661118521972
Hf  N  Se
3  2  2
Selective  dynamics
Direct
0.0000000000000000  0.0000000000000000  0.0522297189024156  T  T  T
0.0000000000000000  0.0000000000000000  0.1353534047107125  T  T  T
0.0000000000000000  0.0000000000000000  0.2184770905190094  T  T  T
0.3333333333333357  0.6666666666666643  0.0941639812466743  T  T  T
0.3333333333333357  0.6666666666666643  0.1765428281747574  T  T  T
0.3333333333333357  0.6666666666666643  0.0000000000000000  T  T  T
0.3333333333333357  0.6666666666666643  0.2707068094214249  T  T  T

0.00000000E+00  0.00000000E+00  0.00000000E+00
0.00000000E+00  0.00000000E+00  0.00000000E+00
0.00000000E+00  0.00000000E+00  0.00000000E+00
0.00000000E+00  0.00000000E+00  0.00000000E+00
0.00000000E+00  0.00000000E+00  0.00000000E+00
0.00000000E+00  0.00000000E+00  0.00000000E+00
0.00000000E+00  0.00000000E+00  0.00000000E+00
