Nb3C2  (n=2)
1.00000000000000
3.1965045625475046  -0.0000000000000001  0.0000000000000000
-1.5982522812737523  2.7682541554464084  0.0000000000000000
0.0000000000000000  0.0000000000000000  34.2992433375527099
Nb  C  Se
3  2  2
Selective  dynamics
Direct
0.0000000000000000  0.0000000000000000  0.0534816263644438  T  T  T
0.0000000000000000  0.0000000000000000  0.1355604735363271  T  T  T
0.0000000000000000  0.0000000000000000  0.2176393207082104  T  T  T
0.3333333333333357  0.6666666666666643  0.0936521159695473  T  T  T
0.3333333333333357  0.6666666666666643  0.1774688311031069  T  T  T
0.3333333333333357  0.6666666666666643  0.0000000000000000  T  T  T
0.3333333333333357  0.6666666666666643  0.2711209470726542  T  T  T

0.00000000E+00  0.00000000E+00  0.00000000E+00
0.00000000E+00  0.00000000E+00  0.00000000E+00
0.00000000E+00  0.00000000E+00  0.00000000E+00
0.00000000E+00  0.00000000E+00  0.00000000E+00
0.00000000E+00  0.00000000E+00  0.00000000E+00
0.00000000E+00  0.00000000E+00  0.00000000E+00
0.00000000E+00  0.00000000E+00  0.00000000E+00
