Mo3N2  (n=2)
1.00000000000000
3.0459740170519769  0.0000000000000000  0.0000000000000000
-1.5229870085259880  2.6378908783792743  0.0000000000000000
0.0000000000000000  0.0000000000000000  34.0728517346415600
Mo  N  Se
3  2  2
Selective  dynamics
Direct
0.0000000000000000  0.0000000000000000  0.0518960456354325  T  T  T
0.0000000000000000  0.0000000000000000  0.1331390135070097  T  T  T
0.0000000000000000  0.0000000000000000  0.2143819813785869  T  T  T
0.3333333333333357  0.6666666666666643  0.0935393031144341  T  T  T
0.3333333333333357  0.6666666666666643  0.1727387238995785  T  T  T
0.3333333333333357  0.6666666666666643  0.0000000000000000  T  T  T
0.3333333333333357  0.6666666666666643  0.2662780270140194  T  T  T

0.00000000E+00  0.00000000E+00  0.00000000E+00
0.00000000E+00  0.00000000E+00  0.00000000E+00
0.00000000E+00  0.00000000E+00  0.00000000E+00
0.00000000E+00  0.00000000E+00  0.00000000E+00
0.00000000E+00  0.00000000E+00  0.00000000E+00
0.00000000E+00  0.00000000E+00  0.00000000E+00
0.00000000E+00  0.00000000E+00  0.00000000E+00
