Sc3C2Se2  (n=2)
1.00000000000000
3.2221709197872643  0.0000000000000000  0.0000000000000000
-1.6110854598936322  2.7904818718784212  0.0000000000000000
0.0000000000000000  0.0000000000000000  35.1336800479714100
Sc  C  Se
3  2  2
Selective  dynamics
Direct
0.0000000000000000  0.0000000000000000  0.0617087802666214  T  T  T
0.0000000000000000  1.0000000000000000  0.1442160347867804  T  T  T
0.0000000000000000  0.0000000000000000  0.2267232893069396  T  T  T
0.3333333333333357  0.6666666666666643  0.0999132769138191  T  T  T
0.3333333333333357  0.6666666666666643  0.1885187926597333  T  T  T
0.3333333333333357  0.6666666666666643  0.0000000000000000  T  T  T
0.3333333333333357  0.6666666666666643  0.2884320695735522  T  T  T

0.00000000E+00  0.00000000E+00  0.00000000E+00
0.00000000E+00  0.00000000E+00  0.00000000E+00
0.00000000E+00  0.00000000E+00  0.00000000E+00
0.00000000E+00  0.00000000E+00  0.00000000E+00
0.00000000E+00  0.00000000E+00  0.00000000E+00
0.00000000E+00  0.00000000E+00  0.00000000E+00
0.00000000E+00  0.00000000E+00  0.00000000E+00
