Ta3N2  (n=2)
1.00000000000000
3.1071941328944042  0.0000000000000001  0.0000000000000000
-1.5535970664472021  2.6909090541116187  0.0000000000000000
0.0000000000000000  0.0000000000000000  34.3360052573095658
Ta  N  Se
3  2  2
Selective  dynamics
Direct
0.0000000000000000  0.0000000000000000  0.0526862573376424  T  T  T
0.0000000000000000  0.0000000000000000  0.1359506615191005  T  T  T
0.0000000000000000  0.0000000000000000  0.2192150657005653  T  T  T
0.3333333333333357  0.6666666666666643  0.0955231451132310  T  T  T
0.3333333333333357  0.6666666666666643  0.1763781779249768  T  T  T
0.3333333333333357  0.6666666666666643  0.0000000000000000  T  T  T
0.3333333333333357  0.6666666666666643  0.2719013230382146  T  T  T

0.00000000E+00  0.00000000E+00  0.00000000E+00
0.00000000E+00  0.00000000E+00  0.00000000E+00
0.00000000E+00  0.00000000E+00  0.00000000E+00
0.00000000E+00  0.00000000E+00  0.00000000E+00
0.00000000E+00  0.00000000E+00  0.00000000E+00
0.00000000E+00  0.00000000E+00  0.00000000E+00
0.00000000E+00  0.00000000E+00  0.00000000E+00
