Cr3N2  (n=2)
1.00000000000000
2.8627189533877253  0.0000000000000000  0.0000000000000000
-1.4313594766938627  2.4791873374959756  0.0000000000000000
0.0000000000000000  0.0000000000000000  33.4537762661947511
Cr  N  Se
3  2  2
Selective  dynamics
Direct
0.0000000000000000  0.0000000000000000  0.0509354149112800  T  T  T
0.0000000000000000  0.0000000000000000  0.1263501046776795  T  T  T
0.0000000000000000  0.0000000000000000  0.2017647944440788  T  T  T
0.3333333333333357  0.6666666666666643  0.0885319759580175  T  T  T
0.3333333333333357  0.6666666666666643  0.1641682333973413  T  T  T
0.3333333333333357  0.6666666666666643  0.0000000000000000  T  T  T
0.3333333333333357  0.6666666666666643  0.2527002093553589  T  T  T

0.00000000E+00  0.00000000E+00  0.00000000E+00
0.00000000E+00  0.00000000E+00  0.00000000E+00
0.00000000E+00  0.00000000E+00  0.00000000E+00
0.00000000E+00  0.00000000E+00  0.00000000E+00
0.00000000E+00  0.00000000E+00  0.00000000E+00
0.00000000E+00  0.00000000E+00  0.00000000E+00
0.00000000E+00  0.00000000E+00  0.00000000E+00
