Ti3N2  (n=2)
1.00000000000000
3.0721439788865279  -0.0000000000000002  0.0000000000000000
-1.5360719894432640  2.6605547301071040  -0.0000000000000000
-0.0000000000000000  -0.0000000000000000  33.8622374042887841
Ti  N  Se
3  2  2
Selective  dynamics
Direct
-0.0000000000000000  -0.0000000000000000  0.0534376254738535  T  T  T
-0.0000000000000000  -0.0000000000000000  0.1308572333611711  T  T  T
-0.0000000000000000  -0.0000000000000000  0.2082768412484887  T  T  T
0.3333333333333357  0.6666666666666643  0.0914018844750426  T  T  T
0.3333333333333357  0.6666666666666643  0.1703125822472925  T  T  T
0.3333333333333357  0.6666666666666643  0.0000000000000000  T  T  T
0.3333333333333357  0.6666666666666643  0.2617144667223421  T  T  T

0.00000000E+00  0.00000000E+00  0.00000000E+00
0.00000000E+00  0.00000000E+00  0.00000000E+00
0.00000000E+00  0.00000000E+00  0.00000000E+00
0.00000000E+00  0.00000000E+00  0.00000000E+00
0.00000000E+00  0.00000000E+00  0.00000000E+00
0.00000000E+00  0.00000000E+00  0.00000000E+00
0.00000000E+00  0.00000000E+00  0.00000000E+00
