Zr3C2  (n=2)
1.00000000000000
3.3205203574318007  0.0000000000000000  0.0000000000000000
-1.6602601787159004  2.8756549851660389  0.0000000000000000
0.0000000000000000  0.0000000000000000  34.8345040617651307
Zr  C  Se
3  2  2
Selective  dynamics
Direct
0.0000000000000000  0.0000000000000000  0.0577889473173701  T  T  T
0.0000000000000000  0.0000000000000000  0.1411603857532686  T  T  T
0.0000000000000000  0.0000000000000000  0.2245318241891669  T  T  T
0.3333333333333357  0.6666666666666643  0.0972266214941858  T  T  T
0.3333333333333357  0.6666666666666643  0.1850941500123512  T  T  T
0.3333333333333357  0.6666666666666643  0.0000000000000000  T  T  T
0.3333333333333357  0.6666666666666643  0.2823207715065371  T  T  T

0.00000000E+00  0.00000000E+00  0.00000000E+00
0.00000000E+00  0.00000000E+00  0.00000000E+00
0.00000000E+00  0.00000000E+00  0.00000000E+00
0.00000000E+00  0.00000000E+00  0.00000000E+00
0.00000000E+00  0.00000000E+00  0.00000000E+00
0.00000000E+00  0.00000000E+00  0.00000000E+00
0.00000000E+00  0.00000000E+00  0.00000000E+00
