Cr3N2  (n=2)
1.00000000000000
2.9801718430780002  0.0000000000000000  0.0000000000000000
-1.4900859215390001  2.5809045237117059  0.0000000000000000
0.0000000000000000  0.0000000000000000  33.8920016423146038
Cr  N  Te
3  2  2
Selective  dynamics
Direct
0.0000000000000000  0.0000000000000000  0.0591320576447538  T  T  T
0.0000000000000000  0.0000000000000000  0.1311814176123020  T  T  T
0.0000000000000000  0.0000000000000000  0.2032307775798505  T  T  T
0.3333333333333357  0.6666666666666643  0.0930324597206551  T  T  T
0.3333333333333357  0.6666666666666643  0.1693303755039492  T  T  T
0.3333333333333357  0.6666666666666643  0.0000000000000000  T  T  T
0.3333333333333357  0.6666666666666643  0.2623628352246042  T  T  T

0.00000000E+00  0.00000000E+00  0.00000000E+00
0.00000000E+00  0.00000000E+00  0.00000000E+00
0.00000000E+00  0.00000000E+00  0.00000000E+00
0.00000000E+00  0.00000000E+00  0.00000000E+00
0.00000000E+00  0.00000000E+00  0.00000000E+00
0.00000000E+00  0.00000000E+00  0.00000000E+00
0.00000000E+00  0.00000000E+00  0.00000000E+00
