Sc3N2  (n=2)
1.00000000000000
3.2457004001706955  0.0000000000000000  0.0000000000000000
-1.6228502000853477  2.8108589997495184  0.0000000000000000
0.0000000000000000  0.0000000000000000  35.1518142806912692
Sc  N  Te
3  2  2
Selective  dynamics
Direct
0.0000000000000000  -0.0000000000000000  0.0670480542270992  T  T  T
0.0000000000000000  -0.0000000000000000  0.1443995777803613  T  T  T
0.0000000000000000  -0.0000000000000000  0.2217511013336317  T  T  T
0.3333333333333357  0.6666666666666643  0.1025350413196726  T  T  T
0.3333333333333357  0.6666666666666643  0.1862641142410582  T  T  T
0.3333333333333357  0.6666666666666643  0.0000000000000000  T  T  T
0.3333333333333357  0.6666666666666643  0.2887991555607306  T  T  T

0.00000000E+00  0.00000000E+00  0.00000000E+00
0.00000000E+00  0.00000000E+00  0.00000000E+00
0.00000000E+00  0.00000000E+00  0.00000000E+00
0.00000000E+00  0.00000000E+00  0.00000000E+00
0.00000000E+00  0.00000000E+00  0.00000000E+00
0.00000000E+00  0.00000000E+00  0.00000000E+00
0.00000000E+00  0.00000000E+00  0.00000000E+00
