Hf3N2  (n=2)
1.00000000000000
3.2289291913979747  0.0000000000000000  0.0000000000000000
-1.6144645956989874  2.7963347069451454  0.0000000000000000
0.0000000000000000  0.0000000000000000  35.3136060179238740
Hf  N  Te
3  2  2
Selective  dynamics
Direct
-0.0000000000000000  0.0000000000000000  0.0650760173261271  T  T  T
-0.0000000000000000  0.0000000000000000  0.1460287857984409  T  T  T
-0.0000000000000000  0.0000000000000000  0.2269815542707627  T  T  T
0.3333333333333357  0.6666666666666643  0.1046931685766253  T  T  T
0.3333333333333357  0.6666666666666643  0.1873644030202646  T  T  T
0.3333333333333357  0.6666666666666643  0.0000000000000000  T  T  T
0.3333333333333357  0.6666666666666643  0.2920575715968818  T  T  T

0.00000000E+00  0.00000000E+00  0.00000000E+00
0.00000000E+00  0.00000000E+00  0.00000000E+00
0.00000000E+00  0.00000000E+00  0.00000000E+00
0.00000000E+00  0.00000000E+00  0.00000000E+00
0.00000000E+00  0.00000000E+00  0.00000000E+00
0.00000000E+00  0.00000000E+00  0.00000000E+00
0.00000000E+00  0.00000000E+00  0.00000000E+00
