Mo3N2  (n=2)
1.00000000000000
3.0909464664248456  -0.0000000000000001  0.0000000000000000
-1.5454732332124228  2.6768381617342865  0.0000000000000000
0.0000000000000000  0.0000000000000000  34.6151937206162117
Mo  N  Te
3  2  2
Selective  dynamics
Direct
-0.0000000000000000  -0.0000000000000000  0.0599442547068548  T  T  T
-0.0000000000000000  -0.0000000000000000  0.1388868974448247  T  T  T
-0.0000000000000000  -0.0000000000000000  0.2178295401828027  T  T  T
0.3333333333333357  0.6666666666666643  0.0994885164033096  T  T  T
0.3333333333333357  0.6666666666666643  0.1782852784863398  T  T  T
0.3333333333333357  0.6666666666666643  0.0000000000000000  T  T  T
0.3333333333333357  0.6666666666666643  0.2777737948896575  T  T  T

0.00000000E+00  0.00000000E+00  0.00000000E+00
0.00000000E+00  0.00000000E+00  0.00000000E+00
0.00000000E+00  0.00000000E+00  0.00000000E+00
0.00000000E+00  0.00000000E+00  0.00000000E+00
0.00000000E+00  0.00000000E+00  0.00000000E+00
0.00000000E+00  0.00000000E+00  0.00000000E+00
0.00000000E+00  0.00000000E+00  0.00000000E+00
