Nb3C2  (n=2)
1.00000000000000
3.1744763826900564  0.0000000000000000  0.0000000000000000
-1.5872381913450282  2.7491771913607832  0.0000000000000000
0.0000000000000000  0.0000000000000000  35.2217359512327590
Nb  C  Te
3  2  2
Selective  dynamics
Direct
0.0000000000000000  0.0000000000000000  0.0650038100583239  T  T  T
0.0000000000000000  0.0000000000000000  0.1451055104919562  T  T  T
0.0000000000000000  0.0000000000000000  0.2252072109255809  T  T  T
0.3333333333333357  0.6666666666666643  0.1031942570558249  T  T  T
0.3333333333333357  0.6666666666666643  0.1870167639280799  T  T  T
0.3333333333333357  0.6666666666666643  0.0000000000000000  T  T  T
0.3333333333333357  0.6666666666666643  0.2902110209839048  T  T  T

0.00000000E+00  0.00000000E+00  0.00000000E+00
0.00000000E+00  0.00000000E+00  0.00000000E+00
0.00000000E+00  0.00000000E+00  0.00000000E+00
0.00000000E+00  0.00000000E+00  0.00000000E+00
0.00000000E+00  0.00000000E+00  0.00000000E+00
0.00000000E+00  0.00000000E+00  0.00000000E+00
0.00000000E+00  0.00000000E+00  0.00000000E+00
