Sc3C2  (n=2)
1.00000000000000
3.2917650991000009  0.0000000000000000  0.0000000000000000
-1.6458825495500005  2.8507521993227996  0.0000000000000000
0.0000000000000000  0.0000000000000000  35.7448591346780660
Sc  C  Te
3  2  2
Selective  dynamics
Direct
0.0000000000000000  0.0000000000000000  0.0721446336864853  T  T  T
0.0000000000000000  0.0000000000000000  0.1502993632482048  T  T  T
0.0000000000000000  0.0000000000000000  0.2284540928099323  T  T  T
0.3333333333333357  0.6666666666666643  0.1062557367045651  T  T  T
0.3333333333333357  0.6666666666666643  0.1943429897918366  T  T  T
0.3333333333333357  0.6666666666666643  0.0000000000000000  T  T  T
0.3333333333333357  0.6666666666666643  0.3005987264964176  T  T  T

0.00000000E+00  0.00000000E+00  0.00000000E+00
0.00000000E+00  0.00000000E+00  0.00000000E+00
0.00000000E+00  0.00000000E+00  0.00000000E+00
0.00000000E+00  0.00000000E+00  0.00000000E+00
0.00000000E+00  0.00000000E+00  0.00000000E+00
0.00000000E+00  0.00000000E+00  0.00000000E+00
0.00000000E+00  0.00000000E+00  0.00000000E+00
