Hf3C2  (n=2)
1.00000000000000
3.3286404595728643  0.0000000000000000  0.0000000000000000
-1.6643202297864321  2.8826871984298008  0.0000000000000000
0.0000000000000000  0.0000000000000000  35.2191079237224187
Hf  C  Te
3  2  2
Selective  dynamics
Direct
-0.0000000000000000  -0.0000000000000000  0.0651911327905196  T  T  T
-0.0000000000000000  -0.0000000000000000  0.1450790284900841  T  T  T
-0.0000000000000000  -0.0000000000000000  0.2249669241896566  T  T  T
0.3333333333333357  0.6666666666666643  0.1018513354216162  T  T  T
0.3333333333333357  0.6666666666666643  0.1883067215585443  T  T  T
0.3333333333333357  0.6666666666666643  0.0000000000000000  T  T  T
0.3333333333333357  0.6666666666666643  0.2901580569801760  T  T  T

0.00000000E+00  0.00000000E+00  0.00000000E+00
0.00000000E+00  0.00000000E+00  0.00000000E+00
0.00000000E+00  0.00000000E+00  0.00000000E+00
0.00000000E+00  0.00000000E+00  0.00000000E+00
0.00000000E+00  0.00000000E+00  0.00000000E+00
0.00000000E+00  0.00000000E+00  0.00000000E+00
0.00000000E+00  0.00000000E+00  0.00000000E+00
