Zr3N2  (n=2)
1.00000000000000
3.2774618534608555  0.0000000000000000  0.0000000000000000
-1.6387309267304278  2.8383652251966316  0.0000000000000000
0.0000000000000000  0.0000000000000000  35.3590315305574592
Zr  N  Te
3  2  2
Selective  dynamics
Direct
0.0000000000000000  0.0000000000000000  0.0648466086982414  T  T  T
0.0000000000000000  0.0000000000000000  0.1464835302630510  T  T  T
0.0000000000000000  0.0000000000000000  0.2281204518278685  T  T  T
0.3333333333333357  0.6666666666666643  0.1049528732548194  T  T  T
0.3333333333333357  0.6666666666666643  0.1880141872712826  T  T  T
0.3333333333333357  0.6666666666666643  0.0000000000000000  T  T  T
0.3333333333333357  0.6666666666666643  0.2929670605261100  T  T  T

0.00000000E+00  0.00000000E+00  0.00000000E+00
0.00000000E+00  0.00000000E+00  0.00000000E+00
0.00000000E+00  0.00000000E+00  0.00000000E+00
0.00000000E+00  0.00000000E+00  0.00000000E+00
0.00000000E+00  0.00000000E+00  0.00000000E+00
0.00000000E+00  0.00000000E+00  0.00000000E+00
0.00000000E+00  0.00000000E+00  0.00000000E+00
