Ti3N2  (n=2)
1.00000000000000
3.0919185474515407  0.0000000000000002  0.0000000000000000
-1.5459592737257697  2.6776800086631081  0.0000000000000000
0.0000000000000000  0.0000000000000000  34.7355588829097286
Ti  N  Te
3  2  2
Selective  dynamics
Direct
0.0000000000000000  0.0000000000000000  0.0651833089569268  T  T  T
0.0000000000000000  -0.0000000000000000  0.1401382214077422  T  T  T
0.0000000000000000  -0.0000000000000000  0.2150931338585645  T  T  T
0.3333333333333357  0.6666666666666643  0.1004950970089752  T  T  T
0.3333333333333357  0.6666666666666643  0.1797813458065089  T  T  T
0.3333333333333357  0.6666666666666643  0.0000000000000000  T  T  T
0.3333333333333357  0.6666666666666643  0.2802764428154842  T  T  T

0.00000000E+00  0.00000000E+00  0.00000000E+00
0.00000000E+00  0.00000000E+00  0.00000000E+00
0.00000000E+00  0.00000000E+00  0.00000000E+00
0.00000000E+00  0.00000000E+00  0.00000000E+00
0.00000000E+00  0.00000000E+00  0.00000000E+00
0.00000000E+00  0.00000000E+00  0.00000000E+00
0.00000000E+00  0.00000000E+00  0.00000000E+00
