Ti3C2  (n=2)
1.00000000000000
3.1617907014438678  0.0000000000000000  0.0000000000000000
-1.5808953507219339  2.7381910689860542  0.0000000000000000
0.0000000000000000  0.0000000000000000  34.8202658017149318
Ti  C  Te
3  2  2
Selective  dynamics
Direct
0.0000000000000000  -0.0000000000000000  0.0674389966464885  T  T  T
0.0000000000000000  -0.0000000000000000  0.1410136536239620  T  T  T
-0.0000000000000000  -0.0000000000000000  0.2145883106014355  T  T  T
0.3333333333333357  0.6666666666666643  0.1000949957419477  T  T  T
0.3333333333333357  0.6666666666666643  0.1819323115059681  T  T  T
0.3333333333333357  0.6666666666666643  0.0000000000000000  T  T  T
0.3333333333333357  0.6666666666666643  0.2820273072479324  T  T  T

0.00000000E+00  0.00000000E+00  0.00000000E+00
0.00000000E+00  0.00000000E+00  0.00000000E+00
0.00000000E+00  0.00000000E+00  0.00000000E+00
0.00000000E+00  0.00000000E+00  0.00000000E+00
0.00000000E+00  0.00000000E+00  0.00000000E+00
0.00000000E+00  0.00000000E+00  0.00000000E+00
0.00000000E+00  0.00000000E+00  0.00000000E+00
