Mo3C2  (n=2)
1.00000000000000
3.1418999988556289  0.0000000000000000  0.0000000000000000
-1.5709499994278144  2.7209652153267747  0.0000000000000000
0.0000000000000000  0.0000000000000000  34.4658552065083796
Mo  C  Te
3  2  2
Selective  dynamics
Direct
0.0000000000000000  0.0000000000000000  0.0581157167949262  T  T  T
0.0000000000000000  0.0000000000000000  0.1373222157087287  T  T  T
0.0000000000000000  0.0000000000000000  0.2165287146225450  T  T  T
0.3333333333333357  0.6666666666666643  0.0969598887865929  T  T  T
0.3333333333333357  0.6666666666666643  0.1776845426308646  T  T  T
0.3333333333333357  0.6666666666666643  0.0000000000000000  T  T  T
0.3333333333333357  0.6666666666666643  0.2746444314174711  T  T  T

0.00000000E+00  0.00000000E+00  0.00000000E+00
0.00000000E+00  0.00000000E+00  0.00000000E+00
0.00000000E+00  0.00000000E+00  0.00000000E+00
0.00000000E+00  0.00000000E+00  0.00000000E+00
0.00000000E+00  0.00000000E+00  0.00000000E+00
0.00000000E+00  0.00000000E+00  0.00000000E+00
0.00000000E+00  0.00000000E+00  0.00000000E+00
