Cr3C2  (n=2)
1.00000000000000
3.0254625843360157  0.0000000000000000  0.0000000000000000
-1.5127312921680078  2.6201274562208385  0.0000000000000000
0.0000000000000000  0.0000000000000000  33.7729532576462503
Cr  C  Te
3  2  2
Selective  dynamics
Direct
0.0000000000000000  -0.0000000000000000  0.0572395713092746  T  T  T
-0.0000000000000000  -0.0000000000000000  0.1298813460392308  T  T  T
-0.0000000000000000  -0.0000000000000000  0.2025231207691953  T  T  T
0.3333333333333357  0.6666666666666643  0.0921555003964609  T  T  T
0.3333333333333357  0.6666666666666643  0.1676071916819926  T  T  T
0.3333333333333357  0.6666666666666643  0.0000000000000000  T  T  T
0.3333333333333357  0.6666666666666643  0.2597626920784618  T  T  T

0.00000000E+00  0.00000000E+00  0.00000000E+00
0.00000000E+00  0.00000000E+00  0.00000000E+00
0.00000000E+00  0.00000000E+00  0.00000000E+00
0.00000000E+00  0.00000000E+00  0.00000000E+00
0.00000000E+00  0.00000000E+00  0.00000000E+00
0.00000000E+00  0.00000000E+00  0.00000000E+00
0.00000000E+00  0.00000000E+00  0.00000000E+00
