Ta3C2  (n=2)
1.00000000000000
3.1564228849171037  0.0000000000000000  0.0000000000000000
-1.5782114424585518  2.7335424037246367  0.0000000000000000
0.0000000000000000  0.0000000000000000  35.2175859948513406
Ta  C  Te
3  2  2
Selective  dynamics
Direct
0.0000000000000000  0.0000000000000000  0.0651202145196680  T  T  T
0.0000000000000000  0.0000000000000000  0.1450636905713115  T  T  T
0.0000000000000000  -0.0000000000000000  0.2250071666229551  T  T  T
0.3333333333333357  0.6666666666666643  0.1033054403115008  T  T  T
0.3333333333333357  0.6666666666666643  0.1868219408311151  T  T  T
0.3333333333333357  0.6666666666666643  0.0000000000000000  T  T  T
0.3333333333333357  0.6666666666666643  0.2901273811426232  T  T  T

0.00000000E+00  0.00000000E+00  0.00000000E+00
0.00000000E+00  0.00000000E+00  0.00000000E+00
0.00000000E+00  0.00000000E+00  0.00000000E+00
0.00000000E+00  0.00000000E+00  0.00000000E+00
0.00000000E+00  0.00000000E+00  0.00000000E+00
0.00000000E+00  0.00000000E+00  0.00000000E+00
0.00000000E+00  0.00000000E+00  0.00000000E+00
