Nb3N2  (n=2)
1.00000000000000
3.1392828595422859  0.0000000000000000  0.0000000000000000
-1.5696414297711430  2.7186987062973724  0.0000000000000000
0.0000000000000000  0.0000000000000000  35.0576143026727749
Nb  N  Te
3  2  2
Selective  dynamics
Direct
0.0000000000000000  0.0000000000000000  0.0619766085904612  T  T  T
0.0000000000000000  0.0000000000000000  0.1434440777378530  T  T  T
0.0000000000000000  0.0000000000000000  0.2249115468852520  T  T  T
0.3333333333333357  0.6666666666666643  0.1033682494188020  T  T  T
0.3333333333333357  0.6666666666666643  0.1835199060569043  T  T  T
0.3333333333333357  0.6666666666666643  0.0000000000000000  T  T  T
0.3333333333333357  0.6666666666666643  0.2868881554757133  T  T  T

0.00000000E+00  0.00000000E+00  0.00000000E+00
0.00000000E+00  0.00000000E+00  0.00000000E+00
0.00000000E+00  0.00000000E+00  0.00000000E+00
0.00000000E+00  0.00000000E+00  0.00000000E+00
0.00000000E+00  0.00000000E+00  0.00000000E+00
0.00000000E+00  0.00000000E+00  0.00000000E+00
0.00000000E+00  0.00000000E+00  0.00000000E+00
