Ta3N2  (n=2)
1.00000000000000
3.1177288255687414  0.0000000000000000  0.0000000000000000
-1.5588644127843707  2.7000323651598617  0.0000000000000000
0.0000000000000000  0.0000000000000000  35.0644431723061700
Ta  N  Te
3  2  2
Selective  dynamics
Direct
0.0000000000000000  0.0000000000000000  0.0619542786408993  T  T  T
0.0000000000000000  0.0000000000000000  0.1435135177086564  T  T  T
0.0000000000000000  0.0000000000000000  0.2250727567764217  T  T  T
0.3333333333333357  0.6666666666666643  0.1036036025349137  T  T  T
0.3333333333333357  0.6666666666666643  0.1834234328823991  T  T  T
0.3333333333333357  0.6666666666666643  0.0000000000000000  T  T  T
0.3333333333333357  0.6666666666666643  0.2870270354173211  T  T  T

0.00000000E+00  0.00000000E+00  0.00000000E+00
0.00000000E+00  0.00000000E+00  0.00000000E+00
0.00000000E+00  0.00000000E+00  0.00000000E+00
0.00000000E+00  0.00000000E+00  0.00000000E+00
0.00000000E+00  0.00000000E+00  0.00000000E+00
0.00000000E+00  0.00000000E+00  0.00000000E+00
0.00000000E+00  0.00000000E+00  0.00000000E+00
