Zr3C2  (n=2)
1.00000000000000
3.3614914782850844  0.0000000000000000  0.0000000000000000
-1.6807457391425422  2.9111370151371210  0.0000000000000000
0.0000000000000000  0.0000000000000000  35.3701938964155573
Zr  C  Te
3  2  2
Selective  dynamics
Direct
0.0000000000000000  0.0000000000000000  0.0660316810500079  T  T  T
0.0000000000000000  0.0000000000000000  0.1465950953899945  T  T  T
0.0000000000000000  0.0000000000000000  0.2271585097299887  T  T  T
0.3333333333333357  0.6666666666666643  0.1028654361452132  T  T  T
0.3333333333333357  0.6666666666666643  0.1903247546347756  T  T  T
0.3333333333333357  0.6666666666666643  0.0000000000000000  T  T  T
0.3333333333333357  0.6666666666666643  0.2931901907799968  T  T  T

0.00000000E+00  0.00000000E+00  0.00000000E+00
0.00000000E+00  0.00000000E+00  0.00000000E+00
0.00000000E+00  0.00000000E+00  0.00000000E+00
0.00000000E+00  0.00000000E+00  0.00000000E+00
0.00000000E+00  0.00000000E+00  0.00000000E+00
0.00000000E+00  0.00000000E+00  0.00000000E+00
0.00000000E+00  0.00000000E+00  0.00000000E+00
