Mo2C  (n=1)
1.00000000000000
3.1396252606098476  0.0000000000000001  0.0000000000000000
-1.5698126303049238  2.7189952342917629  0.0000000000000000
-0.0000000000000001  0.0000000000000001  31.0553052347579168
Mo  C  Cl
2  1  2
Selective  dynamics
Direct
-0.0000000000000000  0.0000000000000000  0.0606190148100246  T  T  T
0.6666666666666643  0.3333333333333357  0.1343655518842566  T  T  T
0.3333333333333357  0.6666666666666643  0.0974922833471406  T  T  T
0.3333333333333357  0.6666666666666643  0.0000000000000000  T  T  T
0.3333333333333357  0.6666666666666643  0.1949845666942813  T  T  T

0.00000000E+00  0.00000000E+00  0.00000000E+00
0.00000000E+00  0.00000000E+00  0.00000000E+00
0.00000000E+00  0.00000000E+00  0.00000000E+00
0.00000000E+00  0.00000000E+00  0.00000000E+00
0.00000000E+00  0.00000000E+00  0.00000000E+00
