Ti2N  (n=1)
1.00000000000000
3.1021790693523505  0.0000000000000001  -0.0000000000000001
-1.5510895346761751  2.6865658812980895  0.0000000000000000
-0.0000000000000003  0.0000000000000014  30.8190914635609232
Ti  N  Cl
2  1  2
Selective  dynamics
Direct
0.0000000000000000  0.0000000000000000  0.0558860562242201  T  T  T
0.6666666666666643  0.3333333333333357  0.1329284476180216  T  T  T
0.3333333333333357  0.6666666666666643  0.0944072519211209  T  T  T
0.3333333333333357  0.6666666666666643  0.0000000000000000  T  T  T
0.3333333333333357  0.6666666666666643  0.1888145038422417  T  T  T

0.00000000E+00  0.00000000E+00  0.00000000E+00
0.00000000E+00  0.00000000E+00  0.00000000E+00
0.00000000E+00  0.00000000E+00  0.00000000E+00
0.00000000E+00  0.00000000E+00  0.00000000E+00
0.00000000E+00  0.00000000E+00  0.00000000E+00
