Mo2N  (n=1)
1.00000000000000
3.1417953861360308  0.0000000000000000  0.0000000000000003
-1.5708976930680152  2.7208746181456323  -0.0000000000000008
0.0000000000000027  -0.0000000000000097  31.0142643320648261
Mo  N  Cl
2  1  2
Selective  dynamics
Direct
0.0000000000000000  0.0000000000000000  0.0605750283559623  T  T  T
0.6666666666666643  0.3333333333333357  0.1333442685092235  T  T  T
0.3333333333333357  0.6666666666666643  0.0969596484325929  T  T  T
0.3333333333333357  0.6666666666666643  0.0000000000000000  T  T  T
0.3333333333333357  0.6666666666666643  0.1939192968651794  T  T  T

0.00000000E+00  0.00000000E+00  0.00000000E+00
0.00000000E+00  0.00000000E+00  0.00000000E+00
0.00000000E+00  0.00000000E+00  0.00000000E+00
0.00000000E+00  0.00000000E+00  0.00000000E+00
0.00000000E+00  0.00000000E+00  0.00000000E+00
