Nb2C  (n=1)
1.00000000000000
3.1860905906135311  -0.0000000000000002  0.0000000000000000
-1.5930452953067655  2.7592353905465878  -0.0000000000000000
-0.0000000000000000  0.0000000000000000  31.1975833506452780
Nb  C  Cl
2  1  2
Selective  dynamics
Direct
-0.0000000000000000  0.0000000000000000  0.0585626941087111  T  T  T
0.6666666666666643  0.3333333333333357  0.1400931851299958  T  T  T
0.3333333333333357  0.6666666666666643  0.0993279396193496  T  T  T
0.3333333333333357  0.6666666666666643  0.0000000000000000  T  T  T
0.3333333333333357  0.6666666666666643  0.1986558792387068  T  T  T

0.00000000E+00  0.00000000E+00  0.00000000E+00
0.00000000E+00  0.00000000E+00  0.00000000E+00
0.00000000E+00  0.00000000E+00  0.00000000E+00
0.00000000E+00  0.00000000E+00  0.00000000E+00
0.00000000E+00  0.00000000E+00  0.00000000E+00
