Sc2N
1.00000000000000
3.3146886509029696  -0.0000000000000004  0.0000000000000006
-1.6573443254514855  2.8706045774994711  -0.0000000000000001
0.0000000000000043  0.0000000000000032  30.9720673955724273
Sc  N  Cl
2  1  2
Selective  dynamics
Direct
0.0000000000000000  0.0000000000000000  0.0566890035798341  T  T  T
0.6666666666666643  0.3333333333333357  0.1361320735312843  T  T  T
0.3333333333333357  0.6666666666666643  0.0964105385555592  T  T  T
0.3333333333333357  0.6666666666666643  0.0000000000000000  T  T  T
0.3333333333333357  0.6666666666666643  0.1928210771111184  T  T  T

0.00000000E+00  0.00000000E+00  0.00000000E+00
0.00000000E+00  0.00000000E+00  0.00000000E+00
0.00000000E+00  0.00000000E+00  0.00000000E+00
0.00000000E+00  0.00000000E+00  0.00000000E+00
0.00000000E+00  0.00000000E+00  0.00000000E+00
