Sc2C  (n=1)
1.00000000000000
3.3888726605587718  0.0000000000000005  -0.0000000000000000
-1.6944363302793850  2.9348498146340063  0.0000000000000001
-0.0000000000000001  0.0000000000000005  31.0771186739441951
Sc  C  Cl
2  1  2
Selective  dynamics
Direct
-0.0000000000000000  0.0000000000000000  0.0569531017112720  T  T  T
0.6666666666666643  0.3333333333333357  0.1385965159255585  T  T  T
0.3333333333333357  0.6666666666666643  0.0977748088184191  T  T  T
0.3333333333333357  0.6666666666666643  0.0000000000000000  T  T  T
0.3333333333333357  0.6666666666666643  0.1955496176368306  T  T  T

0.00000000E+00  0.00000000E+00  0.00000000E+00
0.00000000E+00  0.00000000E+00  0.00000000E+00
0.00000000E+00  0.00000000E+00  0.00000000E+00
0.00000000E+00  0.00000000E+00  0.00000000E+00
0.00000000E+00  0.00000000E+00  0.00000000E+00
