Cr2N  (n=1)
1.00000000000000
3.0827215131503838  0.0000000000000000  0.0000000000000000
-1.5413607565751919  2.6697151434013997  0.0000000000000000
0.0000000000000000  -0.0000000000000002  30.4453146319672925
Cr  N  Cl
2  1  2
Selective  dynamics
Direct
-0.0000000000000000  0.0000000000000000  0.0584702140514441  T  T  T
0.6666666666666643  0.3333333333333357  0.1203853733449090  T  T  T
0.3333333333333357  0.6666666666666643  0.0894277936981731  T  T  T
0.3333333333333357  0.6666666666666643  0.0000000000000000  T  T  T
0.3333333333333357  0.6666666666666643  0.1788555873963531  T  T  T

0.00000000E+00  0.00000000E+00  0.00000000E+00
0.00000000E+00  0.00000000E+00  0.00000000E+00
0.00000000E+00  0.00000000E+00  0.00000000E+00
0.00000000E+00  0.00000000E+00  0.00000000E+00
0.00000000E+00  0.00000000E+00  0.00000000E+00
