Zr2N  (n=1)
1.00000000000000
3.2947178768310974  0.0000000000000010  -0.0000000000000003
-1.6473589384155476  2.8533093799160509  0.0000000000000007
-0.0000000000000029  0.0000000000000049  31.3097812865275920
Zr  N  Cl
2  1  2
Selective  dynamics
Direct
0.0000000000000000  0.0000000000000000  0.0584176457259314  T  T  T
0.6666666666666643  0.3333333333333357  0.1431098331403259  T  T  T
0.3333333333333357  0.6666666666666643  0.1007637394331250  T  T  T
0.3333333333333357  0.6666666666666643  0.0000000000000000  T  T  T
0.3333333333333357  0.6666666666666643  0.2015274788662498  T  T  T

0.00000000E+00  0.00000000E+00  0.00000000E+00
0.00000000E+00  0.00000000E+00  0.00000000E+00
0.00000000E+00  0.00000000E+00  0.00000000E+00
0.00000000E+00  0.00000000E+00  0.00000000E+00
0.00000000E+00  0.00000000E+00  0.00000000E+00
