Cr2C  (n=1)
1.00000000000000
3.1050253989494254  -0.0000000000000002  0.0000000000000001
-1.5525126994747127  2.6890308749268725  0.0000000000000000
0.0000000000000010  -0.0000000000000003  30.4634028096603693
Cr  C  Cl
2  1  2
Selective  dynamics
Direct
-0.0000000000000000  -0.0000000000000000  0.0564971627807572  T  T  T
0.6666666666666643  0.3333333333333357  0.1228459934581070  T  T  T
0.3333333333333357  0.6666666666666643  0.0896715781194356  T  T  T
0.3333333333333357  0.6666666666666643  0.0000000000000000  T  T  T
0.3333333333333357  0.6666666666666643  0.1793431562388640  T  T  T

0.00000000E+00  0.00000000E+00  0.00000000E+00
0.00000000E+00  0.00000000E+00  0.00000000E+00
0.00000000E+00  0.00000000E+00  0.00000000E+00
0.00000000E+00  0.00000000E+00  0.00000000E+00
0.00000000E+00  0.00000000E+00  0.00000000E+00
