Hf2C  (n=1)
1.00000000000000
3.3364630839633227  0.0000000000000016  0.0000000000000000
-1.6682315419816600  2.8894617897973931  -0.0000000000000005
0.0000000000000002  -0.0000000000000087  31.1165691175018537
Hf  C  Cl
2  1  2
Selective  dynamics
Direct
-0.0000000000000000  -0.0000000000000000  0.0586738366337441  T  T  T
0.6666666666666643  0.3333333333333357  0.1378956853596607  T  T  T
0.3333333333333357  0.6666666666666643  0.0982847609967024  T  T  T
0.3333333333333357  0.6666666666666643  0.0000000000000000  T  T  T
0.3333333333333357  0.6666666666666643  0.1965695219933975  T  T  T

0.00000000E+00  0.00000000E+00  0.00000000E+00
0.00000000E+00  0.00000000E+00  0.00000000E+00
0.00000000E+00  0.00000000E+00  0.00000000E+00
0.00000000E+00  0.00000000E+00  0.00000000E+00
0.00000000E+00  0.00000000E+00  0.00000000E+00
