Nb2N  (n=1)
1.00000000000000
3.1429926228551248  0.0000000000000000  0.0000000000000000
-1.5714963114275624  2.7219114555498281  0.0000000000000000
0.0000000000000000  0.0000000000000004  31.2545995425765497
Nb  N  Cl
2  1  2
Selective  dynamics
Direct
0.0000000000000000  0.0000000000000000  0.0585285668141961  T  T  T
0.6666666666666643  0.3333333333333357  0.1415891641474893  T  T  T
0.3333333333333357  0.6666666666666643  0.1000588654808427  T  T  T
0.3333333333333357  0.6666666666666643  0.0000000000000000  T  T  T
0.3333333333333357  0.6666666666666643  0.2001177309616853  T  T  T

0.00000000E+00  0.00000000E+00  0.00000000E+00
0.00000000E+00  0.00000000E+00  0.00000000E+00
0.00000000E+00  0.00000000E+00  0.00000000E+00
0.00000000E+00  0.00000000E+00  0.00000000E+00
0.00000000E+00  0.00000000E+00  0.00000000E+00
