Ta2N  (n=1)
1.00000000000000
3.1088097810238842  -0.0000000000000002  0.0000000000000000
-1.5544048905119421  2.6923082461488099  0.0000000000000000
0.0000000000000001  -0.0000000000000002  31.2867780327693481
Ta  N  Cl
2  1  2
Selective  dynamics
Direct
-0.0000000000000000  -0.0000000000000000  0.0588507257583559  T  T  T
0.6666666666666643  0.3333333333333357  0.1420896851137594  T  T  T
0.3333333333333357  0.6666666666666643  0.1004702054360576  T  T  T
0.3333333333333357  0.6666666666666643  0.0000000000000000  T  T  T
0.3333333333333357  0.6666666666666643  0.2009404108721154  T  T  T

0.00000000E+00  0.00000000E+00  0.00000000E+00
0.00000000E+00  0.00000000E+00  0.00000000E+00
0.00000000E+00  0.00000000E+00  0.00000000E+00
0.00000000E+00  0.00000000E+00  0.00000000E+00
0.00000000E+00  0.00000000E+00  0.00000000E+00
