Zr2C  (n=1)
1.00000000000000
3.3864832987611524  -0.0000000000000013  0.0000000000000009
-1.6932416493805771  2.9327805665183249  -0.0000000000000005
0.0000000000000070  -0.0000000000000022  31.1957340946743287
Zr  C  Cl
2  1  2
Selective  dynamics
Direct
0.0000000000000000  -0.0000000000000000  0.0588428170884619  T  T  T
0.6666666666666643  0.3333333333333357  0.1397655591680869  T  T  T
0.3333333333333357  0.6666666666666643  0.0993041881282745  T  T  T
0.3333333333333357  0.6666666666666643  0.0000000000000000  T  T  T
0.3333333333333357  0.6666666666666643  0.1986083762565488  T  T  T

0.00000000E+00  0.00000000E+00  0.00000000E+00
0.00000000E+00  0.00000000E+00  0.00000000E+00
0.00000000E+00  0.00000000E+00  0.00000000E+00
0.00000000E+00  0.00000000E+00  0.00000000E+00
0.00000000E+00  0.00000000E+00  0.00000000E+00
