Hf2N  (n=1)
1.00000000000000
3.2318914320830832  -0.0000000000000016  0.0000000000000000
-1.6159457160415429  2.7989000827228407  0.0000000000000000
0.0000000000000007  -0.0000000000000001  31.2756237557423482
Hf  N  Cl
2  1  2
Selective  dynamics
Direct
-0.0000000000000000  -0.0000000000000000  0.0582480800103687  T  T  T
0.6666666666666643  0.3333333333333357  0.1424073507095493  T  T  T
0.3333333333333357  0.6666666666666643  0.1003277153599590  T  T  T
0.3333333333333357  0.6666666666666643  0.0000000000000000  T  T  T
0.3333333333333357  0.6666666666666643  0.2006554307199105  T  T  T

0.00000000E+00  0.00000000E+00  0.00000000E+00
0.00000000E+00  0.00000000E+00  0.00000000E+00
0.00000000E+00  0.00000000E+00  0.00000000E+00
0.00000000E+00  0.00000000E+00  0.00000000E+00
0.00000000E+00  0.00000000E+00  0.00000000E+00
