Ta2C  (n=1)
1.00000000000000
3.1495095094850227  -0.0000000000000002  0.0000000000000007
-1.5747547547425111  2.7275552449261098  -0.0000000000000019
0.0000000000000074  -0.0000000000000161  31.2297227120521157
Ta  C  Cl
2  1  2
Selective  dynamics
Direct
-0.0000000000000000  -0.0000000000000000  0.0585260951756058  T  T  T
0.6666666666666643  0.3333333333333357  0.1409544692050683  T  T  T
0.3333333333333357  0.6666666666666643  0.0997402821903370  T  T  T
0.3333333333333357  0.6666666666666643  0.0000000000000000  T  T  T
0.3333333333333357  0.6666666666666643  0.1994805643806742  T  T  T

0.00000000E+00  0.00000000E+00  0.00000000E+00
0.00000000E+00  0.00000000E+00  0.00000000E+00
0.00000000E+00  0.00000000E+00  0.00000000E+00
0.00000000E+00  0.00000000E+00  0.00000000E+00
0.00000000E+00  0.00000000E+00  0.00000000E+00
