Ti2C  (n=1)
1.00000000000000
3.1709831196129974  0.0000000000000000  -0.0000000000000001
-1.5854915598064989  2.7461519367644986  0.0000000000000001
-0.0000000000000007  0.0000000000000002  30.7542796637717686
Ti  C  Cl
2  1  2
Selective  dynamics
Direct
0.0000000000000000  0.0000000000000000  0.0561780937375007  T  T  T
0.6666666666666643  0.3333333333333357  0.1309269117017993  T  T  T
0.3333333333333357  0.6666666666666643  0.0935525027196500  T  T  T
0.3333333333333357  0.6666666666666643  0.0000000000000000  T  T  T
0.3333333333333357  0.6666666666666643  0.1871050054393000  T  T  T

0.00000000E+00  0.00000000E+00  0.00000000E+00
0.00000000E+00  0.00000000E+00  0.00000000E+00
0.00000000E+00  0.00000000E+00  0.00000000E+00
0.00000000E+00  0.00000000E+00  0.00000000E+00
0.00000000E+00  0.00000000E+00  0.00000000E+00
