Cr3C2  (n=2)
1.00000000000000
2.7105327652762785  0.0000000000000000  0.0000000000000000
-1.3552663826381393  2.3473902325052163  0.0000000000000000
0.0000000000000000  0.0000000000000000  34.6083434461356774
Cr  C  N  H
3  2  2  2
Selective  dynamics
Direct
0.0000000000000000  0.0000000000000000  0.0625810981231558  T  T  T
0.0000000000000000  0.0000000000000000  0.1388154197713922  T  T  T
0.0000000000000000  0.0000000000000000  0.2150497414196369  T  T  T
0.3333333333333357  0.6666666666666643  0.1016964288085211  T  T  T
0.3333333333333357  0.6666666666666643  0.1759344107342469  T  T  T
0.6666666666666643  0.3333333333333357  0.0296497899531696  T  T  T
0.6666666666666643  0.3333333333333357  0.2479810495896148  T  T  T
0.6666666666666643  0.3333333333333357  0.0000000000000000  T  T  T
0.6666666666666643  0.3333333333333357  0.2776308395427846  T  T  T

0.00000000E+00  0.00000000E+00  0.00000000E+00
0.00000000E+00  0.00000000E+00  0.00000000E+00
0.00000000E+00  0.00000000E+00  0.00000000E+00
0.00000000E+00  0.00000000E+00  0.00000000E+00
0.00000000E+00  0.00000000E+00  0.00000000E+00
0.00000000E+00  0.00000000E+00  0.00000000E+00
0.00000000E+00  0.00000000E+00  0.00000000E+00
0.00000000E+00  0.00000000E+00  0.00000000E+00
0.00000000E+00  0.00000000E+00  0.00000000E+00
