Zr3N2  (n=2)
1.00000000000000
3.2451829830384611  0.0000000000000000  0.0000000000000000
-1.6225914915192305  2.8104109033800246  0.0000000000000000
0.0000000000000000  0.0000000000000000  35.0651927171592774
Zr  N  H
3  4  2
Selective  dynamics
Direct
-0.0000000000000000  0.0000000000000000  0.0611549886019841  T  T  T
-0.0000000000000000  0.0000000000000000  0.1435211378751891  T  T  T
-0.0000000000000000  0.0000000000000000  0.2258872871484023  T  T  T
0.3333333333333357  0.6666666666666643  0.1017479770737401  T  T  T
0.3333333333333357  0.6666666666666643  0.1852942986766379  T  T  T
0.6666666666666643  0.3333333333333357  0.0292039761616681  T  T  T
0.6666666666666643  0.3333333333333357  0.2578382995887183  T  T  T
0.6666666666666643  0.3333333333333357  0.0000000000000000  T  T  T
0.6666666666666643  0.3333333333333357  0.2870422757503865  T  T  T

0.00000000E+00  0.00000000E+00  0.00000000E+00
0.00000000E+00  0.00000000E+00  0.00000000E+00
0.00000000E+00  0.00000000E+00  0.00000000E+00
0.00000000E+00  0.00000000E+00  0.00000000E+00
0.00000000E+00  0.00000000E+00  0.00000000E+00
0.00000000E+00  0.00000000E+00  0.00000000E+00
0.00000000E+00  0.00000000E+00  0.00000000E+00
0.00000000E+00  0.00000000E+00  0.00000000E+00
0.00000000E+00  0.00000000E+00  0.00000000E+00
