Ta3N2  (n=2)
1.00000000000000
2.9772384665872544  0.0000000000000000  0.0000000000000000
-1.4886192332936272  2.5783641452514630  0.0000000000000000
0.0000000000000000  0.0000000000000000  35.3476278651264622
Ta  N  H
3  4  2
Selective  dynamics
Direct
0.0000000000000000  0.0000000000000000  0.0641290811364517  T  T  T
0.0000000000000000  0.0000000000000000  0.1463694806425047  T  T  T
0.0000000000000000  0.0000000000000000  0.2286098801485660  T  T  T
0.3333333333333357  0.6666666666666643  0.1062830672800369  T  T  T
0.3333333333333357  0.6666666666666643  0.1864558940049726  T  T  T
0.6666666666666643  0.3333333333333357  0.0290206752420560  T  T  T
0.6666666666666643  0.3333333333333357  0.2637182860429616  T  T  T
0.6666666666666643  0.3333333333333357  0.0000000000000000  T  T  T
0.6666666666666643  0.3333333333333357  0.2927389612850176  T  T  T

0.00000000E+00  0.00000000E+00  0.00000000E+00
0.00000000E+00  0.00000000E+00  0.00000000E+00
0.00000000E+00  0.00000000E+00  0.00000000E+00
0.00000000E+00  0.00000000E+00  0.00000000E+00
0.00000000E+00  0.00000000E+00  0.00000000E+00
0.00000000E+00  0.00000000E+00  0.00000000E+00
0.00000000E+00  0.00000000E+00  0.00000000E+00
0.00000000E+00  0.00000000E+00  0.00000000E+00
0.00000000E+00  0.00000000E+00  0.00000000E+00
