Ti3C2  (n=2)
1.00000000000000
3.0441988920958867  0.0000000000000000  0.0000000000000000
-1.5220994460479433  2.6363535748105194  0.0000000000000000
0.0000000000000000  0.0000000000000000  34.6333895035730706
Ti  C  N  H
3  2  2  2
Selective  dynamics
Direct
0.0000000000000000  -0.0000000000000000  0.0593135434752379  T  T  T
0.0000000000000000  -0.0000000000000000  0.1390766200140360  T  T  T
0.0000000000000000  -0.0000000000000000  0.2188396965528343  T  T  T
0.3333333333333357  0.6666666666666643  0.0993571382312520  T  T  T
0.3333333333333357  0.6666666666666643  0.1787961017968122  T  T  T
0.6666666666666643  0.3333333333333357  0.0295837856531855  T  T  T
0.6666666666666643  0.3333333333333357  0.2485694543748945  T  T  T
0.6666666666666643  0.3333333333333357  0.0000000000000000  T  T  T
0.6666666666666643  0.3333333333333357  0.2781532400280720  T  T  T

0.00000000E+00  0.00000000E+00  0.00000000E+00
0.00000000E+00  0.00000000E+00  0.00000000E+00
0.00000000E+00  0.00000000E+00  0.00000000E+00
0.00000000E+00  0.00000000E+00  0.00000000E+00
0.00000000E+00  0.00000000E+00  0.00000000E+00
0.00000000E+00  0.00000000E+00  0.00000000E+00
0.00000000E+00  0.00000000E+00  0.00000000E+00
0.00000000E+00  0.00000000E+00  0.00000000E+00
0.00000000E+00  0.00000000E+00  0.00000000E+00
