Nb3C2  (n=2)
1.00000000000000
3.1127345762883571  0.0000000000000000  0.0000000000000000
-1.5563672881441786  2.6957072184488728  0.0000000000000000
0.0000000000000000  0.0000000000000000  35.0846198341561006
Nb  C  N  H
3  2  2  2
Selective  dynamics
Direct
0.0000000000000000  -0.0000000000000000  0.0627559570812155  T  T  T
0.0000000000000000  -0.0000000000000000  0.1437185279735970  T  T  T
0.0000000000000000  -0.0000000000000000  0.2246810988659710  T  T  T
0.3333333333333357  0.6666666666666643  0.1029864116872135  T  T  T
0.3333333333333357  0.6666666666666643  0.1844506442599729  T  T  T
0.6666666666666643  0.3333333333333357  0.0291831251610580  T  T  T
0.6666666666666643  0.3333333333333357  0.2582539307861361  T  T  T
0.6666666666666643  0.3333333333333357  0.0000000000000000  T  T  T
0.6666666666666643  0.3333333333333357  0.2874370559471866  T  T  T

0.00000000E+00  0.00000000E+00  0.00000000E+00
0.00000000E+00  0.00000000E+00  0.00000000E+00
0.00000000E+00  0.00000000E+00  0.00000000E+00
0.00000000E+00  0.00000000E+00  0.00000000E+00
0.00000000E+00  0.00000000E+00  0.00000000E+00
0.00000000E+00  0.00000000E+00  0.00000000E+00
0.00000000E+00  0.00000000E+00  0.00000000E+00
0.00000000E+00  0.00000000E+00  0.00000000E+00
0.00000000E+00  0.00000000E+00  0.00000000E+00
