Sc3N2  (n=2)
1.00000000000000
3.2258256452513039  0.0000000000000000  0.0000000000000000
-1.6129128226256519  2.7936469570945497  0.0000000000000000
0.0000000000000000  0.0000000000000000  34.7157017377597441
Sc  N  H
3  4  2
Selective  dynamics
Direct
0.0000000000000000  -0.0000000000000000  0.0570118490597243  T  T  T
0.0000000000000000  -0.0000000000000000  0.1399323829192805  T  T  T
0.0000000000000000  -0.0000000000000000  0.2228529167788450  T  T  T
0.3333333333333357  0.6666666666666643  0.1021647665908383  T  T  T
0.3333333333333357  0.6666666666666643  0.1776999992477309  T  T  T
0.6666666666666643  0.3333333333333357  0.0295869715986346  T  T  T
0.6666666666666643  0.3333333333333357  0.2502777942399430  T  T  T
0.6666666666666643  0.3333333333333357  0.0000000000000000  T  T  T
0.6666666666666643  0.3333333333333357  0.2798647658385693  T  T  T

0.00000000E+00  0.00000000E+00  0.00000000E+00
0.00000000E+00  0.00000000E+00  0.00000000E+00
0.00000000E+00  0.00000000E+00  0.00000000E+00
0.00000000E+00  0.00000000E+00  0.00000000E+00
0.00000000E+00  0.00000000E+00  0.00000000E+00
0.00000000E+00  0.00000000E+00  0.00000000E+00
0.00000000E+00  0.00000000E+00  0.00000000E+00
0.00000000E+00  0.00000000E+00  0.00000000E+00
0.00000000E+00  0.00000000E+00  0.00000000E+00
