Mo3C2  (n=2)
1.00000000000000
2.9186245266129629  0.0000000000000000  0.0000000000000000
-1.4593122633064814  2.5276029841935346  0.0000000000000000
0.0000000000000000  0.0000000000000000  35.2431380107461365
Mo  C  N  H
3  2  2  2
Selective  dynamics
Direct
-0.0000000000000000  0.0000000000000000  0.0644338790554179  T  T  T
-0.0000000000000000  0.0000000000000000  0.1453210268566648  T  T  T
-0.0000000000000000  0.0000000000000000  0.2262081746579279  T  T  T
0.3333333333333357  0.6666666666666643  0.1060323165140939  T  T  T
0.3333333333333357  0.6666666666666643  0.1846097371992357  T  T  T
0.6666666666666643  0.3333333333333357  0.0290818118973854  T  T  T
0.6666666666666643  0.3333333333333357  0.2615602418159604  T  T  T
0.6666666666666643  0.3333333333333357  0.0000000000000000  T  T  T
0.6666666666666643  0.3333333333333357  0.2906420537133458  T  T  T

0.00000000E+00  0.00000000E+00  0.00000000E+00
0.00000000E+00  0.00000000E+00  0.00000000E+00
0.00000000E+00  0.00000000E+00  0.00000000E+00
0.00000000E+00  0.00000000E+00  0.00000000E+00
0.00000000E+00  0.00000000E+00  0.00000000E+00
0.00000000E+00  0.00000000E+00  0.00000000E+00
0.00000000E+00  0.00000000E+00  0.00000000E+00
0.00000000E+00  0.00000000E+00  0.00000000E+00
0.00000000E+00  0.00000000E+00  0.00000000E+00
