Ti3N2  (n=2)
1.00000000000000
2.9786060923227686  0.0000000000000000  0.0000000000000000
-1.4893030461613843  2.5795485438570691  0.0000000000000000
0.0000000000000000  0.0000000000000000  34.4771680584349554
Ti  N  H
3  4  2
Selective  dynamics
Direct
-0.0000000000000000  0.0000000000000000  0.0606475955392442  T  T  T
-0.0000000000000000  0.0000000000000000  0.1374412196844620  T  T  T
-0.0000000000000000  0.0000000000000000  0.2142348438296881  T  T  T
0.3333333333333357  0.6666666666666643  0.0987587118879666  T  T  T
0.3333333333333357  0.6666666666666643  0.1761237274809575  T  T  T
0.6666666666666643  0.3333333333333357  0.0296587245165157  T  T  T
0.6666666666666643  0.3333333333333357  0.2452237148524084  T  T  T
0.6666666666666643  0.3333333333333357  0.0000000000000000  T  T  T
0.6666666666666643  0.3333333333333357  0.2748824393689241  T  T  T

0.00000000E+00  0.00000000E+00  0.00000000E+00
0.00000000E+00  0.00000000E+00  0.00000000E+00
0.00000000E+00  0.00000000E+00  0.00000000E+00
0.00000000E+00  0.00000000E+00  0.00000000E+00
0.00000000E+00  0.00000000E+00  0.00000000E+00
0.00000000E+00  0.00000000E+00  0.00000000E+00
0.00000000E+00  0.00000000E+00  0.00000000E+00
0.00000000E+00  0.00000000E+00  0.00000000E+00
0.00000000E+00  0.00000000E+00  0.00000000E+00
