Mo3N2  (n=2)
1.00000000000000
2.8700942907545035  0.0000000000000000  0.0000000000000000
-1.4350471453772518  2.4855745670908229  0.0000000000000000
0.0000000000000000  0.0000000000000000  35.3617942758372266
Mo  N  H
3  4  2
Selective  dynamics
Direct
0.0000000000000000  -0.0000000000000000  0.0643057816977865  T  T  T
0.0000000000000000  -0.0000000000000000  0.1465111497879673  T  T  T
0.0000000000000000  -0.0000000000000000  0.2287165178781561  T  T  T
0.3333333333333357  0.6666666666666643  0.1090044414439322  T  T  T
0.3333333333333357  0.6666666666666643  0.1840178581320025  T  T  T
0.6666666666666643  0.3333333333333357  0.0289940498509081  T  T  T
0.6666666666666643  0.3333333333333357  0.2640282497250346  T  T  T
0.6666666666666643  0.3333333333333357  0.0000000000000000  T  T  T
0.6666666666666643  0.3333333333333357  0.2930222995759427  T  T  T

0.00000000E+00  0.00000000E+00  0.00000000E+00
0.00000000E+00  0.00000000E+00  0.00000000E+00
0.00000000E+00  0.00000000E+00  0.00000000E+00
0.00000000E+00  0.00000000E+00  0.00000000E+00
0.00000000E+00  0.00000000E+00  0.00000000E+00
0.00000000E+00  0.00000000E+00  0.00000000E+00
0.00000000E+00  0.00000000E+00  0.00000000E+00
0.00000000E+00  0.00000000E+00  0.00000000E+00
0.00000000E+00  0.00000000E+00  0.00000000E+00
