Hf3C2  (n=2)
1.00000000000000
3.2709151937956538  0.0000000000000000  0.0000000000000000
-1.6354575968978269  2.8326956516553943  0.0000000000000000
0.0000000000000000  0.0000000000000000  35.0465245015643774
Hf  C  N  H
3  2  2  2
Selective  dynamics
Direct
-0.0000000000000000  0.0000000000000000  0.0593469259170440  T  T  T
-0.0000000000000000  0.0000000000000000  0.1433312524486649  T  T  T
-0.0000000000000000  0.0000000000000000  0.2273155789802939  T  T  T
0.3333333333333357  0.6666666666666643  0.1012481740915831  T  T  T
0.3333333333333357  0.6666666666666643  0.1854143308057467  T  T  T
0.6666666666666643  0.3333333333333357  0.0292567876784939  T  T  T
0.6666666666666643  0.3333333333333357  0.2574057172188440  T  T  T
0.6666666666666643  0.3333333333333357  0.0000000000000000  T  T  T
0.6666666666666643  0.3333333333333357  0.2866625048973380  T  T  T

0.00000000E+00  0.00000000E+00  0.00000000E+00
0.00000000E+00  0.00000000E+00  0.00000000E+00
0.00000000E+00  0.00000000E+00  0.00000000E+00
0.00000000E+00  0.00000000E+00  0.00000000E+00
0.00000000E+00  0.00000000E+00  0.00000000E+00
0.00000000E+00  0.00000000E+00  0.00000000E+00
0.00000000E+00  0.00000000E+00  0.00000000E+00
0.00000000E+00  0.00000000E+00  0.00000000E+00
0.00000000E+00  0.00000000E+00  0.00000000E+00
