Ta3C2  (n=2)
1.00000000000000
3.0904526166821058  0.0000000000000000  0.0000000000000000
-1.5452263083410529  2.6764104753351532  0.0000000000000000
0.0000000000000000  0.0000000000000000  35.0612958277610147
Ta  C  N  H
3  2  2  2
Selective  dynamics
Direct
-0.0000000000000000  0.0000000000000000  0.0625732807182887  T  T  T
-0.0000000000000000  0.0000000000000000  0.1434815170150475  T  T  T
0.0000000000000000  0.0000000000000000  0.2243897533118064  T  T  T
0.3333333333333357  0.6666666666666643  0.1023042959687907  T  T  T
0.3333333333333357  0.6666666666666643  0.1846587380612962  T  T  T
0.6666666666666643  0.3333333333333357  0.0291972870687911  T  T  T
0.6666666666666643  0.3333333333333357  0.2577657469613124  T  T  T
0.6666666666666643  0.3333333333333357  0.0000000000000000  T  T  T
0.6666666666666643  0.3333333333333357  0.2869630340300951  T  T  T

0.00000000E+00  0.00000000E+00  0.00000000E+00
0.00000000E+00  0.00000000E+00  0.00000000E+00
0.00000000E+00  0.00000000E+00  0.00000000E+00
0.00000000E+00  0.00000000E+00  0.00000000E+00
0.00000000E+00  0.00000000E+00  0.00000000E+00
0.00000000E+00  0.00000000E+00  0.00000000E+00
0.00000000E+00  0.00000000E+00  0.00000000E+00
0.00000000E+00  0.00000000E+00  0.00000000E+00
0.00000000E+00  0.00000000E+00  0.00000000E+00
