Nb3N2  (n=2)
1.00000000000000
2.9970435778094831  0.0000000000000000  0.0000000000000000
-1.4985217889047415  2.5955158746992271  0.0000000000000000
0.0000000000000000  0.0000000000000000  35.3673646506428270
Nb  N  H
3  4  2
Selective  dynamics
Direct
-0.0000000000000000  -0.0000000000000000  0.0643017120692409  T  T  T
-0.0000000000000000  -0.0000000000000000  0.1465668244305291  T  T  T
-0.0000000000000000  -0.0000000000000000  0.2288319367918255  T  T  T
0.3333333333333357  0.6666666666666643  0.1067085851117680  T  T  T
0.3333333333333357  0.6666666666666643  0.1864250637492902  T  T  T
0.6666666666666643  0.3333333333333357  0.0289604182611017  T  T  T
0.6666666666666643  0.3333333333333357  0.2641732305999647  T  T  T
0.6666666666666643  0.3333333333333357  0.0000000000000000  T  T  T
0.6666666666666643  0.3333333333333357  0.2931336488610664  T  T  T

0.00000000E+00  0.00000000E+00  0.00000000E+00
0.00000000E+00  0.00000000E+00  0.00000000E+00
0.00000000E+00  0.00000000E+00  0.00000000E+00
0.00000000E+00  0.00000000E+00  0.00000000E+00
0.00000000E+00  0.00000000E+00  0.00000000E+00
0.00000000E+00  0.00000000E+00  0.00000000E+00
0.00000000E+00  0.00000000E+00  0.00000000E+00
0.00000000E+00  0.00000000E+00  0.00000000E+00
0.00000000E+00  0.00000000E+00  0.00000000E+00
