Zr3C2  (n=2)
1.00000000000000
3.3138393617904658  0.0000000000000000  0.0000000000000000
-1.6569196808952329  2.8698690716143633  0.0000000000000000
0.0000000000000000  0.0000000000000000  35.2054965472668613
Zr  C  N  H
3  2  2  2
Selective  dynamics
Direct
-0.0000000000000000  -0.0000000000000000  0.0596794332883817  T  T  T
-0.0000000000000000  -0.0000000000000000  0.1449418066517637  T  T  T
-0.0000000000000000  -0.0000000000000000  0.2302041800151538  T  T  T
0.3333333333333357  0.6666666666666643  0.1022620204741232  T  T  T
0.3333333333333357  0.6666666666666643  0.1876215928294041  T  T  T
0.6666666666666643  0.3333333333333357  0.0291489299593610  T  T  T
0.6666666666666643  0.3333333333333357  0.2607346833441664  T  T  T
0.6666666666666643  0.3333333333333357  0.0000000000000000  T  T  T
0.6666666666666643  0.3333333333333357  0.2898836133035355  T  T  T

0.00000000E+00  0.00000000E+00  0.00000000E+00
0.00000000E+00  0.00000000E+00  0.00000000E+00
0.00000000E+00  0.00000000E+00  0.00000000E+00
0.00000000E+00  0.00000000E+00  0.00000000E+00
0.00000000E+00  0.00000000E+00  0.00000000E+00
0.00000000E+00  0.00000000E+00  0.00000000E+00
0.00000000E+00  0.00000000E+00  0.00000000E+00
0.00000000E+00  0.00000000E+00  0.00000000E+00
0.00000000E+00  0.00000000E+00  0.00000000E+00
