Cr3N2  (n=2)
1.00000000000000
2.7015149936713345  0.0000000000000000  0.0000000000000000
-1.3507574968356673  2.3395806132165582  0.0000000000000000
0.0000000000000000  0.0000000000000000  34.5146199234556832
Cr  N  H
3  4  2
Selective  dynamics
Direct
0.0000000000000000  0.0000000000000000  0.0624023029041932  T  T  T
0.0000000000000000  0.0000000000000000  0.1378346327521003  T  T  T
0.0000000000000000  0.0000000000000000  0.2132669626000076  T  T  T
0.3333333333333357  0.6666666666666643  0.1019051436409899  T  T  T
0.3333333333333357  0.6666666666666643  0.1737641218632107  T  T  T
0.6666666666666643  0.3333333333333357  0.0297181126428595  T  T  T
0.6666666666666643  0.3333333333333357  0.2459511528613411  T  T  T
0.6666666666666643  0.3333333333333357  0.0000000000000000  T  T  T
0.6666666666666643  0.3333333333333357  0.2756692655042007  T  T  T

0.00000000E+00  0.00000000E+00  0.00000000E+00
0.00000000E+00  0.00000000E+00  0.00000000E+00
0.00000000E+00  0.00000000E+00  0.00000000E+00
0.00000000E+00  0.00000000E+00  0.00000000E+00
0.00000000E+00  0.00000000E+00  0.00000000E+00
0.00000000E+00  0.00000000E+00  0.00000000E+00
0.00000000E+00  0.00000000E+00  0.00000000E+00
0.00000000E+00  0.00000000E+00  0.00000000E+00
0.00000000E+00  0.00000000E+00  0.00000000E+00
