Sc3C2N2H2  (n=2)
1.00000000000000
3.5105527514967561  0.0000000000000000  0.0000000000000000
-1.7552763757483780  3.0402278641293732  0.0000000000000000
0.0000000000000000  0.0000000000000000  34.1334161116374659
Sc  C  N  H
3  2  2  2
Selective  dynamics
Direct
0.0000000000000000  0.0000000000000000  0.0523897446119072  T  T  T
0.0000000000000000  0.0000000000000000  0.1338016271222513  T  T  T
0.0000000000000000  0.0000000000000000  0.2152027225499403  T  T  T
0.3333333333333357  0.6666666666666643  0.1109512848120817  T  T  T
0.3333333333333357  0.6666666666666643  0.1566633455186999  T  T  T
0.6666666666666643  0.3333333333333357  0.0303319266923478  T  T  T
0.6666666666666643  0.3333333333333357  0.2372534260775336  T  T  T
0.6666666666666643  0.3333333333333357  0.0000000000000000  T  T  T
0.6666666666666643  0.3333333333333357  0.2675799012254011  T  T  T

0.00000000E+00  0.00000000E+00  0.00000000E+00
0.00000000E+00  0.00000000E+00  0.00000000E+00
0.00000000E+00  0.00000000E+00  0.00000000E+00
0.00000000E+00  0.00000000E+00  0.00000000E+00
0.00000000E+00  0.00000000E+00  0.00000000E+00
0.00000000E+00  0.00000000E+00  0.00000000E+00
0.00000000E+00  0.00000000E+00  0.00000000E+00
0.00000000E+00  0.00000000E+00  0.00000000E+00
0.00000000E+00  0.00000000E+00  0.00000000E+00
