Hf3N2  (n=2)
1.00000000000000
3.1915998697511636  0.0000000000000000  0.0000000000000000
-1.5957999348755818  2.7640065660510293  0.0000000000000000
0.0000000000000000  0.0000000000000000  34.9534205301651397
Hf  N  H
3  4  2
Selective  dynamics
Direct
0.0000000000000000  0.0000000000000000  0.0606941282171185  T  T  T
0.0000000000000000  0.0000000000000000  0.1423812087514431  T  T  T
0.0000000000000000  0.0000000000000000  0.2240682892857762  T  T  T
0.3333333333333357  0.6666666666666643  0.1006561105757073  T  T  T
0.3333333333333357  0.6666666666666643  0.1841063069271875  T  T  T
0.6666666666666643  0.3333333333333357  0.0292674721667142  T  T  T
0.6666666666666643  0.3333333333333357  0.2554949453361805  T  T  T
0.6666666666666643  0.3333333333333357  0.0000000000000000  T  T  T
0.6666666666666643  0.3333333333333357  0.2847624175028948  T  T  T

0.00000000E+00  0.00000000E+00  0.00000000E+00
0.00000000E+00  0.00000000E+00  0.00000000E+00
0.00000000E+00  0.00000000E+00  0.00000000E+00
0.00000000E+00  0.00000000E+00  0.00000000E+00
0.00000000E+00  0.00000000E+00  0.00000000E+00
0.00000000E+00  0.00000000E+00  0.00000000E+00
0.00000000E+00  0.00000000E+00  0.00000000E+00
0.00000000E+00  0.00000000E+00  0.00000000E+00
0.00000000E+00  0.00000000E+00  0.00000000E+00
