Nb3C2Br2  (n=2)
1.00000000000000
3.1835321571318649  -0.0000000000000001  0.0000000000000000
-1.5917660785659324  2.7570197227022377  0.0000000000000000
0.0000000000000001  0.0000000000000002  34.5422949410996267
Nb  C  Br
3  2  2
Selective  dynamics
Direct
0.0000000000000000  0.0000000000000000  0.0560193150070911  T  T  T
-0.0000000000000000  0.0000000000000000  0.1372276831692004  T  T  T
-0.0000000000000000  -0.0000000000000000  0.2189731816482815  T  T  T
0.3333333333333357  0.6666666666666643  0.0946945598137846  T  T  T
0.3333333333333357  0.6666666666666643  0.1795913805733860  T  T  T
0.3333333333333357  0.6666666666666643  0.0000000000000000  T  T  T
0.6666666666666643  0.3333333333333357  0.2762495936465956  T  T  T

0.00000000E+00  0.00000000E+00  0.00000000E+00
0.00000000E+00  0.00000000E+00  0.00000000E+00
0.00000000E+00  0.00000000E+00  0.00000000E+00
0.00000000E+00  0.00000000E+00  0.00000000E+00
0.00000000E+00  0.00000000E+00  0.00000000E+00
0.00000000E+00  0.00000000E+00  0.00000000E+00
0.00000000E+00  0.00000000E+00  0.00000000E+00
