Ta3N2Br2  (n=2)
1.00000000000000
3.0708152910998634  -0.0000000000000001  0.0000000000000001
-1.5354076455499313  2.6594040528086613  0.0000000000000000
0.0000000000000003  -0.0000000000000003  34.7288338050194341
Ta  N  Br
3  2  2
Selective  dynamics
Direct
-0.0000000000000000  -0.0000000000000000  0.0569234883725898  T  T  T
-0.0000000000000000  -0.0000000000000000  0.1394719215276992  T  T  T
-0.0000000000000000  -0.0000000000000000  0.2225577647476888  T  T  T
0.3333333333333357  0.6666666666666643  0.0980853057140825  T  T  T
0.3333333333333357  0.6666666666666643  0.1788513973508145  T  T  T
0.3333333333333357  0.6666666666666643  0.0000000000000000  T  T  T
0.6666666666666643  0.3333333333333357  0.2801370716805731  T  T  T

0.00000000E+00  0.00000000E+00  0.00000000E+00
0.00000000E+00  0.00000000E+00  0.00000000E+00
0.00000000E+00  0.00000000E+00  0.00000000E+00
0.00000000E+00  0.00000000E+00  0.00000000E+00
0.00000000E+00  0.00000000E+00  0.00000000E+00
0.00000000E+00  0.00000000E+00  0.00000000E+00
0.00000000E+00  0.00000000E+00  0.00000000E+00
