Ti3N2Br2  (n=2)
1.00000000000000
3.1110099690773403  0.0000000000000001  0.0000000000000000
-1.5555049845386701  2.6942136649637387  0.0000000000000000
-0.0000000000000002  -0.0000000000000001  33.9410976547359269
Ti  N  Br
3  2  2
Selective  dynamics
Direct
0.0000000000000000  0.0000000000000000  0.0546580829570043  T  T  T
0.0000000000000000  0.0000000000000000  0.1319064846570532  T  T  T
0.0000000000000000  0.0000000000000000  0.2086719562038209  T  T  T
0.3333333333333357  0.6666666666666643  0.0912516567472432  T  T  T
0.3333333333333357  0.6666666666666643  0.1729702542186554  T  T  T
0.3333333333333357  0.6666666666666643  0.0000000000000000  T  T  T
0.6666666666666643  0.3333333333333357  0.2634298320487093  T  T  T

0.00000000E+00  0.00000000E+00  0.00000000E+00
0.00000000E+00  0.00000000E+00  0.00000000E+00
0.00000000E+00  0.00000000E+00  0.00000000E+00
0.00000000E+00  0.00000000E+00  0.00000000E+00
0.00000000E+00  0.00000000E+00  0.00000000E+00
0.00000000E+00  0.00000000E+00  0.00000000E+00
0.00000000E+00  0.00000000E+00  0.00000000E+00
