Ta3C2Br2  (n=2)
1.00000000000000
3.1619656210639953  0.0000000000000001  -0.0000000000000001
-1.5809828105319979  2.7383425539815494  0.0000000000000001
-0.0000000000000004  0.0000000000000000  34.5418666727994221
Ta  C  Br
3  2  2
Selective  dynamics
Direct
0.0000000000000000  -0.0000000000000000  0.0562541933064317  T  T  T
0.0000000000000000  -0.0000000000000000  0.1372719651852949  T  T  T
-0.0000000000000000  0.0000000000000000  0.2187613579944357  T  T  T
0.3333333333333357  0.6666666666666643  0.0948558816783918  T  T  T
0.3333333333333357  0.6666666666666643  0.1798482567791148  T  T  T
0.3333333333333357  0.6666666666666643  0.0000000000000000  T  T  T
0.6666666666666643  0.3333333333333357  0.2762406202069365  T  T  T

0.00000000E+00  0.00000000E+00  0.00000000E+00
0.00000000E+00  0.00000000E+00  0.00000000E+00
0.00000000E+00  0.00000000E+00  0.00000000E+00
0.00000000E+00  0.00000000E+00  0.00000000E+00
0.00000000E+00  0.00000000E+00  0.00000000E+00
0.00000000E+00  0.00000000E+00  0.00000000E+00
0.00000000E+00  0.00000000E+00  0.00000000E+00
