Hf3C2Br2  (n=2)
1.00000000000000
3.3479330572731896  -0.0000000000000001  0.0000000000000000
-1.6739665286365948  2.8993950789913039  -0.0000000000000000
-0.0000000000000001  0.0000000000000000  34.5364682119878523
Hf  C  Br
3  2  2
Selective  dynamics
Direct
0.0000000000000000  0.0000000000000000  0.0577822747906759  T  T  T
0.0000000000000000  0.0000000000000000  0.1385186384336405  T  T  T
-0.0000000000000000  0.0000000000000000  0.2185102834929627  T  T  T
0.3333333333333357  0.6666666666666643  0.0949186714307947  T  T  T
0.3333333333333357  0.6666666666666643  0.1843995361145127  T  T  T
0.3333333333333357  0.6666666666666643  0.0000000000000000  T  T  T
0.6666666666666643  0.3333333333333357  0.2761274880063642  T  T  T

0.00000000E+00  0.00000000E+00  0.00000000E+00
0.00000000E+00  0.00000000E+00  0.00000000E+00
0.00000000E+00  0.00000000E+00  0.00000000E+00
0.00000000E+00  0.00000000E+00  0.00000000E+00
0.00000000E+00  0.00000000E+00  0.00000000E+00
0.00000000E+00  0.00000000E+00  0.00000000E+00
0.00000000E+00  0.00000000E+00  0.00000000E+00
