Zr3N2Br2  (n=2)
1.00000000000000
3.2676811121661391  -0.0000000000000003  0.0000000000000000
-1.6338405560830693  2.8298948556676824  0.0000000000000000
0.0000000000000002  -0.0000000000000007  34.7748437889803768
Zr  N  Br
3  2  2
Selective  dynamics
Direct
-0.0000000000000000  -0.0000000000000000  0.0566140320648624  T  T  T
0.0000000000000000  -0.0000000000000000  0.1400170313465329  T  T  T
0.0000000000000000  -0.0000000000000000  0.2237089911001734  T  T  T
0.3333333333333357  0.6666666666666643  0.0974415940352046  T  T  T
0.3333333333333357  0.6666666666666643  0.1823128241944508  T  T  T
0.3333333333333357  0.6666666666666643  0.0000000000000000  T  T  T
0.6666666666666643  0.3333333333333357  0.2810895096551915  T  T  T

0.00000000E+00  0.00000000E+00  0.00000000E+00
0.00000000E+00  0.00000000E+00  0.00000000E+00
0.00000000E+00  0.00000000E+00  0.00000000E+00
0.00000000E+00  0.00000000E+00  0.00000000E+00
0.00000000E+00  0.00000000E+00  0.00000000E+00
0.00000000E+00  0.00000000E+00  0.00000000E+00
0.00000000E+00  0.00000000E+00  0.00000000E+00
