Nb3N2Br2  (n=2)
1.00000000000000
3.1059198115066873  0.0000000000000004  0.0000000000000001
-1.5529599057533436  2.6898054591686447  0.0000000000000000
-0.0000000000000003  -0.0000000000000001  34.6583476641921848
Nb  N  Br
3  2  2
Selective  dynamics
Direct
-0.0000000000000000  -0.0000000000000000  0.0565692149255699  T  T  T
-0.0000000000000000  -0.0000000000000000  0.1390030887648901  T  T  T
-0.0000000000000000  -0.0000000000000000  0.2215772575798457  T  T  T
0.3333333333333357  0.6666666666666643  0.0973348713350631  T  T  T
0.3333333333333357  0.6666666666666643  0.1783814019786582  T  T  T
0.3333333333333357  0.6666666666666643  0.0000000000000000  T  T  T
0.6666666666666643  0.3333333333333357  0.2786730561356466  T  T  T

0.00000000E+00  0.00000000E+00  0.00000000E+00
0.00000000E+00  0.00000000E+00  0.00000000E+00
0.00000000E+00  0.00000000E+00  0.00000000E+00
0.00000000E+00  0.00000000E+00  0.00000000E+00
0.00000000E+00  0.00000000E+00  0.00000000E+00
0.00000000E+00  0.00000000E+00  0.00000000E+00
0.00000000E+00  0.00000000E+00  0.00000000E+00
