Sc3C2Br2  (n=2)
1.00000000000000
3.3639360959880595  -0.0000000000000001  0.0000000000000000
-1.6819680479940295  2.9132541169306356  -0.0000000000000000
0.0000000000000003  -0.0000000000000004  34.6112195309265758
Sc  C  Br
3  2  2
Selective  dynamics
Direct
-0.0000000000000000  -0.0000000000000000  0.0564319809562326  T  T  T
0.0000000000000000  0.0000000000000000  0.1394615042317124  T  T  T
0.0000000000000000  0.0000000000000000  0.2227166623194883  T  T  T
0.3333333333333357  0.6666666666666643  0.0951173136527363  T  T  T
0.3333333333333357  0.6666666666666643  0.1856573612439861  T  T  T
0.3333333333333357  0.6666666666666643  0.0000000000000000  T  T  T
0.6666666666666643  0.3333333333333357  0.2776908661753032  T  T  T

0.00000000E+00  0.00000000E+00  0.00000000E+00
0.00000000E+00  0.00000000E+00  0.00000000E+00
0.00000000E+00  0.00000000E+00  0.00000000E+00
0.00000000E+00  0.00000000E+00  0.00000000E+00
0.00000000E+00  0.00000000E+00  0.00000000E+00
0.00000000E+00  0.00000000E+00  0.00000000E+00
0.00000000E+00  0.00000000E+00  0.00000000E+00
