Mo3N2Br2  (n=2)
1.00000000000000
3.0222778985128111  0.0000000000000001  0.0000000000000000
-1.5111389492564045  2.6173694377935051  0.0000000000000000
0.0000000000000002  0.0000000000000001  34.5203878367878332
Mo  N  Br
3  2  2
Selective  dynamics
Direct
0.0000000000000000  0.0000000000000000  0.0594927401774406  T  T  T
0.0000000000000000  0.0000000000000000  0.1386000239711924  T  T  T
-0.0000000000000000  0.0000000000000000  0.2179658733676712  T  T  T
0.3333333333333357  0.6666666666666643  0.0976720873320358  T  T  T
0.3333333333333357  0.6666666666666643  0.1773983330557990  T  T  T
0.3333333333333357  0.6666666666666643  0.0000000000000000  T  T  T
0.6666666666666643  0.3333333333333357  0.2757902918646268  T  T  T

0.00000000E+00  0.00000000E+00  0.00000000E+00
0.00000000E+00  0.00000000E+00  0.00000000E+00
0.00000000E+00  0.00000000E+00  0.00000000E+00
0.00000000E+00  0.00000000E+00  0.00000000E+00
0.00000000E+00  0.00000000E+00  0.00000000E+00
0.00000000E+00  0.00000000E+00  0.00000000E+00
0.00000000E+00  0.00000000E+00  0.00000000E+00
