Sc3N2Br2  (n=2)
1.00000000000000
3.2987946141598874  0.0000000000000003  0.0000000000000000
-1.6493973070799437  2.8568399385894803  0.0000000000000000
-0.0000000000000003  0.0000000000000000  34.2661355775178293
Sc  N  Br
3  2  2
Selective  dynamics
Direct
0.0000000000000000  0.0000000000000000  0.0566692014109793  T  T  T
0.0000000000000000  0.0000000000000000  0.1357816011971696  T  T  T
0.0000000000000000  0.0000000000000000  0.2146422851852457  T  T  T
0.3333333333333357  0.6666666666666643  0.0934900561849063  T  T  T
0.3333333333333357  0.6666666666666643  0.1804474675773394  T  T  T
0.3333333333333357  0.6666666666666643  0.0000000000000000  T  T  T
0.6666666666666643  0.3333333333333357  0.2704167079639229  T  T  T

0.00000000E+00  0.00000000E+00  0.00000000E+00
0.00000000E+00  0.00000000E+00  0.00000000E+00
0.00000000E+00  0.00000000E+00  0.00000000E+00
0.00000000E+00  0.00000000E+00  0.00000000E+00
0.00000000E+00  0.00000000E+00  0.00000000E+00
0.00000000E+00  0.00000000E+00  0.00000000E+00
0.00000000E+00  0.00000000E+00  0.00000000E+00
