Hf3N2Br2  (n=2)
1.00000000000000
3.2163155346582752  0.0000000000000000  0.0000000000000000
-1.6081577673291374  2.7854109607969191  0.0000000000000001
0.0000000000000001  0.0000000000000015  34.6902325489590382
Hf  N  Br
3  2  2
Selective  dynamics
Direct
-0.0000000000000000  0.0000000000000000  0.0563349912529197  T  T  T
-0.0000000000000000  0.0000000000000000  0.1393272876388487  T  T  T
-0.0000000000000000  0.0000000000000000  0.2223457507844781  T  T  T
0.3333333333333357  0.6666666666666643  0.0970631126160682  T  T  T
0.3333333333333357  0.6666666666666643  0.1814292770580491  T  T  T
0.3333333333333357  0.6666666666666643  0.0000000000000000  T  T  T
0.6666666666666643  0.3333333333333357  0.2793360504367625  T  T  T

0.00000000E+00  0.00000000E+00  0.00000000E+00
0.00000000E+00  0.00000000E+00  0.00000000E+00
0.00000000E+00  0.00000000E+00  0.00000000E+00
0.00000000E+00  0.00000000E+00  0.00000000E+00
0.00000000E+00  0.00000000E+00  0.00000000E+00
0.00000000E+00  0.00000000E+00  0.00000000E+00
0.00000000E+00  0.00000000E+00  0.00000000E+00
