Cr3C2Br2  (n=2)
1.00000000000000
2.9620525658414842  0.0000000000000000  0.0000000000000000
-1.4810262829207421  2.5652127694746887  0.0000000000000000
0.0000000000000003  0.0000000000000003  33.6380708165819939
Cr  C  Br
3  2  2
Selective  dynamics
Direct
-0.0000000000000000  -0.0000000000000000  0.0548504331656378  T  T  T
-0.0000000000000000  -0.0000000000000000  0.1286108112256586  T  T  T
-0.0000000000000000  -0.0000000000000000  0.2016888475222508  T  T  T
0.3333333333333357  0.6666666666666643  0.0898878785476276  T  T  T
0.3333333333333357  0.6666666666666643  0.1660801294017745  T  T  T
0.3333333333333357  0.6666666666666643  0.0000000000000000  T  T  T
0.6666666666666643  0.3333333333333357  0.2567944774146747  T  T  T

0.00000000E+00  0.00000000E+00  0.00000000E+00
0.00000000E+00  0.00000000E+00  0.00000000E+00
0.00000000E+00  0.00000000E+00  0.00000000E+00
0.00000000E+00  0.00000000E+00  0.00000000E+00
0.00000000E+00  0.00000000E+00  0.00000000E+00
0.00000000E+00  0.00000000E+00  0.00000000E+00
0.00000000E+00  0.00000000E+00  0.00000000E+00
