Ti3C2Br2  (n=2)
1.00000000000000
3.2145688255305536  -0.0000000000000005  -0.0000000000000001
-1.6072844127652770  2.7838982656895408  0.0000000000000001
-0.0000000000000010  0.0000000000000003  33.8553340843984572
Ti  C  Br
3  2  2
Selective  dynamics
Direct
-0.0000000000000000  0.0000000000000000  0.0560106956189505  T  T  T
0.0000000000000000  -0.0000000000000000  0.1317770998529688  T  T  T
0.0000000000000000  -0.0000000000000000  0.2064360586933338  T  T  T
0.3333333333333357  0.6666666666666643  0.0906640095464077  T  T  T
0.3333333333333357  0.6666666666666643  0.1738321682842962  T  T  T
0.3333333333333357  0.6666666666666643  0.0000000000000000  T  T  T
0.6666666666666643  0.3333333333333357  0.2615639255640740  T  T  T

0.00000000E+00  0.00000000E+00  0.00000000E+00
0.00000000E+00  0.00000000E+00  0.00000000E+00
0.00000000E+00  0.00000000E+00  0.00000000E+00
0.00000000E+00  0.00000000E+00  0.00000000E+00
0.00000000E+00  0.00000000E+00  0.00000000E+00
0.00000000E+00  0.00000000E+00  0.00000000E+00
0.00000000E+00  0.00000000E+00  0.00000000E+00
