Zr3C2Br2  (n=2)
1.00000000000000
3.3932254215870614  0.0000000000000008  -0.0000000000000000
-1.6966127107935294  2.9386194181264074  0.0000000000000000
-0.0000000000000001  0.0000000000000001  34.6504660345966755
Zr  C  Br
3  2  2
Selective  dynamics
Direct
-0.0000000000000000  0.0000000000000000  0.0579316841814577  T  T  T
0.0000000000000000  -0.0000000000000000  0.1396185848760440  T  T  T
-0.0000000000000000  -0.0000000000000000  0.2206234512510249  T  T  T
0.3333333333333357  0.6666666666666643  0.0954720656624621  T  T  T
0.3333333333333357  0.6666666666666643  0.1857479221242262  T  T  T
0.3333333333333357  0.6666666666666643  0.0000000000000000  T  T  T
0.6666666666666643  0.3333333333333357  0.2785089823889005  T  T  T

0.00000000E+00  0.00000000E+00  0.00000000E+00
0.00000000E+00  0.00000000E+00  0.00000000E+00
0.00000000E+00  0.00000000E+00  0.00000000E+00
0.00000000E+00  0.00000000E+00  0.00000000E+00
0.00000000E+00  0.00000000E+00  0.00000000E+00
0.00000000E+00  0.00000000E+00  0.00000000E+00
0.00000000E+00  0.00000000E+00  0.00000000E+00
