Mo3C2Br2  (n=2)
1.00000000000000
3.0638140538411389  0.0000000000000001  0.0000000000000000
-1.5319070269205695  2.6533408035795922  -0.0000000000000000
0.0000000000000001  -0.0000000000000001  34.4475564867139781
Mo  C  Br
3  2  2
Selective  dynamics
Direct
0.0000000000000000  0.0000000000000000  0.0575943270778919  T  T  T
0.0000000000000000  -0.0000000000000000  0.1374996458762207  T  T  T
-0.0000000000000000  0.0000000000000000  0.2166267077520006  T  T  T
0.3333333333333357  0.6666666666666643  0.0953266252692042  T  T  T
0.3333333333333357  0.6666666666666643  0.1773912080068475  T  T  T
0.3333333333333357  0.6666666666666643  0.0000000000000000  T  T  T
0.6666666666666643  0.3333333333333357  0.2742591187957785  T  T  T

0.00000000E+00  0.00000000E+00  0.00000000E+00
0.00000000E+00  0.00000000E+00  0.00000000E+00
0.00000000E+00  0.00000000E+00  0.00000000E+00
0.00000000E+00  0.00000000E+00  0.00000000E+00
0.00000000E+00  0.00000000E+00  0.00000000E+00
0.00000000E+00  0.00000000E+00  0.00000000E+00
0.00000000E+00  0.00000000E+00  0.00000000E+00
