Cr3N2Br2  (n=2)
1.00000000000000
3.0039649070830809  0.0000000000000000  0.0000000000000000
-1.5019824535415405  2.6015099216800688  0.0000000000000000
-0.0000000000000001  0.0000000000000000  33.6331954535877173
Cr  N  Br
3  2  2
Selective  dynamics
Direct
-0.0000000000000000  -0.0000000000000000  0.0557741997716903  T  T  T
-0.0000000000000000  -0.0000000000000000  0.1281532038911975  T  T  T
-0.0000000000000000  -0.0000000000000000  0.2006315700734017  T  T  T
0.3333333333333357  0.6666666666666643  0.0894631137432380  T  T  T
0.3333333333333357  0.6666666666666643  0.1694153229918651  T  T  T
0.3333333333333357  0.6666666666666643  0.0000000000000000  T  T  T
0.6666666666666643  0.3333333333333357  0.2566867446627585  T  T  T

0.00000000E+00  0.00000000E+00  0.00000000E+00
0.00000000E+00  0.00000000E+00  0.00000000E+00
0.00000000E+00  0.00000000E+00  0.00000000E+00
0.00000000E+00  0.00000000E+00  0.00000000E+00
0.00000000E+00  0.00000000E+00  0.00000000E+00
0.00000000E+00  0.00000000E+00  0.00000000E+00
0.00000000E+00  0.00000000E+00  0.00000000E+00
