Hf4N3  (n=3)
1.00000000000000
3.3039238884178008  -0.0000000000000001  0.0000000000000000
-1.6519619442089004  2.8612820200215872  0.0000000000000000
0.0000000000000001  -0.0000000000000008  37.0337965278967545
Hf  N  Te
4  3  2
Selective  dynamics
Direct
-0.0000000000000000  -0.0000000000000000  0.0597763681229456  T  T  T
0.6666666666666643  0.3333333333333357  0.1270618177151865  T  T  T
0.3333333333333357  0.6666666666666643  0.1992884023686279  T  T  T
-0.0000000000000000  0.0000000000000000  0.2652711744780920  T  T  T
0.3333333333333357  0.6666666666666643  0.0957809543871241  T  T  T
-0.0000000000000000  0.0000000000000000  0.1631781241949156  T  T  T
0.6666666666666643  0.3333333333333357  0.2317053065998819  T  T  T
0.3333333333333357  0.6666666666666643  0.0000000000000000  T  T  T
0.3333333333333357  0.6666666666666643  0.3249409365532361  T  T  T

0.00000000E+00  0.00000000E+00  0.00000000E+00
0.00000000E+00  0.00000000E+00  0.00000000E+00
0.00000000E+00  0.00000000E+00  0.00000000E+00
0.00000000E+00  0.00000000E+00  0.00000000E+00
0.00000000E+00  0.00000000E+00  0.00000000E+00
0.00000000E+00  0.00000000E+00  0.00000000E+00
0.00000000E+00  0.00000000E+00  0.00000000E+00
0.00000000E+00  0.00000000E+00  0.00000000E+00
0.00000000E+00  0.00000000E+00  0.00000000E+00
