Zr4C3  (n=3)
1.00000000000000
3.4102516311941784  0.0000000000000000  0.0000000000000000
-1.7051258155970892  2.9533645461957900  0.0000000000000000
0.0000000000000001  0.0000000000000003  37.4233505265958399
Zr  C  Te
4  3  2
Selective  dynamics
Direct
0.0000000000000000  -0.0000000000000000  0.0617732789659311  T  T  T
0.6666666666666643  0.3333333333333357  0.1316178572850145  T  T  T
0.3333333333333357  0.6666666666666643  0.2014873363158166  T  T  T
0.0000000000000000  -0.0000000000000000  0.2715694932072048  T  T  T
0.3333333333333357  0.6666666666666643  0.0935836317673593  T  T  T
0.0000000000000000  0.0000000000000000  0.1668510467430797  T  T  T
0.6666666666666643  0.3333333333333357  0.2404523337906609  T  T  T
0.3333333333333357  0.6666666666666643  0.0000000000000000  T  T  T
0.3333333333333357  0.6666666666666643  0.3319678850712972  T  T  T

0.00000000E+00  0.00000000E+00  0.00000000E+00
0.00000000E+00  0.00000000E+00  0.00000000E+00
0.00000000E+00  0.00000000E+00  0.00000000E+00
0.00000000E+00  0.00000000E+00  0.00000000E+00
0.00000000E+00  0.00000000E+00  0.00000000E+00
0.00000000E+00  0.00000000E+00  0.00000000E+00
0.00000000E+00  0.00000000E+00  0.00000000E+00
0.00000000E+00  0.00000000E+00  0.00000000E+00
0.00000000E+00  0.00000000E+00  0.00000000E+00
