Mo4N3  (n=3)
1.00000000000000
3.2475798129784761  -0.0000000000000003  -0.0000000000000001
-1.6237899064892383  2.8124866188986917  0.0000000000000000
-0.0000000000000003  0.0000000000000004  36.0082260922324835
Mo  N  Te
4  3  2
Selective  dynamics
Direct
-0.0000000000000000  0.0000000000000000  0.0556141561077967  T  T  T
0.6666666666666643  0.3333333333333357  0.1264414715074188  T  T  T
0.3333333333333357  0.6666666666666643  0.1844487453537737  T  T  T
-0.0000000000000000  0.0000000000000000  0.2491390048318793  T  T  T
0.3333333333333357  0.6666666666666643  0.0869665573761936  T  T  T
-0.0000000000000000  0.0000000000000000  0.1495664842901712  T  T  T
0.6666666666666643  0.3333333333333357  0.2151745688360721  T  T  T
0.3333333333333357  0.6666666666666643  0.0000000000000000  T  T  T
0.3333333333333357  0.6666666666666643  0.3057142016392505  T  T  T

0.00000000E+00  0.00000000E+00  0.00000000E+00
0.00000000E+00  0.00000000E+00  0.00000000E+00
0.00000000E+00  0.00000000E+00  0.00000000E+00
0.00000000E+00  0.00000000E+00  0.00000000E+00
0.00000000E+00  0.00000000E+00  0.00000000E+00
0.00000000E+00  0.00000000E+00  0.00000000E+00
0.00000000E+00  0.00000000E+00  0.00000000E+00
0.00000000E+00  0.00000000E+00  0.00000000E+00
0.00000000E+00  0.00000000E+00  0.00000000E+00
