Ti4N3  (n=3)
1.00000000000000
3.1351146375451373  0.0000000000000000  0.0000000000000000
-1.5675573187725687  2.7150889199603214  0.0000000000000000
-0.0000000000000001  0.0000000000000003  36.3584211317906210
Ti  N  Te
4  3  2
Selective  dynamics
Direct
-0.0000000000000000  -0.0000000000000000  0.0600576651216431  T  T  T
0.6666666666666643  0.3333333333333357  0.1226103524774402  T  T  T
0.3333333333333357  0.6666666666666643  0.1903599318995488  T  T  T
0.0000000000000000  0.0000000000000000  0.2524079335507079  T  T  T
0.3333333333333357  0.6666666666666643  0.0910337138266675  T  T  T
-0.0000000000000000  -0.0000000000000000  0.1565619683941407  T  T  T
0.6666666666666643  0.3333333333333357  0.2225480547668764  T  T  T
0.3333333333333357  0.6666666666666643  0.0000000000000000  T  T  T
0.3333333333333357  0.6666666666666643  0.3124013853797185  T  T  T

0.00000000E+00  0.00000000E+00  0.00000000E+00
0.00000000E+00  0.00000000E+00  0.00000000E+00
0.00000000E+00  0.00000000E+00  0.00000000E+00
0.00000000E+00  0.00000000E+00  0.00000000E+00
0.00000000E+00  0.00000000E+00  0.00000000E+00
0.00000000E+00  0.00000000E+00  0.00000000E+00
0.00000000E+00  0.00000000E+00  0.00000000E+00
0.00000000E+00  0.00000000E+00  0.00000000E+00
0.00000000E+00  0.00000000E+00  0.00000000E+00
