Sc4C3  (n=3)
1.00000000000000
3.3290640080708593  0.0000000000000000  0.0000000000000000
-1.6645320040354297  2.8830540018717064  -0.0000000000000002
-0.0000000000000002  0.0000000000000010  37.8996217245154625
Sc  C  Te
4  3  2
Selective  dynamics
Direct
0.0000000000000000  0.0000000000000000  0.0680881353542969  T  T  T
0.6666666666666643  0.3333333333333357  0.1351592642489720  T  T  T
0.3333333333333357  0.6666666666666643  0.2083455395897003  T  T  T
0.0000000000000000  0.0000000000000000  0.2749529516843673  T  T  T
0.3333333333333357  0.6666666666666643  0.0981247569778759  T  T  T
0.0000000000000000  0.0000000000000000  0.1718267427985931  T  T  T
0.6666666666666643  0.3333333333333357  0.2455033601279147  T  T  T
0.3333333333333357  0.6666666666666643  0.0000000000000000  T  T  T
0.3333333333333357  0.6666666666666643  0.3403628093778918  T  T  T

0.00000000E+00  0.00000000E+00  0.00000000E+00
0.00000000E+00  0.00000000E+00  0.00000000E+00
0.00000000E+00  0.00000000E+00  0.00000000E+00
0.00000000E+00  0.00000000E+00  0.00000000E+00
0.00000000E+00  0.00000000E+00  0.00000000E+00
0.00000000E+00  0.00000000E+00  0.00000000E+00
0.00000000E+00  0.00000000E+00  0.00000000E+00
0.00000000E+00  0.00000000E+00  0.00000000E+00
0.00000000E+00  0.00000000E+00  0.00000000E+00
