Nb4N3  (n=3)
1.00000000000000
3.2893546105138425  0.0000000000000001  0.0000000000000000
-1.6446773052569212  2.8486646549574681  0.0000000000000000
-0.0000000000000005  0.0000000000000004  36.4355936398455071
Nb  N  Te
4  3  2
Selective  dynamics
Direct
0.0000000000000000  -0.0000000000000000  0.0592516533031523  T  T  T
0.6666666666666643  0.3333333333333357  0.1223250848571492  T  T  T
0.3333333333333357  0.6666666666666643  0.1940692786345263  T  T  T
-0.0000000000000000  -0.0000000000000000  0.2559733486082729  T  T  T
0.3333333333333357  0.6666666666666643  0.0886038848936998  T  T  T
-0.0000000000000000  -0.0000000000000000  0.1567723669882307  T  T  T
0.6666666666666643  0.3333333333333357  0.2252382817709797  T  T  T
0.3333333333333357  0.6666666666666643  0.0000000000000000  T  T  T
0.3333333333333357  0.6666666666666643  0.3138577554926864  T  T  T

0.00000000E+00  0.00000000E+00  0.00000000E+00
0.00000000E+00  0.00000000E+00  0.00000000E+00
0.00000000E+00  0.00000000E+00  0.00000000E+00
0.00000000E+00  0.00000000E+00  0.00000000E+00
0.00000000E+00  0.00000000E+00  0.00000000E+00
0.00000000E+00  0.00000000E+00  0.00000000E+00
0.00000000E+00  0.00000000E+00  0.00000000E+00
0.00000000E+00  0.00000000E+00  0.00000000E+00
0.00000000E+00  0.00000000E+00  0.00000000E+00
