Ta4N3  (n=3)
1.00000000000000
3.2685256725819678  0.0000000000000003  0.0000000000000000
-1.6342628362909835  2.8306262655957939  0.0000000000000000
0.0000000000000002  0.0000000000000003  36.3582974227614883
Ta  N  Te
4  3  2
Selective  dynamics
Direct
-0.0000000000000000  -0.0000000000000000  0.0563987944461965  T  T  T
0.6666666666666643  0.3333333333333357  0.1239075719190385  T  T  T
0.3333333333333357  0.6666666666666643  0.1906270718321230  T  T  T
-0.0000000000000000  -0.0000000000000000  0.2557083333450070  T  T  T
0.3333333333333357  0.6666666666666643  0.0901541519513957  T  T  T
-0.0000000000000000  0.0000000000000000  0.1563693904049651  T  T  T
0.6666666666666643  0.3333333333333357  0.2231312607516221  T  T  T
0.3333333333333357  0.6666666666666643  0.0000000000000000  T  T  T
0.3333333333333357  0.6666666666666643  0.3123990458269044  T  T  T

0.00000000E+00  0.00000000E+00  0.00000000E+00
0.00000000E+00  0.00000000E+00  0.00000000E+00
0.00000000E+00  0.00000000E+00  0.00000000E+00
0.00000000E+00  0.00000000E+00  0.00000000E+00
0.00000000E+00  0.00000000E+00  0.00000000E+00
0.00000000E+00  0.00000000E+00  0.00000000E+00
0.00000000E+00  0.00000000E+00  0.00000000E+00
0.00000000E+00  0.00000000E+00  0.00000000E+00
0.00000000E+00  0.00000000E+00  0.00000000E+00
