Nb4C3  (n=3)
1.00000000000000
3.2844679901423830  -0.0000000000000001  0.0000000000000000
-1.6422339950711915  2.8444327176278743  0.0000000000000000
0.0000000000000001  0.0000000000000008  36.7254010153277761
Nb  C  Te
4  3  2
Selective  dynamics
Direct
0.0000000000000000  -0.0000000000000000  0.0576386703702143  T  T  T
0.6666666666666643  0.3333333333333357  0.1232398341648351  T  T  T
0.3333333333333357  0.6666666666666643  0.1955567598057619  T  T  T
-0.0000000000000000  -0.0000000000000000  0.2604966959433940  T  T  T
0.3333333333333357  0.6666666666666643  0.0897862263834213  T  T  T
0.0000000000000000  -0.0000000000000000  0.1594688673165849  T  T  T
0.6666666666666643  0.3333333333333357  0.2294072692135628  T  T  T
0.3333333333333357  0.6666666666666643  0.0000000000000000  T  T  T
0.3333333333333357  0.6666666666666643  0.3192722391359060  T  T  T

0.00000000E+00  0.00000000E+00  0.00000000E+00
0.00000000E+00  0.00000000E+00  0.00000000E+00
0.00000000E+00  0.00000000E+00  0.00000000E+00
0.00000000E+00  0.00000000E+00  0.00000000E+00
0.00000000E+00  0.00000000E+00  0.00000000E+00
0.00000000E+00  0.00000000E+00  0.00000000E+00
0.00000000E+00  0.00000000E+00  0.00000000E+00
0.00000000E+00  0.00000000E+00  0.00000000E+00
0.00000000E+00  0.00000000E+00  0.00000000E+00
