Cr4C3  (n=3)
1.00000000000000
3.1140558429154201  0.0000000000000000  0.0000000000000000
-1.5570279214577101  2.6968514687605576  0.0000000000000001
-0.0000000000000004  0.0000000000000010  35.3429930493454094
Cr  C  Te
4  3  2
Selective  dynamics
Direct
0.0000000000000000  0.0000000000000000  0.0576747551730664  T  T  T
0.6666666666666643  0.3333333333333357  0.1165905740663575  T  T  T
0.3333333333333357  0.6666666666666643  0.1756960210687240  T  T  T
0.0000000000000000  0.0000000000000000  0.2328450801372208  T  T  T
0.3333333333333357  0.6666666666666643  0.0816689456161882  T  T  T
0.0000000000000000  0.0000000000000000  0.1462351178797952  T  T  T
0.6666666666666643  0.3333333333333357  0.2108551578785243  T  T  T
0.3333333333333357  0.6666666666666643  0.0000000000000000  T  T  T
0.3333333333333357  0.6666666666666643  0.2926462123596794  T  T  T

0.00000000E+00  0.00000000E+00  0.00000000E+00
0.00000000E+00  0.00000000E+00  0.00000000E+00
0.00000000E+00  0.00000000E+00  0.00000000E+00
0.00000000E+00  0.00000000E+00  0.00000000E+00
0.00000000E+00  0.00000000E+00  0.00000000E+00
0.00000000E+00  0.00000000E+00  0.00000000E+00
0.00000000E+00  0.00000000E+00  0.00000000E+00
0.00000000E+00  0.00000000E+00  0.00000000E+00
0.00000000E+00  0.00000000E+00  0.00000000E+00
