Zr4N3  (n=3)
1.00000000000000
3.3392429239919985  0.0000000000000000  0.0000000000000000
-1.6696214619959993  2.8918692019417898  0.0000000000000000
-0.0000000000000003  -0.0000000000000006  37.2644221270079612
Zr  N  Te
4  3  2
Selective  dynamics
Direct
0.0000000000000000  -0.0000000000000000  0.0601520081010719  T  T  T
0.6666666666666643  0.3333333333333357  0.1280257074652982  T  T  T
0.3333333333333357  0.6666666666666643  0.2009678446848237  T  T  T
-0.0000000000000000  0.0000000000000000  0.2681644569290834  T  T  T
0.3333333333333357  0.6666666666666643  0.0955613132790868  T  T  T
-0.0000000000000000  -0.0000000000000000  0.1645632031818262  T  T  T
0.6666666666666643  0.3333333333333357  0.2342554709340216  T  T  T
0.3333333333333357  0.6666666666666643  0.0000000000000000  T  T  T
0.3333333333333357  0.6666666666666643  0.3291188062760574  T  T  T

0.00000000E+00  0.00000000E+00  0.00000000E+00
0.00000000E+00  0.00000000E+00  0.00000000E+00
0.00000000E+00  0.00000000E+00  0.00000000E+00
0.00000000E+00  0.00000000E+00  0.00000000E+00
0.00000000E+00  0.00000000E+00  0.00000000E+00
0.00000000E+00  0.00000000E+00  0.00000000E+00
0.00000000E+00  0.00000000E+00  0.00000000E+00
0.00000000E+00  0.00000000E+00  0.00000000E+00
0.00000000E+00  0.00000000E+00  0.00000000E+00
