Hf4C3  (n=3)
1.00000000000000
3.3673849317075328  0.0000000000000001  0.0000000000000000
-1.6836924658537662  2.9162408954690275  0.0000000000000000
-0.0000000000000012  0.0000000000000017  37.2184009468415979
Hf  C  Te
4  3  2
Selective  dynamics
Direct
0.0000000000000000  0.0000000000000000  0.0616633791661651  T  T  T
0.6666666666666643  0.3333333333333357  0.1306045227350915  T  T  T
0.3333333333333357  0.6666666666666643  0.1995411669476719  T  T  T
0.0000000000000000  0.0000000000000000  0.2685721126012570  T  T  T
0.3333333333333357  0.6666666666666643  0.0931648100876638  T  T  T
0.0000000000000000  0.0000000000000000  0.1655087558610269  T  T  T
0.6666666666666643  0.3333333333333357  0.2380812462603705  T  T  T
0.3333333333333357  0.6666666666666643  0.0000000000000000  T  T  T
0.3333333333333357  0.6666666666666643  0.3282892503708833  T  T  T

0.00000000E+00  0.00000000E+00  0.00000000E+00
0.00000000E+00  0.00000000E+00  0.00000000E+00
0.00000000E+00  0.00000000E+00  0.00000000E+00
0.00000000E+00  0.00000000E+00  0.00000000E+00
0.00000000E+00  0.00000000E+00  0.00000000E+00
0.00000000E+00  0.00000000E+00  0.00000000E+00
0.00000000E+00  0.00000000E+00  0.00000000E+00
0.00000000E+00  0.00000000E+00  0.00000000E+00
0.00000000E+00  0.00000000E+00  0.00000000E+00
