Sc4N3  (n=3)
1.00000000000000
3.2725707639130976  0.0000000000000000  0.0000000000000000
-1.6362853819565486  2.8341294175301206  -0.0000000000000001
0.0000000000000003  0.0000000000000003  37.2193371019258450
Sc  N  Te
4  3  2
Selective  dynamics
Direct
-0.0000000000000000  -0.0000000000000000  0.0647087633376281  T  T  T
0.6666666666666643  0.3333333333333357  0.1319897928552221  T  T  T
0.3333333333333357  0.6666666666666643  0.1988464678950388  T  T  T
-0.0000000000000000  -0.0000000000000000  0.2660794386299034  T  T  T
0.3333333333333357  0.6666666666666643  0.0949396719081450  T  T  T
0.0000000000000000  0.0000000000000000  0.1658751556613968  T  T  T
0.6666666666666643  0.3333333333333357  0.2368393245962537  T  T  T
0.3333333333333357  0.6666666666666643  0.0000000000000000  T  T  T
0.3333333333333357  0.6666666666666643  0.3283061454980502  T  T  T

0.00000000E+00  0.00000000E+00  0.00000000E+00
0.00000000E+00  0.00000000E+00  0.00000000E+00
0.00000000E+00  0.00000000E+00  0.00000000E+00
0.00000000E+00  0.00000000E+00  0.00000000E+00
0.00000000E+00  0.00000000E+00  0.00000000E+00
0.00000000E+00  0.00000000E+00  0.00000000E+00
0.00000000E+00  0.00000000E+00  0.00000000E+00
0.00000000E+00  0.00000000E+00  0.00000000E+00
0.00000000E+00  0.00000000E+00  0.00000000E+00
