Ti4C3  (n=3)
1.00000000000000
3.1769139535369910  0.0000000000000000  0.0000000000000000
-1.5884569767684955  2.7512881895664272  -0.0000000000000001
0.0000000000000001  -0.0000000000000020  36.6070039932204381
Ti  C  Te
4  3  2
Selective  dynamics
Direct
0.0000000000000000  0.0000000000000000  0.0638828449092920  T  T  T
0.6666666666666643  0.3333333333333357  0.1282275089518475  T  T  T
0.3333333333333357  0.6666666666666643  0.1927173289212631  T  T  T
-0.0000000000000000  -0.0000000000000000  0.2571629448139569  T  T  T
0.3333333333333357  0.6666666666666643  0.0923808882370971  T  T  T
0.0000000000000000  0.0000000000000000  0.1606192818053915  T  T  T
0.6666666666666643  0.3333333333333357  0.2291460185204477  T  T  T
0.3333333333333357  0.6666666666666643  0.0000000000000000  T  T  T
0.3333333333333357  0.6666666666666643  0.3170705801373430  T  T  T

0.00000000E+00  0.00000000E+00  0.00000000E+00
0.00000000E+00  0.00000000E+00  0.00000000E+00
0.00000000E+00  0.00000000E+00  0.00000000E+00
0.00000000E+00  0.00000000E+00  0.00000000E+00
0.00000000E+00  0.00000000E+00  0.00000000E+00
0.00000000E+00  0.00000000E+00  0.00000000E+00
0.00000000E+00  0.00000000E+00  0.00000000E+00
0.00000000E+00  0.00000000E+00  0.00000000E+00
0.00000000E+00  0.00000000E+00  0.00000000E+00
