Cr4N3  (n=3)
1.00000000000000
3.0751861760469863  0.0000000000000000  0.0000000000000000
-1.5375930880234929  2.6631893498323747  0.0000000000000000
-0.0000000000000001  0.0000000000000006  35.7658185210049098
Cr  N  Te
4  3  2
Selective  dynamics
Direct
0.0000000000000000  0.0000000000000000  0.0652781957520377  T  T  T
0.6666666666666643  0.3333333333333357  0.1225640351597241  T  T  T
0.3333333333333357  0.6666666666666643  0.1873255772114796  T  T  T
0.0000000000000000  0.0000000000000000  0.2419644765661388  T  T  T
0.3333333333333357  0.6666666666666643  0.0890434339456497  T  T  T
-0.0000000000000000  -0.0000000000000000  0.1536350883087059  T  T  T
0.6666666666666643  0.3333333333333357  0.2188258046011525  T  T  T
0.3333333333333357  0.6666666666666643  0.0000000000000000  T  T  T
0.3333333333333357  0.6666666666666643  0.3010085877017536  T  T  T

0.00000000E+00  0.00000000E+00  0.00000000E+00
0.00000000E+00  0.00000000E+00  0.00000000E+00
0.00000000E+00  0.00000000E+00  0.00000000E+00
0.00000000E+00  0.00000000E+00  0.00000000E+00
0.00000000E+00  0.00000000E+00  0.00000000E+00
0.00000000E+00  0.00000000E+00  0.00000000E+00
0.00000000E+00  0.00000000E+00  0.00000000E+00
0.00000000E+00  0.00000000E+00  0.00000000E+00
0.00000000E+00  0.00000000E+00  0.00000000E+00
