Mo4C3  (n=3)
1.00000000000000
3.2043667145539221  0.0000000000000000  0.0000000000000000
-1.6021833572769610  2.7750629779483216  0.0000000000000000
-0.0000000000000002  -0.0000000000000005  36.4810252439742015
Mo  C  Te
4  3  2
Selective  dynamics
Direct
-0.0000000000000000  -0.0000000000000000  0.0587419804952921  T  T  T
0.6666666666666643  0.3333333333333357  0.1222617544506063  T  T  T
0.3333333333333357  0.6666666666666643  0.1925722246300867  T  T  T
0.0000000000000000  0.0000000000000000  0.2533070825546326  T  T  T
0.3333333333333357  0.6666666666666643  0.0868721969969692  T  T  T
0.0000000000000000  0.0000000000000000  0.1566814155550428  T  T  T
0.6666666666666643  0.3333333333333357  0.2263830417199656  T  T  T
0.3333333333333357  0.6666666666666643  0.0000000000000000  T  T  T
0.3333333333333357  0.6666666666666643  0.3147122419721631  T  T  T

0.00000000E+00  0.00000000E+00  0.00000000E+00
0.00000000E+00  0.00000000E+00  0.00000000E+00
0.00000000E+00  0.00000000E+00  0.00000000E+00
0.00000000E+00  0.00000000E+00  0.00000000E+00
0.00000000E+00  0.00000000E+00  0.00000000E+00
0.00000000E+00  0.00000000E+00  0.00000000E+00
0.00000000E+00  0.00000000E+00  0.00000000E+00
0.00000000E+00  0.00000000E+00  0.00000000E+00
0.00000000E+00  0.00000000E+00  0.00000000E+00
