Ta4C3  (n=3)
1.00000000000000
3.2741666797821996  0.0000000000000000  0.0000000000000000
-1.6370833398910998  2.8355115212173869  0.0000000000000000
0.0000000000000000  -0.0000000000000009  36.6315042000808688
Ta  C  Te
4  3  2
Selective  dynamics
Direct
0.0000000000000000  0.0000000000000000  0.0573301731909949  T  T  T
0.6666666666666643  0.3333333333333357  0.1227505157446864  T  T  T
0.3333333333333357  0.6666666666666643  0.1948310465415043  T  T  T
-0.0000000000000000  -0.0000000000000000  0.2593070857207629  T  T  T
0.3333333333333357  0.6666666666666643  0.0898713971819368  T  T  T
0.0000000000000000  0.0000000000000000  0.1588635139116752  T  T  T
0.6666666666666643  0.3333333333333357  0.2282585567963920  T  T  T
0.3333333333333357  0.6666666666666643  0.0000000000000000  T  T  T
0.3333333333333357  0.6666666666666643  0.3175273430364672  T  T  T

0.00000000E+00  0.00000000E+00  0.00000000E+00
0.00000000E+00  0.00000000E+00  0.00000000E+00
0.00000000E+00  0.00000000E+00  0.00000000E+00
0.00000000E+00  0.00000000E+00  0.00000000E+00
0.00000000E+00  0.00000000E+00  0.00000000E+00
0.00000000E+00  0.00000000E+00  0.00000000E+00
0.00000000E+00  0.00000000E+00  0.00000000E+00
0.00000000E+00  0.00000000E+00  0.00000000E+00
0.00000000E+00  0.00000000E+00  0.00000000E+00
