Ta3N2  (n=2)
1.00000000000000
2.9568650355237245  0.0000000000000000  0.0000000000000000
-1.4784325177618622  2.5607202364407011  0.0000000000000000
0.0000000000000000  -0.0000000000000003  33.1733799611772255
Ta  N  O
3  2  2
Selective  dynamics
Direct
0.0000000000000000  0.0000000000000000  0.0352693373677015  T  T  T
0.0000000000000000  0.0000000000000000  0.1231064731556284  T  T  T
0.0000000000000000  0.0000000000000000  0.2108887874225097  T  T  T
0.3333333333333357  0.6666666666666643  0.0802088859913143  T  T  T
0.3333333333333357  0.6666666666666643  0.1667298557151382  T  T  T
0.3333333333333357  0.6666666666666643  0.0000000000000000  T  T  T
0.6666666666666643  0.3333333333333357  0.2463836959255441  T  T  T

0.00000000E+00  0.00000000E+00  0.00000000E+00
0.00000000E+00  0.00000000E+00  0.00000000E+00
0.00000000E+00  0.00000000E+00  0.00000000E+00
0.00000000E+00  0.00000000E+00  0.00000000E+00
0.00000000E+00  0.00000000E+00  0.00000000E+00
0.00000000E+00  0.00000000E+00  0.00000000E+00
0.00000000E+00  0.00000000E+00  0.00000000E+00
