Hf3N2  (n=2)
1.00000000000000
3.1363150399768758  0.0000000000000000  0.0000000000000000
-1.5681575199884379  2.7161284991216794  0.0000000000000001
-0.0000000000000001  -0.0000000000000008  32.8509574648899729
Hf  N  O
3  2  2
Selective  dynamics
Direct
0.0000000000000000  0.0000000000000000  0.0324988173327240  T  T  T
0.0000000000000000  0.0000000000000000  0.1217689144035322  T  T  T
0.0000000000000000  0.0000000000000000  0.2091390361830459  T  T  T
0.3333333333333357  0.6666666666666643  0.0779363933197113  T  T  T
0.3333333333333357  0.6666666666666643  0.1679296733027761  T  T  T
0.3333333333333357  0.6666666666666643  0.0000000000000000  T  T  T
0.6666666666666643  0.3333333333333357  0.2389871733047907  T  T  T

0.00000000E+00  0.00000000E+00  0.00000000E+00
0.00000000E+00  0.00000000E+00  0.00000000E+00
0.00000000E+00  0.00000000E+00  0.00000000E+00
0.00000000E+00  0.00000000E+00  0.00000000E+00
0.00000000E+00  0.00000000E+00  0.00000000E+00
0.00000000E+00  0.00000000E+00  0.00000000E+00
0.00000000E+00  0.00000000E+00  0.00000000E+00
