Zr3C2  (n=2)
1.00000000000000
3.2712263865456879  0.0000000000000000  0.0000000000000000
-1.6356131932728439  2.8329651525628914  0.0000000000000000
0.0000000000000000  -0.0000000000000008  32.9651402348557170
Zr  C  O
3  2  2
Selective  dynamics
Direct
0.0000000000000000  0.0000000000000000  0.0303948855490205  T  T  T
0.0000000000000000  0.0000000000000000  0.1224645437029042  T  T  T
0.0000000000000000  0.0000000000000000  0.2133119348148128  T  T  T
0.3333333333333357  0.6666666666666643  0.0778215556555801  T  T  T
0.3333333333333357  0.6666666666666643  0.1681087886123509  T  T  T
0.3333333333333357  0.6666666666666643  0.0000000000000000  T  T  T
0.6666666666666643  0.3333333333333357  0.2416231260692095  T  T  T

0.00000000E+00  0.00000000E+00  0.00000000E+00
0.00000000E+00  0.00000000E+00  0.00000000E+00
0.00000000E+00  0.00000000E+00  0.00000000E+00
0.00000000E+00  0.00000000E+00  0.00000000E+00
0.00000000E+00  0.00000000E+00  0.00000000E+00
0.00000000E+00  0.00000000E+00  0.00000000E+00
0.00000000E+00  0.00000000E+00  0.00000000E+00
