Sc3N2  (n=2)
1.00000000000000
3.1981662868737102  0.0000000000000000  0.0000000000000000
-1.5990831434368551  2.7696932501227431  0.0000000000000000
0.0000000000000000  -0.0000000000000001  32.3846924536946617
Sc  N  O
3  2  2
Selective  dynamics
Direct
0.0000000000000000  0.0000000000000000  0.0259245530460170  T  T  T
0.0000000000000000  0.0000000000000000  0.1161087979235878  T  T  T
0.0000000000000000  0.0000000000000000  0.2047891686124239  T  T  T
0.3333333333333357  0.6666666666666643  0.0749520459407257  T  T  T
0.3333333333333357  0.6666666666666643  0.1540900017530844  T  T  T
0.3333333333333357  0.6666666666666643  0.0000000000000000  T  T  T
0.6666666666666643  0.3333333333333357  0.2280303407004308  T  T  T

0.00000000E+00  0.00000000E+00  0.00000000E+00
0.00000000E+00  0.00000000E+00  0.00000000E+00
0.00000000E+00  0.00000000E+00  0.00000000E+00
0.00000000E+00  0.00000000E+00  0.00000000E+00
0.00000000E+00  0.00000000E+00  0.00000000E+00
0.00000000E+00  0.00000000E+00  0.00000000E+00
0.00000000E+00  0.00000000E+00  0.00000000E+00
