Ta3C2  (n=2)
1.00000000000000
3.0469231863800768  0.0000000000000000  0.0000000000000000
-1.5234615931900384  2.6387128829644513  0.0000000000000000
0.0000000000000000  0.0000000000000000  32.9847942037007158
Ta  C  O
3  2  2
Selective  dynamics
Direct
0.0000000000000000  0.0000000000000000  0.0349376853240050  T  T  T
0.0000000000000000  0.0000000000000000  0.1226932128685659  T  T  T
0.0000000000000000  0.0000000000000000  0.2089681074778884  T  T  T
0.3333333333333357  0.6666666666666643  0.0789357994461842  T  T  T
0.3333333333333357  0.6666666666666643  0.1676451088356586  T  T  T
0.3333333333333357  0.6666666666666643  0.0000000000000000  T  T  T
0.6666666666666643  0.3333333333333357  0.2420750044517441  T  T  T

0.00000000E+00  0.00000000E+00  0.00000000E+00
0.00000000E+00  0.00000000E+00  0.00000000E+00
0.00000000E+00  0.00000000E+00  0.00000000E+00
0.00000000E+00  0.00000000E+00  0.00000000E+00
0.00000000E+00  0.00000000E+00  0.00000000E+00
0.00000000E+00  0.00000000E+00  0.00000000E+00
0.00000000E+00  0.00000000E+00  0.00000000E+00
