Nb3N2  (n=2)
1.00000000000000
2.9789335772315768  0.0000000000000000  0.0000000000000000
-1.4894667886157884  2.5798321541824416  0.0000000000000000
0.0000000000000000  -0.0000000000000003  33.1684714737711630
Nb  N  O
3  2  2
Selective  dynamics
Direct
0.0000000000000000  0.0000000000000000  0.0353812827145432  T  T  T
0.0000000000000000  0.0000000000000000  0.1231442765201545  T  T  T
0.0000000000000000  0.0000000000000000  0.2110156837746617  T  T  T
0.3333333333333357  0.6666666666666643  0.0801190531893178  T  T  T
0.3333333333333357  0.6666666666666643  0.1658261704743550  T  T  T
0.3333333333333357  0.6666666666666643  0.0000000000000000  T  T  T
0.6666666666666643  0.3333333333333357  0.2462721708544995  T  T  T

0.00000000E+00  0.00000000E+00  0.00000000E+00
0.00000000E+00  0.00000000E+00  0.00000000E+00
0.00000000E+00  0.00000000E+00  0.00000000E+00
0.00000000E+00  0.00000000E+00  0.00000000E+00
0.00000000E+00  0.00000000E+00  0.00000000E+00
0.00000000E+00  0.00000000E+00  0.00000000E+00
0.00000000E+00  0.00000000E+00  0.00000000E+00
