Ti3C2  (n=2)
1.00000000000000
3.0058554556480814  0.0000000000000000  0.0000000000000000
-1.5029277278240407  2.6031471847639573  0.0000000000000000
0.0000000000000000  -0.0000000000000006  32.4103889121827820
Ti  C  O
3  2  2
Selective  dynamics
Direct
0.0000000000000000  0.0000000000000000  0.0294271333323494  T  T  T
0.0000000000000000  0.0000000000000000  0.1160687361392202  T  T  T
0.0000000000000000  0.0000000000000000  0.2011770478538886  T  T  T
0.3333333333333357  0.6666666666666643  0.0742729102170273  T  T  T
0.3333333333333357  0.6666666666666643  0.1583040088362765  T  T  T
0.3333333333333357  0.6666666666666643  0.0000000000000000  T  T  T
0.6666666666666643  0.3333333333333357  0.2286423940256170  T  T  T

0.00000000E+00  0.00000000E+00  0.00000000E+00
0.00000000E+00  0.00000000E+00  0.00000000E+00
0.00000000E+00  0.00000000E+00  0.00000000E+00
0.00000000E+00  0.00000000E+00  0.00000000E+00
0.00000000E+00  0.00000000E+00  0.00000000E+00
0.00000000E+00  0.00000000E+00  0.00000000E+00
0.00000000E+00  0.00000000E+00  0.00000000E+00
