Mo3N2  (n=2)
1.00000000000000
2.8637119768091250  0.0000000000000000  0.0000000000000000
-1.4318559884045625  2.4800473211150087  0.0000000000000000
0.0000000000000000  0.0000000000000001  33.1451428721239409
Mo  N  O
3  2  2
Selective  dynamics
Direct
0.0000000000000000  0.0000000000000000  0.0364993110639737  T  T  T
0.0000000000000000  0.0000000000000000  0.1230245940069807  T  T  T
0.0000000000000000  0.0000000000000000  0.2092521325015366  T  T  T
0.3333333333333357  0.6666666666666643  0.0785791731149373  T  T  T
0.3333333333333357  0.6666666666666643  0.1628945939717972  T  T  T
0.3333333333333357  0.6666666666666643  0.0000000000000000  T  T  T
0.6666666666666643  0.3333333333333357  0.2457416733289827  T  T  T

0.00000000E+00  0.00000000E+00  0.00000000E+00
0.00000000E+00  0.00000000E+00  0.00000000E+00
0.00000000E+00  0.00000000E+00  0.00000000E+00
0.00000000E+00  0.00000000E+00  0.00000000E+00
0.00000000E+00  0.00000000E+00  0.00000000E+00
0.00000000E+00  0.00000000E+00  0.00000000E+00
0.00000000E+00  0.00000000E+00  0.00000000E+00
