Cr3C2  (n=2)
1.00000000000000
2.6784200267263714  0.0000000000000000  0.0000000000000000
-1.3392100133631857  2.3195797851273139  0.0000000000000000
0.0000000000000000  0.0000000000000001  32.5259231771339685
Cr  C  O
3  2  2
Selective  dynamics
Direct
0.0000000000000000  0.0000000000000000  0.0350625859004009  T  T  T
0.0000000000000000  0.0000000000000000  0.1162868107810950  T  T  T
0.0000000000000000  0.0000000000000000  0.1975833855524274  T  T  T
0.3333333333333357  0.6666666666666643  0.0754922617044073  T  T  T
0.3333333333333357  0.6666666666666643  0.1554927703135364  T  T  T
0.3333333333333357  0.6666666666666643  0.0000000000000000  T  T  T
0.6666666666666643  0.3333333333333357  0.2313823080792605  T  T  T

0.00000000E+00  0.00000000E+00  0.00000000E+00
0.00000000E+00  0.00000000E+00  0.00000000E+00
0.00000000E+00  0.00000000E+00  0.00000000E+00
0.00000000E+00  0.00000000E+00  0.00000000E+00
0.00000000E+00  0.00000000E+00  0.00000000E+00
0.00000000E+00  0.00000000E+00  0.00000000E+00
0.00000000E+00  0.00000000E+00  0.00000000E+00
