Nb3C2  (n=2)
1.00000000000000
3.0649194340325980  0.0000000000000000  0.0000000000000000
-1.5324597170162990  2.6542980906323432  0.0000000000000000
0.0000000000000000  -0.0000000000000001  33.0059163264461333
Nb  C  O
3  2  2
Selective  dynamics
Direct
0.0000000000000000  0.0000000000000000  0.0348027544698322  T  T  T
0.0000000000000000  0.0000000000000000  0.1227654849890396  T  T  T
0.0000000000000000  0.0000000000000000  0.2094225610515882  T  T  T
0.3333333333333357  0.6666666666666643  0.0791129150961501  T  T  T
0.3333333333333357  0.6666666666666643  0.1673725552973822  T  T  T
0.3333333333333357  0.6666666666666643  0.0000000000000000  T  T  T
0.6666666666666643  0.3333333333333357  0.2425600382447604  T  T  T

0.00000000E+00  0.00000000E+00  0.00000000E+00
0.00000000E+00  0.00000000E+00  0.00000000E+00
0.00000000E+00  0.00000000E+00  0.00000000E+00
0.00000000E+00  0.00000000E+00  0.00000000E+00
0.00000000E+00  0.00000000E+00  0.00000000E+00
0.00000000E+00  0.00000000E+00  0.00000000E+00
0.00000000E+00  0.00000000E+00  0.00000000E+00
