Zr3N2  (n=2)
1.00000000000000
3.1934601493334047  0.0000000000000000  0.0000000000000000
-1.5967300746667024  2.7656176154890746  0.0000000000000000
0.0000000000000000  -0.0000000000000006  32.9338011670178048
Zr  N  O
3  2  2
Selective  dynamics
Direct
0.0000000000000000  0.0000000000000000  0.0326909774045804  T  T  T
0.0000000000000000  0.0000000000000000  0.1226502440831626  T  T  T
0.0000000000000000  0.0000000000000000  0.2107964956663864  T  T  T
0.3333333333333357  0.6666666666666643  0.0786519047982418  T  T  T
0.3333333333333357  0.6666666666666643  0.1687715420600638  T  T  T
0.3333333333333357  0.6666666666666643  0.0000000000000000  T  T  T
0.6666666666666643  0.3333333333333357  0.2409014716152250  T  T  T

0.00000000E+00  0.00000000E+00  0.00000000E+00
0.00000000E+00  0.00000000E+00  0.00000000E+00
0.00000000E+00  0.00000000E+00  0.00000000E+00
0.00000000E+00  0.00000000E+00  0.00000000E+00
0.00000000E+00  0.00000000E+00  0.00000000E+00
0.00000000E+00  0.00000000E+00  0.00000000E+00
0.00000000E+00  0.00000000E+00  0.00000000E+00
