Mo3C2  (n=2)
1.00000000000000
2.8985043846602059  0.0000000000000000  0.0000000000000000
-1.4492521923301029  2.5101784301706154  0.0000000000000000
0.0000000000000001  -0.0000000000000001  33.0882796470223326
Mo  C  O
3  2  2
Selective  dynamics
Direct
0.0000000000000000  0.0000000000000000  0.0366332125344498  T  T  T
0.0000000000000000  0.0000000000000000  0.1224268253887565  T  T  T
0.0000000000000000  0.0000000000000000  0.2084639184786407  T  T  T
0.3333333333333357  0.6666666666666643  0.0791075198703338  T  T  T
0.3333333333333357  0.6666666666666643  0.1640688762438406  T  T  T
0.3333333333333357  0.6666666666666643  0.0000000000000000  T  T  T
0.6666666666666643  0.3333333333333357  0.2444454572225006  T  T  T

0.00000000E+00  0.00000000E+00  0.00000000E+00
0.00000000E+00  0.00000000E+00  0.00000000E+00
0.00000000E+00  0.00000000E+00  0.00000000E+00
0.00000000E+00  0.00000000E+00  0.00000000E+00
0.00000000E+00  0.00000000E+00  0.00000000E+00
0.00000000E+00  0.00000000E+00  0.00000000E+00
0.00000000E+00  0.00000000E+00  0.00000000E+00
