Ti3N2  (n=2)
1.00000000000000
2.9271251785202210  0.0000000000000000  0.0000000000000000
-1.4635625892601105  2.5349647647032372  0.0000000000000000
0.0000000000000001  0.0000000000000006  32.3927383820636834
Ti  N  O
3  2  2
Selective  dynamics
Direct
0.0000000000000000  0.0000000000000000  0.0315397249733330  T  T  T
0.0000000000000000  0.0000000000000000  0.1164774339893259  T  T  T
0.0000000000000000  0.0000000000000000  0.1990472622014254  T  T  T
0.3333333333333357  0.6666666666666643  0.0754277402573279  T  T  T
0.3333333333333357  0.6666666666666643  0.1586252157315084  T  T  T
0.3333333333333357  0.6666666666666643  0.0000000000000000  T  T  T
0.6666666666666643  0.3333333333333357  0.2282220877675826  T  T  T

0.00000000E+00  0.00000000E+00  0.00000000E+00
0.00000000E+00  0.00000000E+00  0.00000000E+00
0.00000000E+00  0.00000000E+00  0.00000000E+00
0.00000000E+00  0.00000000E+00  0.00000000E+00
0.00000000E+00  0.00000000E+00  0.00000000E+00
0.00000000E+00  0.00000000E+00  0.00000000E+00
0.00000000E+00  0.00000000E+00  0.00000000E+00
