Cr3N2  (n=2)
1.00000000000000
2.6616804595890105  0.0000000000000000  0.0000000000000000
-1.3308402297945052  2.3050828947541375  0.0000000000000000
0.0000000000000000  0.0000000000000002  32.4583021361979647
Cr  N  O
3  2  2
Selective  dynamics
Direct
0.0000000000000000  0.0000000000000000  0.0349176279620663  T  T  T
0.0000000000000000  0.0000000000000000  0.1155856833529014  T  T  T
0.0000000000000000  0.0000000000000000  0.1961034304229977  T  T  T
0.3333333333333357  0.6666666666666643  0.0747894242445774  T  T  T
0.3333333333333357  0.6666666666666643  0.1536547978147904  T  T  T
0.3333333333333357  0.6666666666666643  0.0000000000000000  T  T  T
0.6666666666666643  0.3333333333333357  0.2297810312105129  T  T  T

0.00000000E+00  0.00000000E+00  0.00000000E+00
0.00000000E+00  0.00000000E+00  0.00000000E+00
0.00000000E+00  0.00000000E+00  0.00000000E+00
0.00000000E+00  0.00000000E+00  0.00000000E+00
0.00000000E+00  0.00000000E+00  0.00000000E+00
0.00000000E+00  0.00000000E+00  0.00000000E+00
0.00000000E+00  0.00000000E+00  0.00000000E+00
