Hf3C2  (n=2)
1.00000000000000
3.2177560593088455  0.0000000000000000  0.0000000000000000
-1.6088780296544227  2.7866584907794718  0.0000000000000001
-0.0000000000000002  -0.0000000000000013  32.8646160234516103
Hf  C  O
3  2  2
Selective  dynamics
Direct
0.0000000000000000  0.0000000000000000  0.0307290747178600  T  T  T
0.0000000000000000  0.0000000000000000  0.1216911266094728  T  T  T
0.0000000000000000  0.0000000000000000  0.2111316369845926  T  T  T
0.3333333333333357  0.6666666666666643  0.0773422777548763  T  T  T
0.3333333333333357  0.6666666666666643  0.1666815798113202  T  T  T
0.3333333333333357  0.6666666666666643  0.0000000000000000  T  T  T
0.6666666666666643  0.3333333333333357  0.2393034507946041  T  T  T

0.00000000E+00  0.00000000E+00  0.00000000E+00
0.00000000E+00  0.00000000E+00  0.00000000E+00
0.00000000E+00  0.00000000E+00  0.00000000E+00
0.00000000E+00  0.00000000E+00  0.00000000E+00
0.00000000E+00  0.00000000E+00  0.00000000E+00
0.00000000E+00  0.00000000E+00  0.00000000E+00
0.00000000E+00  0.00000000E+00  0.00000000E+00
