Nb2N  (n=1)
1.00000000000000
3.4570207481434436  -0.0000000000000002  -0.0000000000000000
-1.7285103740717223  2.9938677897948693  -0.0000000000000000
-0.0000000000000000  -0.0000000000000001  30.9697052564971500
Nb  N  Br
2  1  2
Selective  dynamics
Direct
-0.0000000000000000  -0.0000000000000000  0.0678091249745327  T  T  T
0.6666666666666643  0.3333333333333357  0.1289756464093050  T  T  T
0.3333333333333357  0.6666666666666643  0.0986505623539320  T  T  T
0.3333333333333357  0.6666666666666643  0.0000000000000000  T  T  T
-0.0000000000000000  -0.0000000000000000  0.1927595114985720  T  T  T

0.00000000E+00  0.00000000E+00  0.00000000E+00
0.00000000E+00  0.00000000E+00  0.00000000E+00
0.00000000E+00  0.00000000E+00  0.00000000E+00
0.00000000E+00  0.00000000E+00  0.00000000E+00
0.00000000E+00  0.00000000E+00  0.00000000E+00
