Hf2C  (n=1)
1.00000000000000
3.4520955651706480  0.0000000000000019  0.0000000000000000
-1.7260477825853227  2.9896024561899979  -0.0000000000000006
0.0000000000000005  -0.0000000000000102  31.2337662591272078
Hf  C  Br
2  1  2
Selective  dynamics
Direct
0.0000000000000000  0.0000000000000000  0.0622944909093816  T  T  T
0.6666666666666643  0.3333333333333357  0.1371806817159992  T  T  T
0.3333333333333357  0.6666666666666643  0.1025336324644164  T  T  T
0.3333333333333357  0.6666666666666643  0.0000000000000000  T  T  T
0.0000000000000000  0.0000000000000000  0.1995842002341156  T  T  T

0.00000000E+00  0.00000000E+00  0.00000000E+00
0.00000000E+00  0.00000000E+00  0.00000000E+00
0.00000000E+00  0.00000000E+00  0.00000000E+00
0.00000000E+00  0.00000000E+00  0.00000000E+00
0.00000000E+00  0.00000000E+00  0.00000000E+00
