Sc2N
1.00000000000000
3.4249281634665580  -0.0000000000000005  0.0000000000000007
-1.7124640817332790  2.9660747960371698  0.0000000000000001
0.0000000000000066  0.0000000000000052  31.1319829786811333
Sc  N  Br
2  1  2
Selective  dynamics
Direct
0.0000000000000000  0.0000000000000000  0.0605487992949851  T  T  T
0.6666666666666643  0.3333333333333357  0.1369382688726618  T  T  T
0.3333333333333357  0.6666666666666643  0.1012503211316733  T  T  T
0.3333333333333357  0.6666666666666643  0.0000000000000000  T  T  T
0.0000000000000000  0.0000000000000000  0.1969673111693609  T  T  T

0.00000000E+00  0.00000000E+00  0.00000000E+00
0.00000000E+00  0.00000000E+00  0.00000000E+00
0.00000000E+00  0.00000000E+00  0.00000000E+00
0.00000000E+00  0.00000000E+00  0.00000000E+00
0.00000000E+00  0.00000000E+00  0.00000000E+00
