Mo2C  (n=1)
1.00000000000000
3.4089675052435431  -0.0000000000000003  0.0000000000000001
-1.7044837526217713  2.9522524601409739  -0.0000000000000001
0.0000000000000007  -0.0000000000000005  30.8598784552287100
Mo  C  Br
2  1  2
Selective  dynamics
Direct
0.0000000000000000  0.0000000000000000  0.0672317919011184  T  T  T
0.6666666666666643  0.3333333333333357  0.1257908149670197  T  T  T
0.3333333333333357  0.6666666666666643  0.0984745703179302  T  T  T
0.3333333333333357  0.6666666666666643  0.0000000000000000  T  T  T
-0.0000000000000000  -0.0000000000000000  0.1898866343148493  T  T  T

0.00000000E+00  0.00000000E+00  0.00000000E+00
0.00000000E+00  0.00000000E+00  0.00000000E+00
0.00000000E+00  0.00000000E+00  0.00000000E+00
0.00000000E+00  0.00000000E+00  0.00000000E+00
0.00000000E+00  0.00000000E+00  0.00000000E+00
