Ta2C  (n=1)
1.00000000000000
3.3113650607473626  0.0000000000000001  0.0000000000000009
-1.6556825303736815  2.8677262642279717  -0.0000000000000026
0.0000000000000102  -0.0000000000000231  31.2776520219603000
Ta  C  Br
2  1  2
Selective  dynamics
Direct
-0.0000000000000000  -0.0000000000000000  0.0658463356720920  T  T  T
0.6666666666666643  0.3333333333333357  0.1379369014322401  T  T  T
0.3333333333333357  0.6666666666666643  0.1010584896621888  T  T  T
0.3333333333333357  0.6666666666666643  0.0000000000000000  T  T  T
0.0000000000000000  0.0000000000000000  0.2007072659275290  T  T  T

0.00000000E+00  0.00000000E+00  0.00000000E+00
0.00000000E+00  0.00000000E+00  0.00000000E+00
0.00000000E+00  0.00000000E+00  0.00000000E+00
0.00000000E+00  0.00000000E+00  0.00000000E+00
0.00000000E+00  0.00000000E+00  0.00000000E+00
