Cr2N  (n=1)
1.00000000000000
3.2575479496859590  0.0000000000000000  0.0000000000000000
-1.6287739748429795  2.8211192788069779  0.0000000000000000
-0.0000000000000001  -0.0000000000000002  30.4438742628754682
Cr  N  Br
2  1  2
Selective  dynamics
Direct
0.0000000000000000  -0.0000000000000000  0.0594678795625130  T  T  T
0.6666666666666643  0.3333333333333357  0.1182191730472918  T  T  T
0.3333333333333357  0.6666666666666643  0.0995222656992909  T  T  T
0.3333333333333357  0.6666666666666643  0.0000000000000000  T  T  T
0.0000000000000000  -0.0000000000000000  0.1788167371822960  T  T  T

0.00000000E+00  0.00000000E+00  0.00000000E+00
0.00000000E+00  0.00000000E+00  0.00000000E+00
0.00000000E+00  0.00000000E+00  0.00000000E+00
0.00000000E+00  0.00000000E+00  0.00000000E+00
0.00000000E+00  0.00000000E+00  0.00000000E+00
