Ti2C  (n=1)
1.00000000000000
3.3006834364573772  -0.0000000000000001  -0.0000000000000001
-1.6503417182286886  2.8584757061330617  0.0000000000000000
-0.0000000000000004  -0.0000000000000005  30.8523803402101642
Ti  C  Br
2  1  2
Selective  dynamics
Direct
-0.0000000000000000  -0.0000000000000000  0.0600031427389244  T  T  T
0.6666666666666643  0.3333333333333357  0.1301602361832584  T  T  T
0.3333333333333357  0.6666666666666643  0.0973579647547408  T  T  T
0.3333333333333357  0.6666666666666643  0.0000000000000000  T  T  T
0.0000000000000000  0.0000000000000000  0.1896897508612231  T  T  T

0.00000000E+00  0.00000000E+00  0.00000000E+00
0.00000000E+00  0.00000000E+00  0.00000000E+00
0.00000000E+00  0.00000000E+00  0.00000000E+00
0.00000000E+00  0.00000000E+00  0.00000000E+00
0.00000000E+00  0.00000000E+00  0.00000000E+00
