Zr2C  (n=1)
1.00000000000000
3.4974171500398530  -0.0000000000000024  0.0000000000000008
-1.7487085750199285  3.0288521000042694  -0.0000000000000004
0.0000000000000074  -0.0000000000000028  31.3189112358692370
Zr  C  Br
2  1  2
Selective  dynamics
Direct
0.0000000000000000  -0.0000000000000000  0.0624838839417608  T  T  T
0.6666666666666643  0.3333333333333357  0.1392625064560601  T  T  T
0.3333333333333357  0.6666666666666643  0.1032841580857391  T  T  T
0.3333333333333357  0.6666666666666643  0.0000000000000000  T  T  T
-0.0000000000000000  0.0000000000000000  0.2017602460149461  T  T  T

0.00000000E+00  0.00000000E+00  0.00000000E+00
0.00000000E+00  0.00000000E+00  0.00000000E+00
0.00000000E+00  0.00000000E+00  0.00000000E+00
0.00000000E+00  0.00000000E+00  0.00000000E+00
0.00000000E+00  0.00000000E+00  0.00000000E+00
