Hf2N  (n=1)
1.00000000000000
3.4243970478658161  -0.0000000000000022  -0.0000000000000000
-1.7121985239329092  2.9656148365162238  0.0000000000000000
-0.0000000000000001  -0.0000000000000001  31.1886465688817438
Hf  N  Br
2  1  2
Selective  dynamics
Direct
-0.0000000000000000  -0.0000000000000000  0.0641480421673289  T  T  T
0.6666666666666643  0.3333333333333357  0.1356594773210323  T  T  T
0.3333333333333357  0.6666666666666643  0.1010483292854112  T  T  T
0.3333333333333357  0.6666666666666643  0.0000000000000000  T  T  T
0.0000000000000000  0.0000000000000000  0.1984262624289834  T  T  T

0.00000000E+00  0.00000000E+00  0.00000000E+00
0.00000000E+00  0.00000000E+00  0.00000000E+00
0.00000000E+00  0.00000000E+00  0.00000000E+00
0.00000000E+00  0.00000000E+00  0.00000000E+00
0.00000000E+00  0.00000000E+00  0.00000000E+00
