Mo2N  (n=1)
1.00000000000000
3.4461504786783523  0.0000000000000000  0.0000000000000000
-1.7230752393391766  2.9844538597935037  0.0000000000000003
0.0000000000000001  0.0000000000000000  31.2048965384759818
Mo  N  Br
2  1  2
Selective  dynamics
Direct
0.6666666666666643  0.3333333333333357  0.0668601926824547  T  T  T
0.0000000000000000  0.0000000000000000  0.1210104998743012  T  T  T
0.3333333333333357  0.6666666666666643  0.0957934311117576  T  T  T
0.3333333333333357  0.6666666666666643  0.0000000000000000  T  T  T
0.0000000000000000  0.0000000000000000  0.1988436824594267  T  T  T

0.00000000E+00  0.00000000E+00  0.00000000E+00
0.00000000E+00  0.00000000E+00  0.00000000E+00
0.00000000E+00  0.00000000E+00  0.00000000E+00
0.00000000E+00  0.00000000E+00  0.00000000E+00
0.00000000E+00  0.00000000E+00  0.00000000E+00
