Cr2C  (n=1)
1.00000000000000
3.2221484176016189  -0.0000000000000002  0.0000000000000001
-1.6110742088008094  2.7904623844555836  -0.0000000000000001
0.0000000000000005  -0.0000000000000008  30.4680133177316037
Cr  C  Br
2  1  2
Selective  dynamics
Direct
-0.0000000000000000  -0.0000000000000000  0.0636719462132334  T  T  T
0.6666666666666643  0.3333333333333357  0.1190505786645975  T  T  T
0.3333333333333357  0.6666666666666643  0.0932402277208329  T  T  T
0.3333333333333357  0.6666666666666643  0.0000000000000000  T  T  T
0.0000000000000000  0.0000000000000000  0.1794673404107172  T  T  T

0.00000000E+00  0.00000000E+00  0.00000000E+00
0.00000000E+00  0.00000000E+00  0.00000000E+00
0.00000000E+00  0.00000000E+00  0.00000000E+00
0.00000000E+00  0.00000000E+00  0.00000000E+00
0.00000000E+00  0.00000000E+00  0.00000000E+00
