Sc2C  (n=1)
1.00000000000000
3.4983883593202219  0.0000000000000001  -0.0000000000000000
-1.7491941796601111  3.0296931921074703  0.0000000000000001
0.0000000000000003  0.0000000000000007  31.2236658190914689
Sc  C  Br
2  1  2
Selective  dynamics
Direct
0.0000000000000000  0.0000000000000000  0.0613160407886603  T  T  T
0.6666666666666643  0.3333333333333357  0.1400842256841390  T  T  T
0.3333333333333357  0.6666666666666643  0.1016291746686043  T  T  T
0.3333333333333357  0.6666666666666643  0.0000000000000000  T  T  T
-0.0000000000000000  -0.0000000000000000  0.1993252763833405  T  T  T

0.00000000E+00  0.00000000E+00  0.00000000E+00
0.00000000E+00  0.00000000E+00  0.00000000E+00
0.00000000E+00  0.00000000E+00  0.00000000E+00
0.00000000E+00  0.00000000E+00  0.00000000E+00
0.00000000E+00  0.00000000E+00  0.00000000E+00
