Ti2N  (n=1)
1.00000000000000
3.2895736845805237  0.0000000000000001  0.0000000000000000
-1.6447868422902618  2.8488543787025020  0.0000000000000000
0.0000000000000000  0.0000000000000002  30.7910607142677435
Ti  N  Br
2  1  2
Selective  dynamics
Direct
-0.0000000000000000  -0.0000000000000000  0.0621047660664557  T  T  T
0.6666666666666643  0.3333333333333357  0.1280011195359682  T  T  T
0.3333333333333357  0.6666666666666643  0.0966422671197569  T  T  T
0.3333333333333357  0.6666666666666643  0.0000000000000000  T  T  T
-0.0000000000000000  -0.0000000000000000  0.1880760383023871  T  T  T

0.00000000E+00  0.00000000E+00  0.00000000E+00
0.00000000E+00  0.00000000E+00  0.00000000E+00
0.00000000E+00  0.00000000E+00  0.00000000E+00
0.00000000E+00  0.00000000E+00  0.00000000E+00
0.00000000E+00  0.00000000E+00  0.00000000E+00
