Zr2N  (n=1)
1.00000000000000
3.4875433312460431  0.0000000000000009  -0.0000000000000003
-1.7437716656230213  3.0203011220645739  0.0000000000000007
-0.0000000000000033  0.0000000000000065  31.2263267307494132
Zr  N  Br
2  1  2
Selective  dynamics
Direct
0.0000000000000000  0.0000000000000000  0.0643428944958497  T  T  T
0.6666666666666643  0.3333333333333357  0.1366720950606378  T  T  T
0.3333333333333357  0.6666666666666643  0.1015914246533788  T  T  T
0.3333333333333357  0.6666666666666643  0.0000000000000000  T  T  T
-0.0000000000000000  -0.0000000000000000  0.1993935048600571  T  T  T

0.00000000E+00  0.00000000E+00  0.00000000E+00
0.00000000E+00  0.00000000E+00  0.00000000E+00
0.00000000E+00  0.00000000E+00  0.00000000E+00
0.00000000E+00  0.00000000E+00  0.00000000E+00
0.00000000E+00  0.00000000E+00  0.00000000E+00
