Nb2C  (n=1)
1.00000000000000
3.3670690305224964  -0.0000000000000000  0.0000000000000001
-1.6835345152612484  2.9159673172590650  -0.0000000000000001
0.0000000000000014  -0.0000000000000003  31.1986911280963177
Nb  C  Br
2  1  2
Selective  dynamics
Direct
0.0000000000000000  -0.0000000000000000  0.0659072157101905  T  T  T
0.6666666666666643  0.3333333333333357  0.1365730843524490  T  T  T
0.3333333333333357  0.6666666666666643  0.1004946272608023  T  T  T
0.3333333333333357  0.6666666666666643  0.0000000000000000  T  T  T
-0.0000000000000000  -0.0000000000000000  0.1986843327063173  T  T  T

0.00000000E+00  0.00000000E+00  0.00000000E+00
0.00000000E+00  0.00000000E+00  0.00000000E+00
0.00000000E+00  0.00000000E+00  0.00000000E+00
0.00000000E+00  0.00000000E+00  0.00000000E+00
0.00000000E+00  0.00000000E+00  0.00000000E+00
