Ta2N  (n=1)
1.00000000000000
3.4471908047281739  -0.0000000000000006  -0.0000000000000001
-1.7235954023640867  2.9853548090909299  0.0000000000000000
-0.0000000000000001  0.0000000000000001  30.9578744260788312
Ta  N  Br
2  1  2
Selective  dynamics
Direct
0.0000000000000000  0.0000000000000000  0.0679198060818462  T  T  T
0.6666666666666643  0.3333333333333357  0.1283910159389278  T  T  T
0.3333333333333357  0.6666666666666643  0.0988099356089045  T  T  T
0.3333333333333357  0.6666666666666643  0.0000000000000000  T  T  T
0.0000000000000000  -0.0000000000000000  0.1924510172784968  T  T  T

0.00000000E+00  0.00000000E+00  0.00000000E+00
0.00000000E+00  0.00000000E+00  0.00000000E+00
0.00000000E+00  0.00000000E+00  0.00000000E+00
0.00000000E+00  0.00000000E+00  0.00000000E+00
0.00000000E+00  0.00000000E+00  0.00000000E+00
