Ta4C3  (n=3)
1.00000000000000
3.1316758469406407  0.0000000000000001  0.0000000000000000
-1.5658379234703204  2.7121108417392534  -0.0000000000000000
0.0000000000000000  0.0000000000000000  37.4986723964643289
Ta  C  Br
4  3  2
Selective  dynamics
Direct
0.0000000000000000  0.0000000000000000  0.0533744350004407  T  T  T
0.0000000000000000  0.0000000000000000  0.1288425160039766  T  T  T
0.0000000000000000  0.0000000000000000  0.2044672146531225  T  T  T
-0.0000000000000000  -0.0000000000000000  0.2799352956566584  T  T  T
0.3333333333333357  0.6666666666666643  0.0889572766591096  T  T  T
0.3333333333333357  0.6666666666666643  0.1666548653285495  T  T  T
0.3333333333333357  0.6666666666666643  0.2443524539979824  T  T  T
0.6666666666666643  0.3333333333333357  0.0000000000000000  T  T  T
0.6666666666666643  0.3333333333333357  0.3333097306570992  T  T  T

0.00000000E+00  0.00000000E+00  0.00000000E+00
0.00000000E+00  0.00000000E+00  0.00000000E+00
0.00000000E+00  0.00000000E+00  0.00000000E+00
0.00000000E+00  0.00000000E+00  0.00000000E+00
0.00000000E+00  0.00000000E+00  0.00000000E+00
0.00000000E+00  0.00000000E+00  0.00000000E+00
0.00000000E+00  0.00000000E+00  0.00000000E+00
0.00000000E+00  0.00000000E+00  0.00000000E+00
0.00000000E+00  0.00000000E+00  0.00000000E+00
