Nb4N3  (n=3)
1.00000000000000
3.0608525006045322  0.0000000000000001  0.0000000000000000
-1.5304262503022661  2.6507760241610248  0.0000000000000000
0.0000000000000000  0.0000000000000000  37.6274652918008456
Nb  N  Br
4  3  2
Selective  dynamics
Direct
0.0000000000000000  -0.0000000000000000  0.0532006045665021  T  T  T
0.0000000000000000  0.0000000000000000  0.1294810276431213  T  T  T
0.0000000000000000  0.0000000000000000  0.2061106789434080  T  T  T
0.0000000000000000  -0.0000000000000000  0.2823911020200272  T  T  T
0.3333333333333357  0.6666666666666643  0.0927662424834380  T  T  T
0.3333333333333357  0.6666666666666643  0.1677958532932612  T  T  T
0.3333333333333357  0.6666666666666643  0.2428254641030842  T  T  T
0.6666666666666643  0.3333333333333357  0.0000000000000000  T  T  T
0.6666666666666643  0.3333333333333357  0.3355917065865293  T  T  T

0.00000000E+00  0.00000000E+00  0.00000000E+00
0.00000000E+00  0.00000000E+00  0.00000000E+00
0.00000000E+00  0.00000000E+00  0.00000000E+00
0.00000000E+00  0.00000000E+00  0.00000000E+00
0.00000000E+00  0.00000000E+00  0.00000000E+00
0.00000000E+00  0.00000000E+00  0.00000000E+00
0.00000000E+00  0.00000000E+00  0.00000000E+00
0.00000000E+00  0.00000000E+00  0.00000000E+00
0.00000000E+00  0.00000000E+00  0.00000000E+00
