Ti4C3  (n=3)
1.00000000000000
3.1971378472029999  -0.0000000000000001  0.0000000000000000
-1.5985689236014999  2.7688025961407003  -0.0000000000000000
-0.0000000000000000  -0.0000000000000000  36.4292117573180292
Ti  C  Br
4  3  2
Selective  dynamics
Direct
-0.0000000000000000  -0.0000000000000000  0.0514971159921388  T  T  T
-0.0000000000000000  -0.0000000000000000  0.1217520924133341  T  T  T
-0.0000000000000000  -0.0000000000000000  0.1919854606651260  T  T  T
-0.0000000000000000  -0.0000000000000000  0.2622404370863213  T  T  T
0.3333333333333357  0.6666666666666643  0.0813293897303781  T  T  T
0.3333333333333357  0.6666666666666643  0.1568687765392300  T  T  T
0.3333333333333357  0.6666666666666643  0.2324081633480746  T  T  T
0.6666666666666643  0.3333333333333357  0.0000000000000000  T  T  T
0.6666666666666643  0.3333333333333357  0.3137375530784601  T  T  T

0.00000000E+00  0.00000000E+00  0.00000000E+00
0.00000000E+00  0.00000000E+00  0.00000000E+00
0.00000000E+00  0.00000000E+00  0.00000000E+00
0.00000000E+00  0.00000000E+00  0.00000000E+00
0.00000000E+00  0.00000000E+00  0.00000000E+00
0.00000000E+00  0.00000000E+00  0.00000000E+00
0.00000000E+00  0.00000000E+00  0.00000000E+00
0.00000000E+00  0.00000000E+00  0.00000000E+00
0.00000000E+00  0.00000000E+00  0.00000000E+00
