Cr4N3  (n=3)
1.00000000000000
2.8503494229267390  0.0000000000000000  0.0000000000000000
-1.4251747114633695  2.4684750099244535  0.0000000000000000
0.0000000000000000  0.0000000000000000  36.3738147587148646
Cr  N  Br
4  3  2
Selective  dynamics
Direct
-0.0000000000000000  -0.0000000000000000  0.0536063111735427  T  T  T
-0.0000000000000000  -0.0000000000000000  0.1212183390154206  T  T  T
0.0000000000000000  -0.0000000000000000  0.1914740424178345  T  T  T
-0.0000000000000000  -0.0000000000000000  0.2590860702597190  T  T  T
0.3333333333333357  0.6666666666666643  0.0851272685157298  T  T  T
0.3333333333333357  0.6666666666666643  0.1563461907166308  T  T  T
0.3333333333333357  0.6666666666666643  0.2275651129175252  T  T  T
0.6666666666666643  0.3333333333333357  0.0000000000000000  T  T  T
0.6666666666666643  0.3333333333333357  0.3126923814332616  T  T  T

0.00000000E+00  0.00000000E+00  0.00000000E+00
0.00000000E+00  0.00000000E+00  0.00000000E+00
0.00000000E+00  0.00000000E+00  0.00000000E+00
0.00000000E+00  0.00000000E+00  0.00000000E+00
0.00000000E+00  0.00000000E+00  0.00000000E+00
0.00000000E+00  0.00000000E+00  0.00000000E+00
0.00000000E+00  0.00000000E+00  0.00000000E+00
0.00000000E+00  0.00000000E+00  0.00000000E+00
0.00000000E+00  0.00000000E+00  0.00000000E+00
