Ti4N3  (n=3)
1.00000000000000
3.0564339087230024  0.0000000000000000  0.0000000000000000
-1.5282169543615012  2.6469494103251860  0.0000000000000000
0.0000000000000000  0.0000000000000000  36.6717119643493845
Ti  N  Br
4  3  2
Selective  dynamics
Direct
-0.0000000000000000  -0.0000000000000000  0.0512613725580942  T  T  T
-0.0000000000000000  -0.0000000000000000  0.1227911315162534  T  T  T
-0.0000000000000000  -0.0000000000000000  0.1954844912770349  T  T  T
-0.0000000000000000  -0.0000000000000000  0.2670142502351944  T  T  T
0.3333333333333357  0.6666666666666643  0.0844979331730422  T  T  T
0.3333333333333357  0.6666666666666643  0.1591378113966441  T  T  T
0.3333333333333357  0.6666666666666643  0.2337776896202324  T  T  T
0.6666666666666643  0.3333333333333357  0.0000000000000000  T  T  T
0.6666666666666643  0.3333333333333357  0.3182756227932884  T  T  T

0.00000000E+00  0.00000000E+00  0.00000000E+00
0.00000000E+00  0.00000000E+00  0.00000000E+00
0.00000000E+00  0.00000000E+00  0.00000000E+00
0.00000000E+00  0.00000000E+00  0.00000000E+00
0.00000000E+00  0.00000000E+00  0.00000000E+00
0.00000000E+00  0.00000000E+00  0.00000000E+00
0.00000000E+00  0.00000000E+00  0.00000000E+00
0.00000000E+00  0.00000000E+00  0.00000000E+00
0.00000000E+00  0.00000000E+00  0.00000000E+00
