Nb4C3  (n=3)
1.00000000000000
3.1580524418008098  0.0000000000000003  0.0000000000000000
-1.5790262209004049  2.7349536432593982  -0.0000000000000000
0.0000000000000000  -0.0000000000000000  37.4896478819803320
Nb  C  Br
4  3  2
Selective  dynamics
Direct
-0.0000000000000000  0.0000000000000000  0.0531491988424210  T  T  T
-0.0000000000000000  0.0000000000000000  0.1286563147648265  T  T  T
-0.0000000000000000  0.0000000000000000  0.2044929300960082  T  T  T
-0.0000000000000000  0.0000000000000000  0.2800000460184137  T  T  T
0.3333333333333357  0.6666666666666643  0.0890940033240490  T  T  T
0.3333333333333357  0.6666666666666643  0.1665746224304138  T  T  T
0.3333333333333357  0.6666666666666643  0.2440552415367783  T  T  T
0.6666666666666643  0.3333333333333357  0.0000000000000000  T  T  T
0.6666666666666643  0.3333333333333357  0.3331492448608346  T  T  T

0.00000000E+00  0.00000000E+00  0.00000000E+00
0.00000000E+00  0.00000000E+00  0.00000000E+00
0.00000000E+00  0.00000000E+00  0.00000000E+00
0.00000000E+00  0.00000000E+00  0.00000000E+00
0.00000000E+00  0.00000000E+00  0.00000000E+00
0.00000000E+00  0.00000000E+00  0.00000000E+00
0.00000000E+00  0.00000000E+00  0.00000000E+00
0.00000000E+00  0.00000000E+00  0.00000000E+00
0.00000000E+00  0.00000000E+00  0.00000000E+00
