Hf4N3  (n=3)
1.00000000000000
3.1734463975633798  0.0000000000000001  0.0000000000000000
-1.5867231987816903  2.7482851994361344  0.0000000000000000
0.0000000000000000  0.0000000000000000  37.6819450460419318
Hf  N  Br
4  3  2
Selective  dynamics
Direct
0.0000000000000000  -0.0000000000000000  0.0527807974954021  T  T  T
0.0000000000000000  -0.0000000000000000  0.1296382145551617  T  T  T
0.0000000000000000  -0.0000000000000000  0.2069140794027720  T  T  T
0.0000000000000000  -0.0000000000000000  0.2837714964625315  T  T  T
0.3333333333333357  0.6666666666666643  0.0914880986542697  T  T  T
0.3333333333333357  0.6666666666666643  0.1682761469789633  T  T  T
0.3333333333333357  0.6666666666666643  0.2450641953036569  T  T  T
0.6666666666666643  0.3333333333333357  0.0000000000000000  T  T  T
0.6666666666666643  0.3333333333333357  0.3365522939579264  T  T  T

0.00000000E+00  0.00000000E+00  0.00000000E+00
0.00000000E+00  0.00000000E+00  0.00000000E+00
0.00000000E+00  0.00000000E+00  0.00000000E+00
0.00000000E+00  0.00000000E+00  0.00000000E+00
0.00000000E+00  0.00000000E+00  0.00000000E+00
0.00000000E+00  0.00000000E+00  0.00000000E+00
0.00000000E+00  0.00000000E+00  0.00000000E+00
0.00000000E+00  0.00000000E+00  0.00000000E+00
0.00000000E+00  0.00000000E+00  0.00000000E+00
