Zr4C3  (n=3)
1.00000000000000
3.3970037495552474  -0.0000000000000001  0.0000000000000000
-1.6985018747776235  2.9418915524346918  -0.0000000000000000
-0.0000000000000000  -0.0000000000000000  37.5205484874768871
Zr  C  Br
4  3  2
Selective  dynamics
Direct
-0.0000000000000000  -0.0000000000000000  0.0533971481405296  T  T  T
-0.0000000000000000  -0.0000000000000000  0.1293480954614586  T  T  T
-0.0000000000000000  -0.0000000000000000  0.2043503442523379  T  T  T
-0.0000000000000000  -0.0000000000000000  0.2803012915732668  T  T  T
0.3333333333333357  0.6666666666666643  0.0852022761187896  T  T  T
0.3333333333333357  0.6666666666666643  0.1668492198568946  T  T  T
0.3333333333333357  0.6666666666666643  0.2484961635949996  T  T  T
0.6666666666666643  0.3333333333333357  0.0000000000000000  T  T  T
0.6666666666666643  0.3333333333333357  0.3336984397137965  T  T  T

0.00000000E+00  0.00000000E+00  0.00000000E+00
0.00000000E+00  0.00000000E+00  0.00000000E+00
0.00000000E+00  0.00000000E+00  0.00000000E+00
0.00000000E+00  0.00000000E+00  0.00000000E+00
0.00000000E+00  0.00000000E+00  0.00000000E+00
0.00000000E+00  0.00000000E+00  0.00000000E+00
0.00000000E+00  0.00000000E+00  0.00000000E+00
0.00000000E+00  0.00000000E+00  0.00000000E+00
0.00000000E+00  0.00000000E+00  0.00000000E+00
