Hf4C3  (n=3)
1.00000000000000
3.3519482070542317  -0.0000000000000003  0.0000000000000000
-1.6759741035271156  2.9028723051856011  0.0000000000000000
0.0000000000000000  0.0000000000000000  37.3614241823548809
Hf  C  Br
4  3  2
Selective  dynamics
Direct
0.0000000000000000  -0.0000000000000000  0.0533943170788271  T  T  T
0.0000000000000000  -0.0000000000000000  0.1284305223739093  T  T  T
0.0000000000000000  -0.0000000000000000  0.2024301033351331  T  T  T
0.0000000000000000  -0.0000000000000000  0.2774663086302225  T  T  T
0.3333333333333357  0.6666666666666643  0.0842921072171264  T  T  T
0.3333333333333357  0.6666666666666643  0.1654303128545212  T  T  T
0.3333333333333357  0.6666666666666643  0.2465685184919087  T  T  T
0.6666666666666643  0.3333333333333357  0.0000000000000000  T  T  T
0.6666666666666643  0.3333333333333357  0.3308606257090423  T  T  T

0.00000000E+00  0.00000000E+00  0.00000000E+00
0.00000000E+00  0.00000000E+00  0.00000000E+00
0.00000000E+00  0.00000000E+00  0.00000000E+00
0.00000000E+00  0.00000000E+00  0.00000000E+00
0.00000000E+00  0.00000000E+00  0.00000000E+00
0.00000000E+00  0.00000000E+00  0.00000000E+00
0.00000000E+00  0.00000000E+00  0.00000000E+00
0.00000000E+00  0.00000000E+00  0.00000000E+00
0.00000000E+00  0.00000000E+00  0.00000000E+00
