Mo4C3  (n=3)
1.00000000000000
3.0198286329473047  0.0000000000000007  -0.0000000000000000
-1.5099143164736515  2.6152483118701495  0.0000000000000000
-0.0000000000000000  -0.0000000000000000  37.3378385936129433
Mo  C  Br
4  3  2
Selective  dynamics
Direct
-0.0000000000000000  -0.0000000000000000  0.0537785525405453  T  T  T
-0.0000000000000000  -0.0000000000000000  0.1276499014782644  T  T  T
-0.0000000000000000  -0.0000000000000000  0.2027880418611627  T  T  T
0.0000000000000000  -0.0000000000000000  0.2766593907988816  T  T  T
0.3333333333333357  0.6666666666666643  0.0904340314879846  T  T  T
0.3333333333333357  0.6666666666666643  0.1652189716697100  T  T  T
0.3333333333333357  0.6666666666666643  0.2400039118514354  T  T  T
0.6666666666666643  0.3333333333333357  0.0000000000000000  T  T  T
0.6666666666666643  0.3333333333333357  0.3304379433394269  T  T  T

0.00000000E+00  0.00000000E+00  0.00000000E+00
0.00000000E+00  0.00000000E+00  0.00000000E+00
0.00000000E+00  0.00000000E+00  0.00000000E+00
0.00000000E+00  0.00000000E+00  0.00000000E+00
0.00000000E+00  0.00000000E+00  0.00000000E+00
0.00000000E+00  0.00000000E+00  0.00000000E+00
0.00000000E+00  0.00000000E+00  0.00000000E+00
0.00000000E+00  0.00000000E+00  0.00000000E+00
0.00000000E+00  0.00000000E+00  0.00000000E+00
