Sc4C3  (n=3)
1.00000000000000
3.4538017115307795  0.0000000000000001  0.0000000000000000
-1.7269008557653898  2.9910800247719820  -0.0000000000000000
-0.0000000000000000  0.0000000000000000  36.7691023322150556
Sc  C  Br
4  3  2
Selective  dynamics
Direct
-0.0000000000000000  -0.0000000000000000  0.0508214691938102  T  T  T
0.0000000000000000  -0.0000000000000000  0.1237400866827415  T  T  T
-0.0000000000000000  -0.0000000000000000  0.1963412203309361  T  T  T
-0.0000000000000000  -0.0000000000000000  0.2692598378198674  T  T  T
0.3333333333333357  0.6666666666666643  0.0857561339217460  T  T  T
0.3333333333333357  0.6666666666666643  0.1600406535068352  T  T  T
0.3333333333333357  0.6666666666666643  0.2343251730919174  T  T  T
0.6666666666666643  0.3333333333333357  0.0000000000000000  T  T  T
0.6666666666666643  0.3333333333333357  0.3200813070136776  T  T  T

0.00000000E+00  0.00000000E+00  0.00000000E+00
0.00000000E+00  0.00000000E+00  0.00000000E+00
0.00000000E+00  0.00000000E+00  0.00000000E+00
0.00000000E+00  0.00000000E+00  0.00000000E+00
0.00000000E+00  0.00000000E+00  0.00000000E+00
0.00000000E+00  0.00000000E+00  0.00000000E+00
0.00000000E+00  0.00000000E+00  0.00000000E+00
0.00000000E+00  0.00000000E+00  0.00000000E+00
0.00000000E+00  0.00000000E+00  0.00000000E+00
