Mo4N3  (n=3)
1.00000000000000
2.9899968835866191  0.0000000000000002  0.0000000000000000
-1.4949984417933093  2.5894132587572676  0.0000000000000000
0.0000000000000000  0.0000000000000000  37.3185577350863156
Mo  N  Br
4  3  2
Selective  dynamics
Direct
0.0000000000000000  0.0000000000000000  0.0539802480165203  T  T  T
-0.0000000000000000  0.0000000000000000  0.1271080633003137  T  T  T
-0.0000000000000000  0.0000000000000000  0.2029839467535705  T  T  T
-0.0000000000000000  0.0000000000000000  0.2761117620373639  T  T  T
0.3333333333333357  0.6666666666666643  0.0908850676055245  T  T  T
0.3333333333333357  0.6666666666666643  0.1650460050269386  T  T  T
0.3333333333333357  0.6666666666666643  0.2392069424483457  T  T  T
0.6666666666666643  0.3333333333333357  0.0000000000000000  T  T  T
0.6666666666666643  0.3333333333333357  0.3300920100538773  T  T  T

0.00000000E+00  0.00000000E+00  0.00000000E+00
0.00000000E+00  0.00000000E+00  0.00000000E+00
0.00000000E+00  0.00000000E+00  0.00000000E+00
0.00000000E+00  0.00000000E+00  0.00000000E+00
0.00000000E+00  0.00000000E+00  0.00000000E+00
0.00000000E+00  0.00000000E+00  0.00000000E+00
0.00000000E+00  0.00000000E+00  0.00000000E+00
0.00000000E+00  0.00000000E+00  0.00000000E+00
0.00000000E+00  0.00000000E+00  0.00000000E+00
