Zr4N3  (n=3)
1.00000000000000
3.2295081987099832  0.0000000000000002  0.0000000000000000
-1.6147540993549920  2.7968361440624063  0.0000000000000000
0.0000000000000000  0.0000000000000000  37.7776317985602219
Zr  N  Br
4  3  2
Selective  dynamics
Direct
-0.0000000000000000  0.0000000000000000  0.0529870959879242  T  T  T
-0.0000000000000000  0.0000000000000000  0.1302589971800288  T  T  T
-0.0000000000000000  0.0000000000000000  0.2079737397658306  T  T  T
-0.0000000000000000  0.0000000000000000  0.2852456409579352  T  T  T
0.3333333333333357  0.6666666666666643  0.0916062260502473  T  T  T
0.3333333333333357  0.6666666666666643  0.1691163684729297  T  T  T
0.3333333333333357  0.6666666666666643  0.2466265108956121  T  T  T
0.6666666666666643  0.3333333333333357  0.0000000000000000  T  T  T
0.6666666666666643  0.3333333333333357  0.3382327369458666  T  T  T

0.00000000E+00  0.00000000E+00  0.00000000E+00
0.00000000E+00  0.00000000E+00  0.00000000E+00
0.00000000E+00  0.00000000E+00  0.00000000E+00
0.00000000E+00  0.00000000E+00  0.00000000E+00
0.00000000E+00  0.00000000E+00  0.00000000E+00
0.00000000E+00  0.00000000E+00  0.00000000E+00
0.00000000E+00  0.00000000E+00  0.00000000E+00
0.00000000E+00  0.00000000E+00  0.00000000E+00
0.00000000E+00  0.00000000E+00  0.00000000E+00
