Sc4N3  (n=3)
1.00000000000000
3.2729551767131371  0.0000000000000001  0.0000000000000000
-1.6364775883565685  2.8344623301603766  0.0000000000000000
0.0000000000000000  0.0000000000000000  37.0155953801136093
Sc  N  Br
4  3  2
Selective  dynamics
Direct
0.0000000000000000  0.0000000000000000  0.0519677190425529  T  T  T
0.0000000000000000  0.0000000000000000  0.1257698821085233  T  T  T
0.0000000000000000  0.0000000000000000  0.1988391173341525  T  T  T
0.0000000000000000  0.0000000000000000  0.2726412804001229  T  T  T
0.3333333333333357  0.6666666666666643  0.0828087989665114  T  T  T
0.3333333333333357  0.6666666666666643  0.1623044997213343  T  T  T
0.3333333333333357  0.6666666666666643  0.2418002004761573  T  T  T
0.6666666666666643  0.3333333333333357  0.0000000000000000  T  T  T
0.6666666666666643  0.3333333333333357  0.3246089994426757  T  T  T

0.00000000E+00  0.00000000E+00  0.00000000E+00
0.00000000E+00  0.00000000E+00  0.00000000E+00
0.00000000E+00  0.00000000E+00  0.00000000E+00
0.00000000E+00  0.00000000E+00  0.00000000E+00
0.00000000E+00  0.00000000E+00  0.00000000E+00
0.00000000E+00  0.00000000E+00  0.00000000E+00
0.00000000E+00  0.00000000E+00  0.00000000E+00
0.00000000E+00  0.00000000E+00  0.00000000E+00
0.00000000E+00  0.00000000E+00  0.00000000E+00
