Cr4C3  (n=3)
1.00000000000000
2.8889976799586417  0.0000000000000001  0.0000000000000000
-1.4444988399793208  2.5019453822630604  0.0000000000000000
0.0000000000000000  0.0000000000000000  36.3268693510546257
Cr  C  Br
4  3  2
Selective  dynamics
Direct
-0.0000000000000000  0.0000000000000000  0.0522550498709137  T  T  T
-0.0000000000000000  0.0000000000000000  0.1209019816093564  T  T  T
-0.0000000000000000  0.0000000000000000  0.1909021885103863  T  T  T
-0.0000000000000000  0.0000000000000000  0.2595491202488488  T  T  T
0.3333333333333357  0.6666666666666643  0.0853981756480878  T  T  T
0.3333333333333357  0.6666666666666643  0.1559020850598813  T  T  T
0.3333333333333357  0.6666666666666643  0.2264059944716682  T  T  T
0.6666666666666643  0.3333333333333357  0.0000000000000000  T  T  T
0.6666666666666643  0.3333333333333357  0.3118041701197625  T  T  T

0.00000000E+00  0.00000000E+00  0.00000000E+00
0.00000000E+00  0.00000000E+00  0.00000000E+00
0.00000000E+00  0.00000000E+00  0.00000000E+00
0.00000000E+00  0.00000000E+00  0.00000000E+00
0.00000000E+00  0.00000000E+00  0.00000000E+00
0.00000000E+00  0.00000000E+00  0.00000000E+00
0.00000000E+00  0.00000000E+00  0.00000000E+00
0.00000000E+00  0.00000000E+00  0.00000000E+00
0.00000000E+00  0.00000000E+00  0.00000000E+00
