Ta4N3  (n=3)
1.00000000000000
3.0277442571039628  0.0000000000000001  0.0000000000000000
-1.5138721285519812  2.6221034435380521  0.0000000000000000
0.0000000000000000  0.0000000000000000  37.7204550362024378
Ta  N  Br
4  3  2
Selective  dynamics
Direct
0.0000000000000000  -0.0000000000000000  0.0536167028051947  T  T  T
0.0000000000000000  -0.0000000000000000  0.1304042900934830  T  T  T
0.0000000000000000  -0.0000000000000000  0.2068253383400527  T  T  T
0.0000000000000000  -0.0000000000000000  0.2836129256283340  T  T  T
0.3333333333333357  0.6666666666666643  0.0935018837742896  T  T  T
0.3333333333333357  0.6666666666666643  0.1686148142167643  T  T  T
0.3333333333333357  0.6666666666666643  0.2437277446592390  T  T  T
0.6666666666666643  0.3333333333333357  0.0000000000000000  T  T  T
0.6666666666666643  0.3333333333333357  0.3372296284335357  T  T  T

0.00000000E+00  0.00000000E+00  0.00000000E+00
0.00000000E+00  0.00000000E+00  0.00000000E+00
0.00000000E+00  0.00000000E+00  0.00000000E+00
0.00000000E+00  0.00000000E+00  0.00000000E+00
0.00000000E+00  0.00000000E+00  0.00000000E+00
0.00000000E+00  0.00000000E+00  0.00000000E+00
0.00000000E+00  0.00000000E+00  0.00000000E+00
0.00000000E+00  0.00000000E+00  0.00000000E+00
0.00000000E+00  0.00000000E+00  0.00000000E+00
