Mo3C2  (n=2)
1.00000000000000
3.0972845961802555  0.0000000000000000  0.0000000000000000
-1.5486422980901278  2.6823271430830551  0.0000000000000000
0.0000000000000000  0.0000000000000000  34.7362781000876168
Mo  C  Te
3  2  2
Selective  dynamics
Direct
-0.0000000000000000  -0.0000000000000000  0.0607175086146619  T  T  T
-0.0000000000000000  -0.0000000000000000  0.1401456723721712  T  T  T
-0.0000000000000000  -0.0000000000000000  0.2195738361296979  T  T  T
0.3333333333333357  0.6666666666666643  0.1003238274902677  T  T  T
0.3333333333333357  0.6666666666666643  0.1799675172540746  T  T  T
0.6666666666666643  0.3333333333333357  0.0000000000000000  T  T  T
0.6666666666666643  0.3333333333333357  0.2802913447443598  T  T  T

0.00000000E+00  0.00000000E+00  0.00000000E+00
0.00000000E+00  0.00000000E+00  0.00000000E+00
0.00000000E+00  0.00000000E+00  0.00000000E+00
0.00000000E+00  0.00000000E+00  0.00000000E+00
0.00000000E+00  0.00000000E+00  0.00000000E+00
0.00000000E+00  0.00000000E+00  0.00000000E+00
0.00000000E+00  0.00000000E+00  0.00000000E+00
