Ta3N2  (n=2)
1.00000000000000
3.0828904476727845  0.0000000000000000  0.0000000000000000
-1.5414452238363923  2.6698614448339106  0.0000000000000000
0.0000000000000000  0.0000000000000000  35.2529754194153213
Ta  N  Te
3  2  2
Selective  dynamics
Direct
0.0000000000000000  0.0000000000000000  0.0638246123711154  T  T  T
0.0000000000000000  0.0000000000000000  0.1454200006869246  T  T  T
0.0000000000000000  0.0000000000000000  0.2270153890027422  T  T  T
0.3333333333333357  0.6666666666666643  0.1058089846061782  T  T  T
0.3333333333333357  0.6666666666666643  0.1850310167676709  T  T  T
0.6666666666666643  0.3333333333333357  0.0000000000000000  T  T  T
0.6666666666666643  0.3333333333333357  0.2908400013738576  T  T  T

0.00000000E+00  0.00000000E+00  0.00000000E+00
0.00000000E+00  0.00000000E+00  0.00000000E+00
0.00000000E+00  0.00000000E+00  0.00000000E+00
0.00000000E+00  0.00000000E+00  0.00000000E+00
0.00000000E+00  0.00000000E+00  0.00000000E+00
0.00000000E+00  0.00000000E+00  0.00000000E+00
0.00000000E+00  0.00000000E+00  0.00000000E+00
