Cr3N2  (n=2)
1.00000000000000
2.9710196017947950  0.0000000000000000  0.0000000000000000
-1.4855098008973975  2.5729784502893551  0.0000000000000000
0.0000000000000000  0.0000000000000000  34.0250087449629888
Cr  N  Te
3  2  2
Selective  dynamics
Direct
0.0000000000000000  -0.0000000000000000  0.0609816995741431  T  T  T
-0.0000000000000000  -0.0000000000000000  0.1326231656927769  T  T  T
0.0000000000000000  -0.0000000000000000  0.2042646318114157  T  T  T
0.3333333333333357  0.6666666666666643  0.0946862682670922  T  T  T
0.3333333333333357  0.6666666666666643  0.1705600631184664  T  T  T
0.6666666666666643  0.3333333333333357  0.0000000000000000  T  T  T
0.6666666666666643  0.3333333333333357  0.2652463313855588  T  T  T

0.00000000E+00  0.00000000E+00  0.00000000E+00
0.00000000E+00  0.00000000E+00  0.00000000E+00
0.00000000E+00  0.00000000E+00  0.00000000E+00
0.00000000E+00  0.00000000E+00  0.00000000E+00
0.00000000E+00  0.00000000E+00  0.00000000E+00
0.00000000E+00  0.00000000E+00  0.00000000E+00
0.00000000E+00  0.00000000E+00  0.00000000E+00
