Sc3C2  (n=2)
1.00000000000000
3.3316651436909570  0.0000000000000000  0.0000000000000000
-1.6658325718454785  2.8853066515791363  0.0000000000000000
0.0000000000000000  0.0000000000000000  35.4183691912840288
Sc  C  Te
3  2  2
Selective  dynamics
Direct
-0.0000000000000000  -0.0000000000000000  0.0697804434040600  T  T  T
-0.0000000000000000  0.0000000000000000  0.1470757890491407  T  T  T
-0.0000000000000000  -0.0000000000000000  0.2243711346942293  T  T  T
0.3333333333333357  0.6666666666666643  0.1031655994943392  T  T  T
0.3333333333333357  0.6666666666666643  0.1909859786039344  T  T  T
0.6666666666666643  0.3333333333333357  0.0000000000000000  T  T  T
0.6666666666666643  0.3333333333333357  0.2941515780982893  T  T  T

0.00000000E+00  0.00000000E+00  0.00000000E+00
0.00000000E+00  0.00000000E+00  0.00000000E+00
0.00000000E+00  0.00000000E+00  0.00000000E+00
0.00000000E+00  0.00000000E+00  0.00000000E+00
0.00000000E+00  0.00000000E+00  0.00000000E+00
0.00000000E+00  0.00000000E+00  0.00000000E+00
0.00000000E+00  0.00000000E+00  0.00000000E+00
