Nb3N2  (n=2)
1.00000000000000
3.1061549481271786  0.0000000000000000  0.0000000000000000
-1.5530774740635893  2.6900090934153713  0.0000000000000000
0.0000000000000000  0.0000000000000000  35.2497111584124596
Nb  N  Te
3  2  2
Selective  dynamics
Direct
0.0000000000000000  -0.0000000000000000  0.0640313293472350  T  T  T
0.0000000000000000  -0.0000000000000000  0.1453871651933533  T  T  T
0.0000000000000000  -0.0000000000000000  0.2267430010394787  T  T  T
0.3333333333333357  0.6666666666666643  0.1057476497104376  T  T  T
0.3333333333333357  0.6666666666666643  0.1850266806762690  T  T  T
0.6666666666666643  0.3333333333333357  0.0000000000000000  T  T  T
0.6666666666666643  0.3333333333333357  0.2907743303867139  T  T  T

0.00000000E+00  0.00000000E+00  0.00000000E+00
0.00000000E+00  0.00000000E+00  0.00000000E+00
0.00000000E+00  0.00000000E+00  0.00000000E+00
0.00000000E+00  0.00000000E+00  0.00000000E+00
0.00000000E+00  0.00000000E+00  0.00000000E+00
0.00000000E+00  0.00000000E+00  0.00000000E+00
0.00000000E+00  0.00000000E+00  0.00000000E+00
