Cr3C2  (n=2)
1.00000000000000
3.0636863107257590  0.0000000000000002  0.0000000000000000
-1.5318431553628793  2.6532301742735473  0.0000000000000000
0.0000000000000000  0.0000000000000000  34.1424296395713185
Cr  C  Te
3  2  2
Selective  dynamics
Direct
0.0000000000000000  0.0000000000000000  0.0632941280008751  T  T  T
0.0000000000000000  -0.0000000000000000  0.1338866292774779  T  T  T
0.0000000000000000  -0.0000000000000000  0.2044791305540854  T  T  T
0.3333333333333357  0.6666666666666643  0.0957497925362948  T  T  T
0.3333333333333357  0.6666666666666643  0.1720234660186515  T  T  T
0.6666666666666643  0.3333333333333357  0.0000000000000000  T  T  T
0.6666666666666643  0.3333333333333357  0.2677732585549558  T  T  T

0.00000000E+00  0.00000000E+00  0.00000000E+00
0.00000000E+00  0.00000000E+00  0.00000000E+00
0.00000000E+00  0.00000000E+00  0.00000000E+00
0.00000000E+00  0.00000000E+00  0.00000000E+00
0.00000000E+00  0.00000000E+00  0.00000000E+00
0.00000000E+00  0.00000000E+00  0.00000000E+00
0.00000000E+00  0.00000000E+00  0.00000000E+00
