Ta3C2  (n=2)
1.00000000000000
3.1556138627421872  0.0000000000000001  -0.0000000000000000
-1.5778069313710932  2.7328417699809857  0.0000000000000000
0.0000000000000000  0.0000000000000000  35.2099846984221472
Ta  C  Te
3  2  2
Selective  dynamics
Direct
0.0000000000000000  0.0000000000000000  0.0648000460507425  T  T  T
0.0000000000000000  0.0000000000000000  0.1449870652582205  T  T  T
0.0000000000000000  0.0000000000000000  0.2251740844656986  T  T  T
0.3333333333333357  0.6666666666666643  0.1029708971777984  T  T  T
0.3333333333333357  0.6666666666666643  0.1870032333386357  T  T  T
0.6666666666666643  0.3333333333333357  0.0000000000000000  T  T  T
0.6666666666666643  0.3333333333333357  0.2899741305164408  T  T  T

0.00000000E+00  0.00000000E+00  0.00000000E+00
0.00000000E+00  0.00000000E+00  0.00000000E+00
0.00000000E+00  0.00000000E+00  0.00000000E+00
0.00000000E+00  0.00000000E+00  0.00000000E+00
0.00000000E+00  0.00000000E+00  0.00000000E+00
0.00000000E+00  0.00000000E+00  0.00000000E+00
0.00000000E+00  0.00000000E+00  0.00000000E+00
