Ti3N2  (n=2)
1.00000000000000
3.1475305969453817  0.0000000000000000  -0.0000000000000000
-1.5737652984726909  2.7258414561875286  0.0000000000000000
-0.0000000000000000  0.0000000000000000  34.4039815354679988
Ti  N  Te
3  2  2
Selective  dynamics
Direct
0.0000000000000000  0.0000000000000000  0.0616425671047299  T  T  T
0.0000000000000000  0.0000000000000000  0.1366699596349507  T  T  T
0.0000000000000000  0.0000000000000000  0.2116973521651797  T  T  T
0.3333333333333357  0.6666666666666643  0.0962939894836610  T  T  T
0.3333333333333357  0.6666666666666643  0.1770459297862401  T  T  T
0.6666666666666643  0.3333333333333357  0.0000000000000000  T  T  T
0.6666666666666643  0.3333333333333357  0.2733399192699013  T  T  T

0.00000000E+00  0.00000000E+00  0.00000000E+00
0.00000000E+00  0.00000000E+00  0.00000000E+00
0.00000000E+00  0.00000000E+00  0.00000000E+00
0.00000000E+00  0.00000000E+00  0.00000000E+00
0.00000000E+00  0.00000000E+00  0.00000000E+00
0.00000000E+00  0.00000000E+00  0.00000000E+00
0.00000000E+00  0.00000000E+00  0.00000000E+00
