Hf3N2  (n=2)
1.00000000000000
3.2479983847849869  0.0000000000000000  0.0000000000000000
-1.6239991923924935  2.8128491128083613  0.0000000000000000
0.0000000000000000  0.0000000000000000  35.1670206213964320
Hf  N  Te
3  2  2
Selective  dynamics
Direct
0.0000000000000000  -0.0000000000000000  0.0633145310657262  T  T  T
0.0000000000000000  -0.0000000000000000  0.1445533406263350  T  T  T
0.0000000000000000  -0.0000000000000000  0.2257921501869609  T  T  T
0.3333333333333357  0.6666666666666643  0.1021234375037908  T  T  T
0.3333333333333357  0.6666666666666643  0.1869832437488963  T  T  T
0.6666666666666643  0.3333333333333357  0.0000000000000000  T  T  T
0.6666666666666643  0.3333333333333357  0.2891066812526785  T  T  T

0.00000000E+00  0.00000000E+00  0.00000000E+00
0.00000000E+00  0.00000000E+00  0.00000000E+00
0.00000000E+00  0.00000000E+00  0.00000000E+00
0.00000000E+00  0.00000000E+00  0.00000000E+00
0.00000000E+00  0.00000000E+00  0.00000000E+00
0.00000000E+00  0.00000000E+00  0.00000000E+00
0.00000000E+00  0.00000000E+00  0.00000000E+00
