Hf3C2  (n=2)
1.00000000000000
3.3782376772901026  0.0000000000000000  0.0000000000000000
-1.6891188386450513  2.9256396491348684  0.0000000000000000
0.0000000000000000  0.0000000000000000  34.9926764990257553
Hf  C  Te
3  2  2
Selective  dynamics
Direct
-0.0000000000000000  0.0000000000000000  0.0627746418295402  T  T  T
-0.0000000000000000  0.0000000000000000  0.1427823976154512  T  T  T
-0.0000000000000000  0.0000000000000000  0.2227901534013696  T  T  T
0.3333333333333357  0.6666666666666643  0.0988805263889041  T  T  T
0.3333333333333357  0.6666666666666643  0.1866842688419983  T  T  T
0.6666666666666643  0.3333333333333357  0.0000000000000000  T  T  T
0.6666666666666643  0.3333333333333357  0.2855647952309097  T  T  T

0.00000000E+00  0.00000000E+00  0.00000000E+00
0.00000000E+00  0.00000000E+00  0.00000000E+00
0.00000000E+00  0.00000000E+00  0.00000000E+00
0.00000000E+00  0.00000000E+00  0.00000000E+00
0.00000000E+00  0.00000000E+00  0.00000000E+00
0.00000000E+00  0.00000000E+00  0.00000000E+00
0.00000000E+00  0.00000000E+00  0.00000000E+00
