Zr3N2  (n=2)
1.00000000000000
3.3617447898835784  -0.0000000000000000  -0.0000000000000000
-1.6808723949417892  2.9113563894674064  -0.0000000000000000
-0.0000000000000000  -0.0000000000000000  34.9845735141282077
Zr  N  Te
3  2  2
Selective  dynamics
Direct
-0.0000000000000000  -0.0000000000000000  0.0612773600705329  T  T  T
-0.0000000000000000  0.0000000000000000  0.1426996603245110  T  T  T
-0.0000000000000000  0.0000000000000000  0.2241219605784964  T  T  T
0.3333333333333357  0.6666666666666643  0.1002477300921183  T  T  T
0.3333333333333357  0.6666666666666643  0.1851515905569036  T  T  T
0.6666666666666643  0.3333333333333357  0.0000000000000000  T  T  T
0.6666666666666643  0.3333333333333357  0.2853993206490291  T  T  T

0.00000000E+00  0.00000000E+00  0.00000000E+00
0.00000000E+00  0.00000000E+00  0.00000000E+00
0.00000000E+00  0.00000000E+00  0.00000000E+00
0.00000000E+00  0.00000000E+00  0.00000000E+00
0.00000000E+00  0.00000000E+00  0.00000000E+00
0.00000000E+00  0.00000000E+00  0.00000000E+00
0.00000000E+00  0.00000000E+00  0.00000000E+00
