Ti3C2  (n=2)
1.00000000000000
3.2080684121407441  0.0000000000000000  0.0000000000000000
-1.6040342060703721  2.7782687422364707  0.0000000000000000
0.0000000000000000  0.0000000000000000  34.4811168172127296
Ti  C  Te
3  2  2
Selective  dynamics
Direct
-0.0000000000000000  0.0000000000000000  0.0636278719065831  T  T  T
-0.0000000000000000  0.0000000000000000  0.1374827397191471  T  T  T
-0.0000000000000000  0.0000000000000000  0.2113376075317112  T  T  T
0.3333333333333357  0.6666666666666643  0.0962274663521773  T  T  T
0.3333333333333357  0.6666666666666643  0.1787380130861096  T  T  T
0.6666666666666643  0.3333333333333357  0.0000000000000000  T  T  T
0.6666666666666643  0.3333333333333357  0.2749654794382942  T  T  T

0.00000000E+00  0.00000000E+00  0.00000000E+00
0.00000000E+00  0.00000000E+00  0.00000000E+00
0.00000000E+00  0.00000000E+00  0.00000000E+00
0.00000000E+00  0.00000000E+00  0.00000000E+00
0.00000000E+00  0.00000000E+00  0.00000000E+00
0.00000000E+00  0.00000000E+00  0.00000000E+00
0.00000000E+00  0.00000000E+00  0.00000000E+00
