Mo3N2  (n=2)
1.00000000000000
3.0692911259922413  0.0000000000000000  0.0000000000000000
-1.5346455629961206  2.6580840867856144  0.0000000000000000
0.0000000000000000  0.0000000000000000  34.7166727543060389
Mo  N  Te
3  2  2
Selective  dynamics
Direct
0.0000000000000000  -0.0000000000000000  0.0607741390656804  T  T  T
0.0000000000000000  -0.0000000000000000  0.1399424539193571  T  T  T
0.0000000000000000  -0.0000000000000000  0.2191107687730422  T  T  T
0.3333333333333357  0.6666666666666643  0.1012951962490694  T  T  T
0.3333333333333357  0.6666666666666643  0.1785897115896449  T  T  T
0.6666666666666643  0.3333333333333357  0.0000000000000000  T  T  T
0.6666666666666643  0.3333333333333357  0.2798849078387226  T  T  T

0.00000000E+00  0.00000000E+00  0.00000000E+00
0.00000000E+00  0.00000000E+00  0.00000000E+00
0.00000000E+00  0.00000000E+00  0.00000000E+00
0.00000000E+00  0.00000000E+00  0.00000000E+00
0.00000000E+00  0.00000000E+00  0.00000000E+00
0.00000000E+00  0.00000000E+00  0.00000000E+00
0.00000000E+00  0.00000000E+00  0.00000000E+00
