Nb3C2  (n=2)
1.00000000000000
3.1492430454378821  0.0000000000000000  0.0000000000000000
-1.5746215227189408  2.7273244803318932  0.0000000000000000
0.0000000000000000  0.0000000000000000  35.3850456701050149
Nb  C  Te
3  2  2
Selective  dynamics
Direct
-0.0000000000000000  0.0000000000000000  0.0665594027734669  T  T  T
-0.0000000000000000  0.0000000000000000  0.1467434261202475  T  T  T
-0.0000000000000000  0.0000000000000000  0.2269274494670210  T  T  T
0.3333333333333357  0.6666666666666643  0.1048595578350526  T  T  T
0.3333333333333357  0.6666666666666643  0.1886272944054350  T  T  T
0.6666666666666643  0.3333333333333357  0.0000000000000000  T  T  T
0.6666666666666643  0.3333333333333357  0.2934868522404876  T  T  T

0.00000000E+00  0.00000000E+00  0.00000000E+00
0.00000000E+00  0.00000000E+00  0.00000000E+00
0.00000000E+00  0.00000000E+00  0.00000000E+00
0.00000000E+00  0.00000000E+00  0.00000000E+00
0.00000000E+00  0.00000000E+00  0.00000000E+00
0.00000000E+00  0.00000000E+00  0.00000000E+00
0.00000000E+00  0.00000000E+00  0.00000000E+00
