Zr3C2  (n=2)
1.00000000000000
3.4074939675447902  0.0000000000000001  0.0000000000000000
-1.7037469837723951  2.9509763397462803  0.0000000000000000
0.0000000000000000  0.0000000000000000  35.1689418739945907
Zr  C  Te
3  2  2
Selective  dynamics
Direct
0.0000000000000000  0.0000000000000000  0.0639018266514932  T  T  T
0.0000000000000000  0.0000000000000000  0.1445727584075208  T  T  T
0.0000000000000000  0.0000000000000000  0.2252436901635558  T  T  T
0.3333333333333357  0.6666666666666643  0.1002426799870134  T  T  T
0.3333333333333357  0.6666666666666643  0.1889028368280284  T  T  T
0.6666666666666643  0.3333333333333357  0.0000000000000000  T  T  T
0.6666666666666643  0.3333333333333357  0.2891455168150491  T  T  T

0.00000000E+00  0.00000000E+00  0.00000000E+00
0.00000000E+00  0.00000000E+00  0.00000000E+00
0.00000000E+00  0.00000000E+00  0.00000000E+00
0.00000000E+00  0.00000000E+00  0.00000000E+00
0.00000000E+00  0.00000000E+00  0.00000000E+00
0.00000000E+00  0.00000000E+00  0.00000000E+00
0.00000000E+00  0.00000000E+00  0.00000000E+00
