Sc3N2  (n=2)
1.00000000000000
3.2681020401543233  0.0000000000000000  0.0000000000000000
-1.6340510200771616  2.8302593890626597  0.0000000000000000
0.0000000000000000  0.0000000000000000  35.0292508690353870
Sc  N  Te
3  2  2
Selective  dynamics
Direct
-0.0000000000000000  -0.0000000000000000  0.0658794786611361  T  T  T
-0.0000000000000000  -0.0000000000000000  0.1431553718709497  T  T  T
-0.0000000000000000  -0.0000000000000000  0.2204312650807716  T  T  T
0.3333333333333357  0.6666666666666643  0.1006758224749718  T  T  T
0.3333333333333357  0.6666666666666643  0.1856349212669359  T  T  T
0.6666666666666643  0.3333333333333357  0.0000000000000000  T  T  T
0.6666666666666643  0.3333333333333357  0.2863107437419077  T  T  T

0.00000000E+00  0.00000000E+00  0.00000000E+00
0.00000000E+00  0.00000000E+00  0.00000000E+00
0.00000000E+00  0.00000000E+00  0.00000000E+00
0.00000000E+00  0.00000000E+00  0.00000000E+00
0.00000000E+00  0.00000000E+00  0.00000000E+00
0.00000000E+00  0.00000000E+00  0.00000000E+00
0.00000000E+00  0.00000000E+00  0.00000000E+00
