Ti4C3  (n=3)
1.00000000000000
3.3016056505344209  -0.0000000000000001  0.0000000000000000
-1.6508028252672104  2.8592743667604830  0.0000000000000000
0.0000000000000002  -0.0000000000000008  35.9759262463329677
Ti  C  I
4  3  2
Selective  dynamics
Direct
0.0000000000000000  0.0000000000000000  0.0578354755627770  T  T  T
0.6666666666666643  0.3333333333333357  0.1209319006736405  T  T  T
0.3333333333333357  0.6666666666666643  0.1841589584519602  T  T  T
-0.0000000000000000  -0.0000000000000000  0.2472553835628071  T  T  T
0.3333333333333357  0.6666666666666643  0.0841823428446762  T  T  T
-0.0000000000000000  -0.0000000000000000  0.1525454295628003  T  T  T
0.6666666666666643  0.3333333333333357  0.2209085162809160  T  T  T
0.6666666666666643  0.3333333333333357  0.0000000000000000  T  T  T
0.3333333333333357  0.6666666666666643  0.3050908591256005  T  T  T

0.00000000E+00  0.00000000E+00  0.00000000E+00
0.00000000E+00  0.00000000E+00  0.00000000E+00
0.00000000E+00  0.00000000E+00  0.00000000E+00
0.00000000E+00  0.00000000E+00  0.00000000E+00
0.00000000E+00  0.00000000E+00  0.00000000E+00
0.00000000E+00  0.00000000E+00  0.00000000E+00
0.00000000E+00  0.00000000E+00  0.00000000E+00
0.00000000E+00  0.00000000E+00  0.00000000E+00
0.00000000E+00  0.00000000E+00  0.00000000E+00
