Mo4C3  (n=3)
1.00000000000000
3.2706647573127556  -0.0000000000000001  0.0000000000000000
-1.6353323786563778  2.8324787673187743  -0.0000000000000000
-0.0000000000000002  -0.0000000000000008  36.5231417224407764
Mo  C  I
4  3  2
Selective  dynamics
Direct
-0.0000000000000000  -0.0000000000000000  0.0646310571251400  T  T  T
0.6666666666666643  0.3333333333333357  0.1228350539968686  T  T  T
0.3333333333333357  0.6666666666666643  0.1926674241308727  T  T  T
0.0000000000000000  0.0000000000000000  0.2508714210025939  T  T  T
0.3333333333333357  0.6666666666666643  0.0883321802099547  T  T  T
0.0000000000000000  0.0000000000000000  0.1577512390638669  T  T  T
0.6666666666666643  0.3333333333333357  0.2271702979177792  T  T  T
0.6666666666666643  0.3333333333333357  0.0000000000000000  T  T  T
0.3333333333333357  0.6666666666666643  0.3155024781277415  T  T  T

0.00000000E+00  0.00000000E+00  0.00000000E+00
0.00000000E+00  0.00000000E+00  0.00000000E+00
0.00000000E+00  0.00000000E+00  0.00000000E+00
0.00000000E+00  0.00000000E+00  0.00000000E+00
0.00000000E+00  0.00000000E+00  0.00000000E+00
0.00000000E+00  0.00000000E+00  0.00000000E+00
0.00000000E+00  0.00000000E+00  0.00000000E+00
0.00000000E+00  0.00000000E+00  0.00000000E+00
0.00000000E+00  0.00000000E+00  0.00000000E+00
