Sc4C3  (n=3)
1.00000000000000
3.4722548709553593  0.0000000000000003  0.0000000000000000
-1.7361274354776797  3.0070609271883124  -0.0000000000000003
0.0000000000000014  -0.0000000000000028  37.0506580737381341
Sc  C  I
4  3  2
Selective  dynamics
Direct
-0.0000000000000000  -0.0000000000000000  0.0601825906475251  T  T  T
0.6666666666666643  0.3333333333333357  0.1268794154307026  T  T  T
0.3333333333333357  0.6666666666666643  0.1983687367007716  T  T  T
0.0000000000000000  0.0000000000000000  0.2650655614839492  T  T  T
0.3333333333333357  0.6666666666666643  0.0894789911902131  T  T  T
-0.0000000000000000  -0.0000000000000000  0.1626240760657372  T  T  T
0.6666666666666643  0.3333333333333357  0.2357691609412537  T  T  T
0.6666666666666643  0.3333333333333357  0.0000000000000000  T  T  T
0.3333333333333357  0.6666666666666643  0.3252481521314667  T  T  T

0.00000000E+00  0.00000000E+00  0.00000000E+00
0.00000000E+00  0.00000000E+00  0.00000000E+00
0.00000000E+00  0.00000000E+00  0.00000000E+00
0.00000000E+00  0.00000000E+00  0.00000000E+00
0.00000000E+00  0.00000000E+00  0.00000000E+00
0.00000000E+00  0.00000000E+00  0.00000000E+00
0.00000000E+00  0.00000000E+00  0.00000000E+00
0.00000000E+00  0.00000000E+00  0.00000000E+00
0.00000000E+00  0.00000000E+00  0.00000000E+00
