Cr4N3  (n=3)
1.00000000000000
3.1953668016671584  -0.0000000000000002  0.0000000000000003
-1.5976834008335790  2.7672688246763357  -0.0000000000000002
0.0000000000000029  -0.0000000000000003  35.4042024301730720
Cr  N  I
4  3  2
Selective  dynamics
Direct
-0.0000000000000000  -0.0000000000000000  0.0591245505529661  T  T  T
0.6666666666666643  0.3333333333333357  0.1143533379213009  T  T  T
0.3333333333333357  0.6666666666666643  0.1795157995262457  T  T  T
0.0000000000000000  0.0000000000000000  0.2347445868945805  T  T  T
0.3333333333333357  0.6666666666666643  0.0819874279469924  T  T  T
-0.0000000000000000  -0.0000000000000000  0.1469345687237764  T  T  T
0.6666666666666643  0.3333333333333357  0.2118817095005481  T  T  T
0.6666666666666643  0.3333333333333357  0.0000000000000000  T  T  T
0.3333333333333357  0.6666666666666643  0.2938691374475405  T  T  T

0.00000000E+00  0.00000000E+00  0.00000000E+00
0.00000000E+00  0.00000000E+00  0.00000000E+00
0.00000000E+00  0.00000000E+00  0.00000000E+00
0.00000000E+00  0.00000000E+00  0.00000000E+00
0.00000000E+00  0.00000000E+00  0.00000000E+00
0.00000000E+00  0.00000000E+00  0.00000000E+00
0.00000000E+00  0.00000000E+00  0.00000000E+00
0.00000000E+00  0.00000000E+00  0.00000000E+00
0.00000000E+00  0.00000000E+00  0.00000000E+00
