Hf4C3  (n=3)
1.00000000000000
3.4623628807089259  0.0000000000000000  0.0000000000000000
-1.7311814403544630  2.9984942121194393  -0.0000000000000001
-0.0000000000000004  0.0000000000000014  36.7892509093486666
Hf  C  I
4  3  2
Selective  dynamics
Direct
0.0000000000000000  0.0000000000000000  0.0591880862164334  T  T  T
0.6666666666666643  0.3333333333333357  0.1266559598020526  T  T  T
0.3333333333333357  0.6666666666666643  0.1937977221279822  T  T  T
0.0000000000000000  0.0000000000000000  0.2612655957136014  T  T  T
0.3333333333333357  0.6666666666666643  0.0874417283333592  T  T  T
0.0000000000000000  0.0000000000000000  0.1602268409650174  T  T  T
0.6666666666666643  0.3333333333333357  0.2330119535966756  T  T  T
0.6666666666666643  0.3333333333333357  0.0000000000000000  T  T  T
0.3333333333333357  0.6666666666666643  0.3204536819300350  T  T  T

0.00000000E+00  0.00000000E+00  0.00000000E+00
0.00000000E+00  0.00000000E+00  0.00000000E+00
0.00000000E+00  0.00000000E+00  0.00000000E+00
0.00000000E+00  0.00000000E+00  0.00000000E+00
0.00000000E+00  0.00000000E+00  0.00000000E+00
0.00000000E+00  0.00000000E+00  0.00000000E+00
0.00000000E+00  0.00000000E+00  0.00000000E+00
0.00000000E+00  0.00000000E+00  0.00000000E+00
0.00000000E+00  0.00000000E+00  0.00000000E+00
