Sc4N3  (n=3)
1.00000000000000
3.4085453610713570  -0.0000000000000001  0.0000000000000000
-1.7042726805356785  2.9518868728219219  0.0000000000000000
-0.0000000000000002  -0.0000000000000004  36.5683436340619181
Sc  N  I
4  3  2
Selective  dynamics
Direct
0.0000000000000000  0.0000000000000000  0.0583715394881277  T  T  T
0.6666666666666643  0.3333333333333357  0.1250185405393471  T  T  T
0.3333333333333357  0.6666666666666643  0.1913300408956042  T  T  T
-0.0000000000000000  -0.0000000000000000  0.2579770419468318  T  T  T
0.3333333333333357  0.6666666666666643  0.0867070720268540  T  T  T
0.0000000000000000  0.0000000000000000  0.1581742907174756  T  T  T
0.6666666666666643  0.3333333333333357  0.2296415094080972  T  T  T
0.6666666666666643  0.3333333333333357  0.0000000000000000  T  T  T
0.3333333333333357  0.6666666666666643  0.3163485814349677  T  T  T

0.00000000E+00  0.00000000E+00  0.00000000E+00
0.00000000E+00  0.00000000E+00  0.00000000E+00
0.00000000E+00  0.00000000E+00  0.00000000E+00
0.00000000E+00  0.00000000E+00  0.00000000E+00
0.00000000E+00  0.00000000E+00  0.00000000E+00
0.00000000E+00  0.00000000E+00  0.00000000E+00
0.00000000E+00  0.00000000E+00  0.00000000E+00
0.00000000E+00  0.00000000E+00  0.00000000E+00
0.00000000E+00  0.00000000E+00  0.00000000E+00
