Zr4N3  (n=3)
1.00000000000000
3.4477220316841701  -0.0000000000000001  0.0000000000000000
-1.7238610158420853  2.9858148651291052  0.0000000000000000
-0.0000000000000005  -0.0000000000000007  36.7757783131339835
Zr  N  I
4  3  2
Selective  dynamics
Direct
0.0000000000000000  0.0000000000000000  0.0598358917406101  T  T  T
0.6666666666666643  0.3333333333333357  0.1250488684225286  T  T  T
0.3333333333333357  0.6666666666666643  0.1951558655974288  T  T  T
0.0000000000000000  0.0000000000000000  0.2603688422793473  T  T  T
0.3333333333333357  0.6666666666666643  0.0906175781804049  T  T  T
0.0000000000000000  0.0000000000000000  0.1601023670099825  T  T  T
0.6666666666666643  0.3333333333333357  0.2295871558395526  T  T  T
0.6666666666666643  0.3333333333333357  0.0000000000000000  T  T  T
0.3333333333333357  0.6666666666666643  0.3202047340199574  T  T  T

0.00000000E+00  0.00000000E+00  0.00000000E+00
0.00000000E+00  0.00000000E+00  0.00000000E+00
0.00000000E+00  0.00000000E+00  0.00000000E+00
0.00000000E+00  0.00000000E+00  0.00000000E+00
0.00000000E+00  0.00000000E+00  0.00000000E+00
0.00000000E+00  0.00000000E+00  0.00000000E+00
0.00000000E+00  0.00000000E+00  0.00000000E+00
0.00000000E+00  0.00000000E+00  0.00000000E+00
0.00000000E+00  0.00000000E+00  0.00000000E+00
