Hf4N3  (n=3)
1.00000000000000
3.3973143248978670  -0.0000000000000003  0.0000000000000000
-1.6986571624489331  2.9421605105309716  -0.0000000000000001
0.0000000000000002  -0.0000000000000012  36.5973892243185333
Hf  N  I
4  3  2
Selective  dynamics
Direct
-0.0000000000000000  0.0000000000000000  0.0594819861907805  T  T  T
0.6666666666666643  0.3333333333333357  0.1237730190058332  T  T  T
0.3333333333333357  0.6666666666666643  0.1931181437280431  T  T  T
0.0000000000000000  -0.0000000000000000  0.2574091765430958  T  T  T
0.3333333333333357  0.6666666666666643  0.0900487068450215  T  T  T
-0.0000000000000000  -0.0000000000000000  0.1584455813669382  T  T  T
0.6666666666666643  0.3333333333333357  0.2268424558888472  T  T  T
0.6666666666666643  0.3333333333333357  0.0000000000000000  T  T  T
0.3333333333333357  0.6666666666666643  0.3168911627338763  T  T  T

0.00000000E+00  0.00000000E+00  0.00000000E+00
0.00000000E+00  0.00000000E+00  0.00000000E+00
0.00000000E+00  0.00000000E+00  0.00000000E+00
0.00000000E+00  0.00000000E+00  0.00000000E+00
0.00000000E+00  0.00000000E+00  0.00000000E+00
0.00000000E+00  0.00000000E+00  0.00000000E+00
0.00000000E+00  0.00000000E+00  0.00000000E+00
0.00000000E+00  0.00000000E+00  0.00000000E+00
0.00000000E+00  0.00000000E+00  0.00000000E+00
