Zr4C3  (n=3)
1.00000000000000
3.4840777553817435  0.0000000000000000  0.0000000000000000
-1.7420388776908717  3.0172998451910660  0.0000000000000000
0.0000000000000000  0.0000000000000004  37.1450229374791689
Zr  C  I
4  3  2
Selective  dynamics
Direct
0.0000000000000000  0.0000000000000000  0.0599479558617372  T  T  T
0.6666666666666643  0.3333333333333357  0.1290920261437148  T  T  T
0.3333333333333357  0.6666666666666643  0.1978702955089363  T  T  T
-0.0000000000000000  -0.0000000000000000  0.2670143657909140  T  T  T
0.3333333333333357  0.6666666666666643  0.0893116664513366  T  T  T
-0.0000000000000000  -0.0000000000000000  0.1634811608263298  T  T  T
0.6666666666666643  0.3333333333333357  0.2376506552013146  T  T  T
0.6666666666666643  0.3333333333333357  0.0000000000000000  T  T  T
0.3333333333333357  0.6666666666666643  0.3269623216526512  T  T  T

0.00000000E+00  0.00000000E+00  0.00000000E+00
0.00000000E+00  0.00000000E+00  0.00000000E+00
0.00000000E+00  0.00000000E+00  0.00000000E+00
0.00000000E+00  0.00000000E+00  0.00000000E+00
0.00000000E+00  0.00000000E+00  0.00000000E+00
0.00000000E+00  0.00000000E+00  0.00000000E+00
0.00000000E+00  0.00000000E+00  0.00000000E+00
0.00000000E+00  0.00000000E+00  0.00000000E+00
0.00000000E+00  0.00000000E+00  0.00000000E+00
