Ta4C3  (n=3)
1.00000000000000
3.2927325154235523  0.0000000000000000  0.0000000000000000
-1.6463662577117761  2.8515900063653206  0.0000000000000000
0.0000000000000000  -0.0000000000000005  36.7880055582620997
Ta  C  I
4  3  2
Selective  dynamics
Direct
0.0000000000000000  0.0000000000000000  0.0607550900471861  T  T  T
0.6666666666666643  0.3333333333333357  0.1249612084624212  T  T  T
0.3333333333333357  0.6666666666666643  0.1954694694005887  T  T  T
-0.0000000000000000  -0.0000000000000000  0.2596755878158238  T  T  T
0.3333333333333357  0.6666666666666643  0.0905846599821172  T  T  T
-0.0000000000000000  -0.0000000000000000  0.1602153389315049  T  T  T
0.6666666666666643  0.3333333333333357  0.2298460178808926  T  T  T
0.6666666666666643  0.3333333333333357  0.0000000000000000  T  T  T
0.3333333333333357  0.6666666666666643  0.3204306778630099  T  T  T

0.00000000E+00  0.00000000E+00  0.00000000E+00
0.00000000E+00  0.00000000E+00  0.00000000E+00
0.00000000E+00  0.00000000E+00  0.00000000E+00
0.00000000E+00  0.00000000E+00  0.00000000E+00
0.00000000E+00  0.00000000E+00  0.00000000E+00
0.00000000E+00  0.00000000E+00  0.00000000E+00
0.00000000E+00  0.00000000E+00  0.00000000E+00
0.00000000E+00  0.00000000E+00  0.00000000E+00
0.00000000E+00  0.00000000E+00  0.00000000E+00
