Ta4N3  (n=3)
1.00000000000000
3.3768461148569746  0.0000000000000000  0.0000000000000000
-1.6884230574284875  2.9244345202394517  0.0000000000000000
-0.0000000000000004  0.0000000000000003  36.0840804220589249
Ta  N  I
4  3  2
Selective  dynamics
Direct
0.0000000000000000  -0.0000000000000000  0.0611629842478799  T  T  T
0.6666666666666643  0.3333333333333357  0.1187830906870705  T  T  T
0.3333333333333357  0.6666666666666643  0.1883906073097615  T  T  T
0.0000000000000000  0.0000000000000000  0.2460107137489461  T  T  T
0.3333333333333357  0.6666666666666643  0.0871955003963665  T  T  T
-0.0000000000000000  -0.0000000000000000  0.1535868489984191  T  T  T
0.6666666666666643  0.3333333333333357  0.2199781976004655  T  T  T
0.6666666666666643  0.3333333333333357  0.0000000000000000  T  T  T
0.3333333333333357  0.6666666666666643  0.3071736979968320  T  T  T

0.00000000E+00  0.00000000E+00  0.00000000E+00
0.00000000E+00  0.00000000E+00  0.00000000E+00
0.00000000E+00  0.00000000E+00  0.00000000E+00
0.00000000E+00  0.00000000E+00  0.00000000E+00
0.00000000E+00  0.00000000E+00  0.00000000E+00
0.00000000E+00  0.00000000E+00  0.00000000E+00
0.00000000E+00  0.00000000E+00  0.00000000E+00
0.00000000E+00  0.00000000E+00  0.00000000E+00
0.00000000E+00  0.00000000E+00  0.00000000E+00
