Cr4C3  (n=3)
1.00000000000000
3.2046531639093092  0.0000000000000000  0.0000000000000000
-1.6023265819546546  2.7753110502575224  0.0000000000000001
-0.0000000000000001  0.0000000000000008  35.3506290943014747
Cr  C  I
4  3  2
Selective  dynamics
Direct
-0.0000000000000000  -0.0000000000000000  0.0610818263357899  T  T  T
0.6666666666666643  0.3333333333333357  0.1185473732401146  T  T  T
0.3333333333333357  0.6666666666666643  0.1742516337221122  T  T  T
0.0000000000000000  0.0000000000000000  0.2317171806264369  T  T  T
0.3333333333333357  0.6666666666666643  0.0826296850037979  T  T  T
-0.0000000000000000  -0.0000000000000000  0.1463995034811134  T  T  T
0.6666666666666643  0.3333333333333357  0.2101693219584204  T  T  T
0.6666666666666643  0.3333333333333357  0.0000000000000000  T  T  T
0.3333333333333357  0.6666666666666643  0.2927990069622268  T  T  T

0.00000000E+00  0.00000000E+00  0.00000000E+00
0.00000000E+00  0.00000000E+00  0.00000000E+00
0.00000000E+00  0.00000000E+00  0.00000000E+00
0.00000000E+00  0.00000000E+00  0.00000000E+00
0.00000000E+00  0.00000000E+00  0.00000000E+00
0.00000000E+00  0.00000000E+00  0.00000000E+00
0.00000000E+00  0.00000000E+00  0.00000000E+00
0.00000000E+00  0.00000000E+00  0.00000000E+00
0.00000000E+00  0.00000000E+00  0.00000000E+00
