Mo4N3  (n=3)
1.00000000000000
3.3578751479055211  0.0000000000000000  -0.0000000000000001
-1.6789375739527608  2.9080051810029790  0.0000000000000000
-0.0000000000000017  0.0000000000000001  35.7810021064961461
Mo  N  I
4  3  2
Selective  dynamics
Direct
-0.0000000000000000  -0.0000000000000000  0.0615939176965032  T  T  T
0.6666666666666643  0.3333333333333357  0.1168692031808213  T  T  T
0.3333333333333357  0.6666666666666643  0.1844359999101395  T  T  T
0.0000000000000000  0.0000000000000000  0.2397112853944639  T  T  T
0.3333333333333357  0.6666666666666643  0.0794832908680399  T  T  T
0.0000000000000000  0.0000000000000000  0.1506526015454866  T  T  T
0.6666666666666643  0.3333333333333357  0.2218219122229150  T  T  T
0.6666666666666643  0.3333333333333357  0.0000000000000000  T  T  T
0.3333333333333357  0.6666666666666643  0.3013052030909671  T  T  T

0.00000000E+00  0.00000000E+00  0.00000000E+00
0.00000000E+00  0.00000000E+00  0.00000000E+00
0.00000000E+00  0.00000000E+00  0.00000000E+00
0.00000000E+00  0.00000000E+00  0.00000000E+00
0.00000000E+00  0.00000000E+00  0.00000000E+00
0.00000000E+00  0.00000000E+00  0.00000000E+00
0.00000000E+00  0.00000000E+00  0.00000000E+00
0.00000000E+00  0.00000000E+00  0.00000000E+00
0.00000000E+00  0.00000000E+00  0.00000000E+00
