Ti4N3  (n=3)
1.00000000000000
3.2442143786231048  -0.0000000000000001  0.0000000000000000
-1.6221071893115524  2.8095720674123310  0.0000000000000000
-0.0000000000000001  0.0000000000000005  35.9189299840224123
Ti  N  I
4  3  2
Selective  dynamics
Direct
0.0000000000000000  -0.0000000000000000  0.0589358185668190  T  T  T
0.6666666666666643  0.3333333333333357  0.1189207397275716  T  T  T
0.3333333333333357  0.6666666666666643  0.1850674355571369  T  T  T
0.0000000000000000  0.0000000000000000  0.2450523567178963  T  T  T
0.3333333333333357  0.6666666666666643  0.0859894974570056  T  T  T
0.0000000000000000  0.0000000000000000  0.1519940876423543  T  T  T
0.6666666666666643  0.3333333333333357  0.2179986778277029  T  T  T
0.6666666666666643  0.3333333333333357  0.0000000000000000  T  T  T
0.3333333333333357  0.6666666666666643  0.3039881752847150  T  T  T

0.00000000E+00  0.00000000E+00  0.00000000E+00
0.00000000E+00  0.00000000E+00  0.00000000E+00
0.00000000E+00  0.00000000E+00  0.00000000E+00
0.00000000E+00  0.00000000E+00  0.00000000E+00
0.00000000E+00  0.00000000E+00  0.00000000E+00
0.00000000E+00  0.00000000E+00  0.00000000E+00
0.00000000E+00  0.00000000E+00  0.00000000E+00
0.00000000E+00  0.00000000E+00  0.00000000E+00
0.00000000E+00  0.00000000E+00  0.00000000E+00
