Nb4N3  (n=3)
1.00000000000000
3.4043308647984909  -0.0000000000000001  0.0000000000000000
-1.7021654323992454  2.9482370120353889  0.0000000000000000
0.0000000000000002  0.0000000000000001  36.0623839576728145
Nb  N  I
4  3  2
Selective  dynamics
Direct
0.0000000000000000  0.0000000000000000  0.0610621188783655  T  T  T
0.6666666666666643  0.3333333333333357  0.1184949741699754  T  T  T
0.3333333333333357  0.6666666666666643  0.1882618938911313  T  T  T
0.0000000000000000  0.0000000000000000  0.2456947491827489  T  T  T
0.3333333333333357  0.6666666666666643  0.0871838443112304  T  T  T
0.0000000000000000  0.0000000000000000  0.1533784340305572  T  T  T
0.6666666666666643  0.3333333333333357  0.2195730237498686  T  T  T
0.6666666666666643  0.3333333333333357  0.0000000000000000  T  T  T
0.3333333333333357  0.6666666666666643  0.3067568680611067  T  T  T

0.00000000E+00  0.00000000E+00  0.00000000E+00
0.00000000E+00  0.00000000E+00  0.00000000E+00
0.00000000E+00  0.00000000E+00  0.00000000E+00
0.00000000E+00  0.00000000E+00  0.00000000E+00
0.00000000E+00  0.00000000E+00  0.00000000E+00
0.00000000E+00  0.00000000E+00  0.00000000E+00
0.00000000E+00  0.00000000E+00  0.00000000E+00
0.00000000E+00  0.00000000E+00  0.00000000E+00
0.00000000E+00  0.00000000E+00  0.00000000E+00
