Nb4C3  (n=3)
1.00000000000000
3.3182239568955061  -0.0000000000000000  0.0000000000000000
-1.6591119784477530  2.8736662422844668  -0.0000000000000000
0.0000000000000001  0.0000000000000002  36.7832891271279578
Nb  C  I
4  3  2
Selective  dynamics
Direct
0.0000000000000000  -0.0000000000000000  0.0606885012492247  T  T  T
0.6666666666666643  0.3333333333333357  0.1249017636477867  T  T  T
0.3333333333333357  0.6666666666666643  0.1954417783993457  T  T  T
-0.0000000000000000  0.0000000000000000  0.2596550407979077  T  T  T
0.3333333333333357  0.6666666666666643  0.0902863496042780  T  T  T
0.0000000000000000  -0.0000000000000000  0.1601717710235662  T  T  T
0.6666666666666643  0.3333333333333357  0.2300571924428461  T  T  T
0.6666666666666643  0.3333333333333357  0.0000000000000000  T  T  T
0.3333333333333357  0.6666666666666643  0.3203435420471328  T  T  T

0.00000000E+00  0.00000000E+00  0.00000000E+00
0.00000000E+00  0.00000000E+00  0.00000000E+00
0.00000000E+00  0.00000000E+00  0.00000000E+00
0.00000000E+00  0.00000000E+00  0.00000000E+00
0.00000000E+00  0.00000000E+00  0.00000000E+00
0.00000000E+00  0.00000000E+00  0.00000000E+00
0.00000000E+00  0.00000000E+00  0.00000000E+00
0.00000000E+00  0.00000000E+00  0.00000000E+00
0.00000000E+00  0.00000000E+00  0.00000000E+00
