Sc2N (n=1)                              
   1.00000000000000     
     3.1653449468932968    0.0000000000000000    0.0000000000000000
    -1.5826724734466484    2.7412691358327033    0.0000000000000000
     0.0000000000000000    0.0000000000000000   11.6118556076953467
   Sc   N 
     2     1
Selective dynamics
Direct
  0.0000000000000000  0.0000000000000000  0.9847966301615876   T   T   T
  0.0000000000000000  0.0000000000000000  0.2152033698384152   T   T   T
  0.3333333333333357  0.6666666666666643  0.1000000000000014   T   T   T
 
  0.00000000E+00  0.00000000E+00  0.00000000E+00
  0.00000000E+00  0.00000000E+00  0.00000000E+00
  0.00000000E+00  0.00000000E+00  0.00000000E+00
