Mo2N (n=1)                              
   1.00000000000000     
     2.8171127672040890    0.0000000000000000    0.0000000000000000
    -1.4085563836020445    2.4396912217492730    0.0000000000000000
     0.0000000000000000    0.0000000000000000   13.7607356914557553
   Mo   N 
     2     1
Selective dynamics
Direct
  0.0000000000000000  0.0000000000000000  0.9992556615923918   T   T   T
  0.0000000000000000  0.0000000000000000  0.2007443384076111   T   T   T
  0.3333333333333357  0.6666666666666643  0.1000000000000014   T   T   T
 
  0.00000000E+00  0.00000000E+00  0.00000000E+00
  0.00000000E+00  0.00000000E+00  0.00000000E+00
  0.00000000E+00  0.00000000E+00  0.00000000E+00
