Hf2C (n=1)                              
   1.00000000000000     
     3.1678230599942938    0.0000000000000000    0.0000000000000000
    -1.5839115299971469    2.7434152447440150    0.0000000000000000
     0.0000000000000000    0.0000000000000000   11.2106473323836084
   Hf   C 
     2     1
Selective dynamics
Direct
  0.0000000000000000  0.0000000000000000 -0.0253011295836044   T   T   T
  0.0000000000000000  0.0000000000000000  0.2253011295836073   T   T   T
  0.3333333333333357  0.6666666666666643  0.1000000000000014   T   T   T
 
  0.00000000E+00  0.00000000E+00  0.00000000E+00
  0.00000000E+00  0.00000000E+00  0.00000000E+00
  0.00000000E+00  0.00000000E+00  0.00000000E+00
