Zr2N (n=1)                              
   1.00000000000000     
     3.0922102345345279    0.0000000000000000    0.0000000000000000
    -1.5461051172672640    2.6779326170300233    0.0000000000000000
     0.0000000000000000    0.0000000000000000   11.6751581147892143
   Zr   N 
     2     1
Selective dynamics
Direct
  0.0000000000000000  0.0000000000000000  0.9742888368675036   T   T   T
  0.0000000000000000  0.0000000000000000  0.2257111631324993   T   T   T
  0.3333333333333357  0.6666666666666643  0.1000000000000014   T   T   T
 
  0.00000000E+00  0.00000000E+00  0.00000000E+00
  0.00000000E+00  0.00000000E+00  0.00000000E+00
  0.00000000E+00  0.00000000E+00  0.00000000E+00
