Mo2C (n=1)                              
   1.00000000000000     
     2.8498892410223555    0.0000000000000000    0.0000000000000000
    -1.4249446205111778    2.4680764807257964    0.0000000000000000
     0.0000000000000000    0.0000000000000000   13.7514876881707675
   Mo   C 
     2     1
Selective dynamics
Direct
  0.0000000000000000  0.0000000000000000  0.0002891449078738   T   T   T
  0.0000000000000000  0.0000000000000000  0.1997108550921290   T   T   T
  0.3333333333333357  0.6666666666666643  0.1000000000000014   T   T   T
 
  0.00000000E+00  0.00000000E+00  0.00000000E+00
  0.00000000E+00  0.00000000E+00  0.00000000E+00
  0.00000000E+00  0.00000000E+00  0.00000000E+00
