Nb2N (n=1)                              
   1.00000000000000     
     2.9128302409075117    0.0000000000000000    0.0000000000000000
    -1.4564151204537559    2.5225849855827791    0.0000000000000000
     0.0000000000000000    0.0000000000000000   12.1367926704479654
   Nb   N 
     2     1
Selective dynamics
Direct
  0.0000000000000000  0.0000000000000000  0.9815765695696985   T   T   T
  0.0000000000000000  0.0000000000000000  0.2184234304303043   T   T   T
  0.3333333333333357  0.6666666666666643  0.1000000000000014   T   T   T
 
  0.00000000E+00  0.00000000E+00  0.00000000E+00
  0.00000000E+00  0.00000000E+00  0.00000000E+00
  0.00000000E+00  0.00000000E+00  0.00000000E+00
