Ta2N (n=1)                              
   1.00000000000000     
     2.8881692241193870    0.0000000000000000    0.0000000000000000
    -1.4440846120596935    2.5012279185545117    0.0000000000000000
     0.0000000000000000    0.0000000000000000   13.3050636266176134
   Ta   N 
     2     1
Selective dynamics
Direct
  0.0000000000000000  0.0000000000000000  0.9908245165998600   T   T   T
  0.0000000000000000  0.0000000000000000  0.2091754834001429   T   T   T
  0.3333333333333357  0.6666666666666643  0.1000000000000014   T   T   T
 
  0.00000000E+00  0.00000000E+00  0.00000000E+00
  0.00000000E+00  0.00000000E+00  0.00000000E+00
  0.00000000E+00  0.00000000E+00  0.00000000E+00
