Zr2C (n=1)                              
   1.00000000000000     
     3.2402362922787225    0.0000000000000000    0.0000000000000000
    -1.6201181461393612    2.8061269434869063    0.0000000000000000
     0.0000000000000000    0.0000000000000000   10.8256037973241135
   Zr   C 
     2     1
Selective dynamics
Direct
  0.0000000000000000  0.0000000000000000  0.9703215033119814   T   T   T
  0.0000000000000000  0.0000000000000000  0.2296784966880215   T   T   T
  0.3333333333333357  0.6666666666666643  0.1000000000000014   T   T   T
 
  0.00000000E+00  0.00000000E+00  0.00000000E+00
  0.00000000E+00  0.00000000E+00  0.00000000E+00
  0.00000000E+00  0.00000000E+00  0.00000000E+00
