Hf2N (n=1)                              
   1.00000000000000     
     3.0500141638476954    0.0000000000000000    0.0000000000000000
    -1.5250070819238477    2.6413897478656128    0.0000000000000000
     0.0000000000000000    0.0000000000000000   11.9926478842268267
   Hf   N 
     2     1
Selective dynamics
Direct
  0.0000000000000000  0.0000000000000000  0.9787213442470505   T   T   T
  0.0000000000000000  0.0000000000000000  0.2212786557529523   T   T   T
  0.3333333333333357  0.6666666666666643  0.1000000000000014   T   T   T
 
  0.00000000E+00  0.00000000E+00  0.00000000E+00
  0.00000000E+00  0.00000000E+00  0.00000000E+00
  0.00000000E+00  0.00000000E+00  0.00000000E+00
