Cr2C (n=1)                              
   1.00000000000000     
     2.6380432949458656    0.0000000000000001    0.0000000000000000
    -1.3190216474729328    2.2846125097365784    0.0000000000000000
     0.0000000000000000    0.0000000000000000   11.3885610427566206
   Cr   C 
     2     1
Selective dynamics
Direct
  0.0000000000000000  0.0000000000000000 -0.0106758212759501   T   T   T
  0.0000000000000000  0.0000000000000000  0.2106758212759529   T   T   T
  0.3333333333333357  0.6666666666666643  0.1000000000000014   T   T   T
 
  0.00000000E+00  0.00000000E+00  0.00000000E+00
  0.00000000E+00  0.00000000E+00  0.00000000E+00
  0.00000000E+00  0.00000000E+00  0.00000000E+00
