Ti2C (n=1)                              
   1.00000000000000     
     3.0406316440735739    0.0000000000000000    0.0000000000000000
    -1.5203158220367869    2.6332642473718861    0.0000000000000000
     0.0000000000000000    0.0000000000000000   12.1435398517295354
   Ti   C 
     2     1
Selective dynamics
Direct
  0.0000000000000000  0.0000000000000000  0.9971425119932309   T   T   T
  0.0000000000000000  0.0000000000000000  0.2028574880067719   T   T   T
  0.3333333333333357  0.6666666666666643  0.1000000000000014   T   T   T
 
  0.00000000E+00  0.00000000E+00  0.00000000E+00
  0.00000000E+00  0.00000000E+00  0.00000000E+00
  0.00000000E+00  0.00000000E+00  0.00000000E+00
