Ti2N (n=1)                              
   1.00000000000000     
     2.8783348936239190    0.0000000000000000    0.0000000000000000
    -1.4391674468119595    2.4927111385091067    0.0000000000000000
     0.0000000000000000    0.0000000000000000   13.1980673372290020
   Ti   N 
     2     1
Selective dynamics
Direct
  0.0000000000000000  0.0000000000000000  0.9995455713440021   T   T   T
  0.0000000000000000  0.0000000000000000  0.2004544286560007   T   T   T
  0.3333333333333357  0.6666666666666643  0.1000000000000014   T   T   T
 
  0.00000000E+00  0.00000000E+00  0.00000000E+00
  0.00000000E+00  0.00000000E+00  0.00000000E+00
  0.00000000E+00  0.00000000E+00  0.00000000E+00
