Sc2C (n=1)                              
   1.00000000000000     
     3.2565995298799999    0.0000000000000000    0.0000000000000000
    -1.6282997649399999    2.8202979229298419    0.0000000000000000
     0.0000000000000000    0.0000000000000000   10.6077630645366288
   Sc   C 
     2     1
Selective dynamics
Direct
  0.0000000000000000  0.0000000000000000 -0.0266181546057707   T   T   T
  0.0000000000000000  0.0000000000000000  0.2266181546057735   T   T   T
  0.3333333333333357  0.6666666666666643  0.1000000000000014   T   T   T
 
  0.00000000E+00  0.00000000E+00  0.00000000E+00
  0.00000000E+00  0.00000000E+00  0.00000000E+00
  0.00000000E+00  0.00000000E+00  0.00000000E+00
