Cr2N (n=1)                              
   1.00000000000000     
     2.6061480873880956    0.0000000000000000    0.0000000000000000
    -1.3030740436940478    2.2569904497428732    0.0000000000000000
     0.0000000000000000    0.0000000000000000   10.8589503641170655
   Cr   N 
     2     1
Selective dynamics
Direct
  0.0000000000000000  0.0000000000000000  0.9849813255424351   T   T   T
  0.0000000000000000  0.0000000000000000  0.2150186744575677   T   T   T
  0.3333333333333357  0.6666666666666643  0.1000000000000014   T   T   T
 
  0.00000000E+00  0.00000000E+00  0.00000000E+00
  0.00000000E+00  0.00000000E+00  0.00000000E+00
  0.00000000E+00  0.00000000E+00  0.00000000E+00
