Ta2C (n=1)                              
   1.00000000000000     
     2.9648807667897130   -0.0000000000000006    0.0000000000000000
    -1.4824403833948565    2.5676620632767619    0.0000000000000000
     0.0000000000000000    0.0000000000000000   11.2574455243585412
   Ta   C 
     2     1
Selective dynamics
Direct
  0.0000000000000000  0.0000000000000000 -0.0248663145932077   T   T   T
  0.0000000000000000  0.0000000000000000  0.2248663145932107   T   T   T
  0.3333333333333357  0.6666666666666643  0.1000000000000014   T   T   T
 
  0.00000000E+00  0.00000000E+00  0.00000000E+00
  0.00000000E+00  0.00000000E+00  0.00000000E+00
  0.00000000E+00  0.00000000E+00  0.00000000E+00
