Cr2N  (n=1)
1.00000000000000
2.9157653093677887  0.0000000000000000  0.0000000000000000
-1.4578826546838943  2.5251268294667017  0.0000000000000000
0.0000000000000000  0.0000000000000000  29.7535907175883878
Cr  N  F
2  1  2
Selective  dynamics
Direct
0.0000000000000000  -0.0000000000000000  0.0414215154497263  T  T  T
0.6666666666666643  0.3333333333333357  0.1183437633936900  T  T  T
0.3333333333333357  0.6666666666666643  0.0798826394217045  T  T  T
0.6666666666666643  0.3333333333333357  0.0000000000000000  T  T  T
0.0000000000000000  -0.0000000000000000  0.1597652788434162  T  T  T

0.00000000E+00  0.00000000E+00  0.00000000E+00
0.00000000E+00  0.00000000E+00  0.00000000E+00
0.00000000E+00  0.00000000E+00  0.00000000E+00
0.00000000E+00  0.00000000E+00  0.00000000E+00
0.00000000E+00  0.00000000E+00  0.00000000E+00
