Nb2N  (n=1)
1.00000000000000
3.2438270950097348  0.0000000000000000  0.0000000000000000
-1.6219135475048674  2.8092366698661100  0.0000000000000000
0.0000000000000000  0.0000000000000001  29.7709799314585766
Nb  N  F
2  1  2
Selective  dynamics
Direct
0.0000000000000000  0.0000000000000000  0.0452553901786828  T  T  T
0.6666666666666643  0.3333333333333357  0.1150006693276804  T  T  T
0.3333333333333357  0.6666666666666643  0.0801280297531816  T  T  T
0.6666666666666643  0.3333333333333357  0.0000000000000000  T  T  T
-0.0000000000000000  -0.0000000000000000  0.1602560595063633  T  T  T

0.00000000E+00  0.00000000E+00  0.00000000E+00
0.00000000E+00  0.00000000E+00  0.00000000E+00
0.00000000E+00  0.00000000E+00  0.00000000E+00
0.00000000E+00  0.00000000E+00  0.00000000E+00
0.00000000E+00  0.00000000E+00  0.00000000E+00
