Zr2N  (n=1)
1.00000000000000
3.2589036488595773  0.0000000000000004  -0.0000000000000001
-1.6294518244297886  2.8222933484857986  0.0000000000000002
-0.0000000000000004  0.0000000000000010  30.0770903463520298
Zr  N  F
2  1  2
Selective  dynamics
Direct
-0.0000000000000000  0.0000000000000000  0.0451446337435755  T  T  T
0.6666666666666643  0.3333333333333357  0.1236579428317231  T  T  T
0.3333333333333357  0.6666666666666643  0.0844012882876454  T  T  T
0.6666666666666643  0.3333333333333357  0.0000000000000000  T  T  T
-0.0000000000000000  -0.0000000000000000  0.1688025765752908  T  T  T

0.00000000E+00  0.00000000E+00  0.00000000E+00
0.00000000E+00  0.00000000E+00  0.00000000E+00
0.00000000E+00  0.00000000E+00  0.00000000E+00
0.00000000E+00  0.00000000E+00  0.00000000E+00
0.00000000E+00  0.00000000E+00  0.00000000E+00
