Sc2N
1.00000000000000
3.1343670756806850  -0.0000000000000001  0.0000000000000002
-1.5671835378403427  2.7144415123723937  0.0000000000000000
0.0000000000000003  0.0000000000000003  29.9183055180968793
Sc  N  F
2  1  2
Selective  dynamics
Direct
0.0000000000000000  0.0000000000000000  0.0407783557534262  T  T  T
0.6666666666666643  0.3333333333333357  0.1236128232564249  T  T  T
0.3333333333333357  0.6666666666666643  0.0821955895049256  T  T  T
0.6666666666666643  0.3333333333333357  0.0000000000000000  T  T  T
0.0000000000000000  0.0000000000000000  0.1643911790098511  T  T  T

0.00000000E+00  0.00000000E+00  0.00000000E+00
0.00000000E+00  0.00000000E+00  0.00000000E+00
0.00000000E+00  0.00000000E+00  0.00000000E+00
0.00000000E+00  0.00000000E+00  0.00000000E+00
0.00000000E+00  0.00000000E+00  0.00000000E+00
