Sc2C  (n=1)
1.00000000000000
3.2245405935473390  -0.0000000000000001  0.0000000000000000
-1.6122702967736695  2.7925340696244092  0.0000000000000000
-0.0000000000000004  0.0000000000000001  29.8848742111977401
Sc  C  F
2  1  2
Selective  dynamics
Direct
-0.0000000000000000  -0.0000000000000000  0.0389826254460234  T  T  T
0.6666666666666643  0.3333333333333357  0.1244737831932138  T  T  T
0.3333333333333357  0.6666666666666643  0.0817282043196227  T  T  T
0.6666666666666643  0.3333333333333357  0.0000000000000000  T  T  T
0.0000000000000000  -0.0000000000000000  0.1634564086392372  T  T  T

0.00000000E+00  0.00000000E+00  0.00000000E+00
0.00000000E+00  0.00000000E+00  0.00000000E+00
0.00000000E+00  0.00000000E+00  0.00000000E+00
0.00000000E+00  0.00000000E+00  0.00000000E+00
0.00000000E+00  0.00000000E+00  0.00000000E+00
