Zr2C  (n=1)
1.00000000000000
3.2513563685392226  -0.0000000000000008  0.0000000000000003
-1.6256781842696113  2.8157572119971923  0.0000000000000000
0.0000000000000011  -0.0000000000000017  30.2565046650331517
Zr  C  F
2  1  2
Selective  dynamics
Direct
0.0000000000000000  0.0000000000000000  0.0450138911780575  T  T  T
0.6666666666666643  0.3333333333333357  0.1287175005748037  T  T  T
0.3333333333333357  0.6666666666666643  0.0868656958764307  T  T  T
0.6666666666666643  0.3333333333333357  0.0000000000000000  T  T  T
-0.0000000000000000  -0.0000000000000000  0.1737313917528614  T  T  T

0.00000000E+00  0.00000000E+00  0.00000000E+00
0.00000000E+00  0.00000000E+00  0.00000000E+00
0.00000000E+00  0.00000000E+00  0.00000000E+00
0.00000000E+00  0.00000000E+00  0.00000000E+00
0.00000000E+00  0.00000000E+00  0.00000000E+00
