Hf2N  (n=1)
1.00000000000000
3.1878013555100151  -0.0000000000000004  0.0000000000000000
-1.5939006777550080  2.7607169561663696  0.0000000000000000
0.0000000000000000  0.0000000000000000  30.0648211654912316
Hf  N  F
2  1  2
Selective  dynamics
Direct
0.0000000000000000  0.0000000000000000  0.0454889320441891  T  T  T
0.6666666666666643  0.3333333333333357  0.1229744404007110  T  T  T
0.3333333333333357  0.6666666666666643  0.0842316862224500  T  T  T
0.6666666666666643  0.3333333333333357  0.0000000000000000  T  T  T
-0.0000000000000000  -0.0000000000000000  0.1684633724448923  T  T  T

0.00000000E+00  0.00000000E+00  0.00000000E+00
0.00000000E+00  0.00000000E+00  0.00000000E+00
0.00000000E+00  0.00000000E+00  0.00000000E+00
0.00000000E+00  0.00000000E+00  0.00000000E+00
0.00000000E+00  0.00000000E+00  0.00000000E+00
