Mo2N  (n=1)
1.00000000000000
2.7591466188042340  0.0000000000000000  0.0000000000000000
-1.3795733094021170  2.3894910647229288  -0.0000000000000003
-0.0000000000000004  -0.0000000000000025  31.0049849689111525
Mo  N  F
2  1  2
Selective  dynamics
Direct
-0.0000000000000000  -0.0000000000000000  0.0495715704028869  T  T  T
0.6666666666666643  0.3333333333333357  0.1441064776572112  T  T  T
0.3333333333333357  0.6666666666666643  0.0968390240300490  T  T  T
0.6666666666666643  0.3333333333333357  0.0000000000000000  T  T  T
0.0000000000000000  -0.0000000000000000  0.1936780480600903  T  T  T

0.00000000E+00  0.00000000E+00  0.00000000E+00
0.00000000E+00  0.00000000E+00  0.00000000E+00
0.00000000E+00  0.00000000E+00  0.00000000E+00
0.00000000E+00  0.00000000E+00  0.00000000E+00
0.00000000E+00  0.00000000E+00  0.00000000E+00
