Ta2N  (n=1)
1.00000000000000
3.2458291596450177  0.0000000000000000  0.0000000000000000
-1.6229145798225089  2.8109705087073262  0.0000000000000000
0.0000000000000000  0.0000000000000000  29.7290371293858726
Ta  N  F
2  1  2
Selective  dynamics
Direct
-0.0000000000000000  -0.0000000000000000  0.0455342213283772  T  T  T
0.6666666666666643  0.3333333333333357  0.1135370970195495  T  T  T
0.3333333333333357  0.6666666666666643  0.0795356591739634  T  T  T
0.6666666666666643  0.3333333333333357  0.0000000000000000  T  T  T
0.0000000000000000  -0.0000000000000000  0.1590713183479266  T  T  T

0.00000000E+00  0.00000000E+00  0.00000000E+00
0.00000000E+00  0.00000000E+00  0.00000000E+00
0.00000000E+00  0.00000000E+00  0.00000000E+00
0.00000000E+00  0.00000000E+00  0.00000000E+00
0.00000000E+00  0.00000000E+00  0.00000000E+00
