Nb2C  (n=1)
1.00000000000000
3.1740516085524222  0.0000000000000000  0.0000000000000000
-1.5870258042762111  2.7488093260276032  0.0000000000000000
-0.0000000000000001  -0.0000000000000003  30.0620874697686133
Nb  C  F
2  1  2
Selective  dynamics
Direct
-0.0000000000000000  -0.0000000000000000  0.0468221372065738  T  T  T
0.6666666666666643  0.3333333333333357  0.1215656194606640  T  T  T
0.3333333333333357  0.6666666666666643  0.0841938783336150  T  T  T
0.6666666666666643  0.3333333333333357  0.0000000000000000  T  T  T
0.0000000000000000  0.0000000000000000  0.1683877566672377  T  T  T

0.00000000E+00  0.00000000E+00  0.00000000E+00
0.00000000E+00  0.00000000E+00  0.00000000E+00
0.00000000E+00  0.00000000E+00  0.00000000E+00
0.00000000E+00  0.00000000E+00  0.00000000E+00
0.00000000E+00  0.00000000E+00  0.00000000E+00
