Cr2C  (n=1)
1.00000000000000
2.9288010789393404  0.0000000000000000  0.0000000000000000
-1.4644005394696702  2.5364161370039024  0.0000000000000000
-0.0000000000000001  0.0000000000000000  29.7231362074053891
Cr  C  F
2  1  2
Selective  dynamics
Direct
-0.0000000000000000  -0.0000000000000000  0.0424354795443309  T  T  T
0.6666666666666643  0.3333333333333357  0.1164688895790199  T  T  T
0.3333333333333357  0.6666666666666643  0.0794521845616789  T  T  T
0.6666666666666643  0.3333333333333357  0.0000000000000000  T  T  T
-0.0000000000000000  0.0000000000000000  0.1589043691233579  T  T  T

0.00000000E+00  0.00000000E+00  0.00000000E+00
0.00000000E+00  0.00000000E+00  0.00000000E+00
0.00000000E+00  0.00000000E+00  0.00000000E+00
0.00000000E+00  0.00000000E+00  0.00000000E+00
0.00000000E+00  0.00000000E+00  0.00000000E+00
