Mo2C  (n=1)
1.00000000000000
3.2361841543121317  0.0000000000000002  -0.0000000000000001
-1.6180920771560661  2.8026176890304750  0.0000000000000000
-0.0000000000000006  0.0000000000000002  29.5980054478791104
Mo  C  F
2  1  2
Selective  dynamics
Direct
-0.0000000000000000  -0.0000000000000000  0.0453282182841311  T  T  T
0.6666666666666643  0.3333333333333357  0.1100202715313738  T  T  T
0.3333333333333357  0.6666666666666643  0.0776742449077525  T  T  T
0.6666666666666643  0.3333333333333357  0.0000000000000000  T  T  T
-0.0000000000000000  0.0000000000000000  0.1553484898155050  T  T  T

0.00000000E+00  0.00000000E+00  0.00000000E+00
0.00000000E+00  0.00000000E+00  0.00000000E+00
0.00000000E+00  0.00000000E+00  0.00000000E+00
0.00000000E+00  0.00000000E+00  0.00000000E+00
0.00000000E+00  0.00000000E+00  0.00000000E+00
