Ti2N  (n=1)
1.00000000000000
2.9912516923299157  0.0000000000000000  0.0000000000000000
-1.4956258461649579  2.5904999547098759  0.0000000000000000
0.0000000000000000  0.0000000000000001  29.7487951040394876
Ti  N  F
2  1  2
Selective  dynamics
Direct
-0.0000000000000000  -0.0000000000000000  0.0427614566006367  T  T  T
0.6666666666666643  0.3333333333333357  0.1168683733616083  T  T  T
0.3333333333333357  0.6666666666666643  0.0798149149811225  T  T  T
0.6666666666666643  0.3333333333333357  0.0000000000000000  T  T  T
0.0000000000000000  -0.0000000000000000  0.1596298299622450  T  T  T

0.00000000E+00  0.00000000E+00  0.00000000E+00
0.00000000E+00  0.00000000E+00  0.00000000E+00
0.00000000E+00  0.00000000E+00  0.00000000E+00
0.00000000E+00  0.00000000E+00  0.00000000E+00
0.00000000E+00  0.00000000E+00  0.00000000E+00
