Ta2C  (n=1)
1.00000000000000
3.1553468038810975  0.0000000000000000  0.0000000000000003
-1.5776734019405487  2.7326104899986374  -0.0000000000000008
0.0000000000000019  -0.0000000000000032  30.0724839788334393
Ta  C  F
2  1  2
Selective  dynamics
Direct
-0.0000000000000000  -0.0000000000000000  0.0473825530725840  T  T  T
0.6666666666666643  0.3333333333333357  0.1212927044287156  T  T  T
0.3333333333333357  0.6666666666666643  0.0843376287506497  T  T  T
0.6666666666666643  0.3333333333333357  0.0000000000000000  T  T  T
-0.0000000000000000  0.0000000000000000  0.1686752575012997  T  T  T

0.00000000E+00  0.00000000E+00  0.00000000E+00
0.00000000E+00  0.00000000E+00  0.00000000E+00
0.00000000E+00  0.00000000E+00  0.00000000E+00
0.00000000E+00  0.00000000E+00  0.00000000E+00
0.00000000E+00  0.00000000E+00  0.00000000E+00
