Ti2C  (n=1)
1.00000000000000
2.9976379866867751  0.0000000000000000  0.0000000000000000
-1.4988189933433875  2.5960306478639281  0.0000000000000000
0.0000000000000000  -0.0000000000000001  29.8623381883548618
Ti  C  F
2  1  2
Selective  dynamics
Direct
-0.0000000000000000  -0.0000000000000000  0.0425887690040220  T  T  T
0.6666666666666643  0.3333333333333357  0.1202363305473247  T  T  T
0.3333333333333357  0.6666666666666643  0.0814125497756733  T  T  T
0.6666666666666643  0.3333333333333357  0.0000000000000000  T  T  T
0.0000000000000000  0.0000000000000000  0.1628250995513467  T  T  T

0.00000000E+00  0.00000000E+00  0.00000000E+00
0.00000000E+00  0.00000000E+00  0.00000000E+00
0.00000000E+00  0.00000000E+00  0.00000000E+00
0.00000000E+00  0.00000000E+00  0.00000000E+00
0.00000000E+00  0.00000000E+00  0.00000000E+00
