Hf2C  (n=1)
1.00000000000000
3.2051607616257196  0.0000000000000005  0.0000000000000000
-1.6025803808128600  2.7757506428353191  0.0000000000000000
-0.0000000000000001  -0.0000000000000026  30.1712781540227439
Hf  C  F
2  1  2
Selective  dynamics
Direct
-0.0000000000000000  -0.0000000000000000  0.0449524101487375  T  T  T
0.6666666666666643  0.3333333333333357  0.1264449740662727  T  T  T
0.3333333333333357  0.6666666666666643  0.0856986921075050  T  T  T
0.6666666666666643  0.3333333333333357  0.0000000000000000  T  T  T
-0.0000000000000000  -0.0000000000000000  0.1713973842150024  T  T  T

0.00000000E+00  0.00000000E+00  0.00000000E+00
0.00000000E+00  0.00000000E+00  0.00000000E+00
0.00000000E+00  0.00000000E+00  0.00000000E+00
0.00000000E+00  0.00000000E+00  0.00000000E+00
0.00000000E+00  0.00000000E+00  0.00000000E+00
