Hf4N3  (n=3)
1.00000000000000
3.2684470788105124  -0.0000000000000006  -0.0000000000000001
-1.6342235394052562  2.8305582021488815  0.0000000000000000
-0.0000000000000009  0.0000000000000000  36.6512719672294409
Hf  N  Br
4  3  2
Selective  dynamics
Direct
-0.0000000000000000  -0.0000000000000000  0.0537972098012663  T  T  T
0.6666666666666643  0.3333333333333357  0.1233004986634754  T  T  T
0.3333333333333357  0.6666666666666643  0.1945949342057388  T  T  T
0.0000000000000000  0.0000000000000000  0.2640982230679480  T  T  T
0.3333333333333357  0.6666666666666643  0.0889943672196182  T  T  T
0.0000000000000000  -0.0000000000000000  0.1589477164346072  T  T  T
0.6666666666666643  0.3333333333333357  0.2289010656495816  T  T  T
0.3333333333333357  0.6666666666666643  0.0000000000000000  T  T  T
0.6666666666666643  0.3333333333333357  0.3178954328692071  T  T  T

0.00000000E+00  0.00000000E+00  0.00000000E+00
0.00000000E+00  0.00000000E+00  0.00000000E+00
0.00000000E+00  0.00000000E+00  0.00000000E+00
0.00000000E+00  0.00000000E+00  0.00000000E+00
0.00000000E+00  0.00000000E+00  0.00000000E+00
0.00000000E+00  0.00000000E+00  0.00000000E+00
0.00000000E+00  0.00000000E+00  0.00000000E+00
0.00000000E+00  0.00000000E+00  0.00000000E+00
0.00000000E+00  0.00000000E+00  0.00000000E+00
