Nb4C3  (n=3)
1.00000000000000
3.2285306049308797  0.0000000000000000  0.0000000000000000
-1.6142653024654399  2.7959895218196085  0.0000000000000000
-0.0000000000000002  0.0000000000000012  36.6144898295791847
Nb  C  Br
4  3  2
Selective  dynamics
Direct
0.0000000000000000  0.0000000000000000  0.0550039636323104  T  T  T
0.6666666666666643  0.3333333333333357  0.1231938523434783  T  T  T
0.3333333333333357  0.6666666666666643  0.1940163527867420  T  T  T
-0.0000000000000000  -0.0000000000000000  0.2622062414979100  T  T  T
0.3333333333333357  0.6666666666666643  0.0868251048104272  T  T  T
0.0000000000000000  -0.0000000000000000  0.1586051025651138  T  T  T
0.6666666666666643  0.3333333333333357  0.2303851003197859  T  T  T
0.3333333333333357  0.6666666666666643  0.0000000000000000  T  T  T
0.6666666666666643  0.3333333333333357  0.3172102051302204  T  T  T

0.00000000E+00  0.00000000E+00  0.00000000E+00
0.00000000E+00  0.00000000E+00  0.00000000E+00
0.00000000E+00  0.00000000E+00  0.00000000E+00
0.00000000E+00  0.00000000E+00  0.00000000E+00
0.00000000E+00  0.00000000E+00  0.00000000E+00
0.00000000E+00  0.00000000E+00  0.00000000E+00
0.00000000E+00  0.00000000E+00  0.00000000E+00
0.00000000E+00  0.00000000E+00  0.00000000E+00
0.00000000E+00  0.00000000E+00  0.00000000E+00
