Zr4C3  (n=3)
1.00000000000000
3.4052442599996420  -0.0000000000000001  -0.0000000000000001
-1.7026221299998210  2.9490280367153807  0.0000000000000001
-0.0000000000000011  0.0000000000000006  36.8870790464880827
Zr  C  Br
4  3  2
Selective  dynamics
Direct
0.0000000000000000  0.0000000000000000  0.0548318548859973  T  T  T
0.6666666666666643  0.3333333333333357  0.1259500905201127  T  T  T
0.3333333333333357  0.6666666666666643  0.1963058146304966  T  T  T
-0.0000000000000000  -0.0000000000000000  0.2674240502646120  T  T  T
0.3333333333333357  0.6666666666666643  0.0868957524150464  T  T  T
-0.0000000000000000  -0.0000000000000000  0.1611279525753046  T  T  T
0.6666666666666643  0.3333333333333357  0.2353601527355554  T  T  T
0.3333333333333357  0.6666666666666643  0.0000000000000000  T  T  T
0.6666666666666643  0.3333333333333357  0.3222559051506091  T  T  T

0.00000000E+00  0.00000000E+00  0.00000000E+00
0.00000000E+00  0.00000000E+00  0.00000000E+00
0.00000000E+00  0.00000000E+00  0.00000000E+00
0.00000000E+00  0.00000000E+00  0.00000000E+00
0.00000000E+00  0.00000000E+00  0.00000000E+00
0.00000000E+00  0.00000000E+00  0.00000000E+00
0.00000000E+00  0.00000000E+00  0.00000000E+00
0.00000000E+00  0.00000000E+00  0.00000000E+00
0.00000000E+00  0.00000000E+00  0.00000000E+00
