Zr4N3  (n=3)
1.00000000000000
3.3217841139853852  0.0000000000000001  0.0000000000000000
-1.6608920569926924  2.8767494297205616  0.0000000000000000
-0.0000000000000011  -0.0000000000000004  36.8165293899923398
Zr  N  Br
4  3  2
Selective  dynamics
Direct
-0.0000000000000000  -0.0000000000000000  0.0542526267725362  T  T  T
0.6666666666666643  0.3333333333333357  0.1242811791615563  T  T  T
0.3333333333333357  0.6666666666666643  0.1966759991976936  T  T  T
-0.0000000000000000  -0.0000000000000000  0.2667045515867208  T  T  T
0.3333333333333357  0.6666666666666643  0.0890692388553762  T  T  T
-0.0000000000000000  -0.0000000000000000  0.1604785891796250  T  T  T
0.6666666666666643  0.3333333333333357  0.2318879395038666  T  T  T
0.3333333333333357  0.6666666666666643  0.0000000000000000  T  T  T
0.6666666666666643  0.3333333333333357  0.3209571783592499  T  T  T

0.00000000E+00  0.00000000E+00  0.00000000E+00
0.00000000E+00  0.00000000E+00  0.00000000E+00
0.00000000E+00  0.00000000E+00  0.00000000E+00
0.00000000E+00  0.00000000E+00  0.00000000E+00
0.00000000E+00  0.00000000E+00  0.00000000E+00
0.00000000E+00  0.00000000E+00  0.00000000E+00
0.00000000E+00  0.00000000E+00  0.00000000E+00
0.00000000E+00  0.00000000E+00  0.00000000E+00
0.00000000E+00  0.00000000E+00  0.00000000E+00
