Sc4N3  (n=3)
1.00000000000000
3.2920444007414971  -0.0000000000000003  0.0000000000000001
-1.6460222003707481  2.8509940822248265  -0.0000000000000002
0.0000000000000000  -0.0000000000000001  36.4626828459584118
Sc  N  Br
4  3  2
Selective  dynamics
Direct
-0.0000000000000000  -0.0000000000000000  0.0537541570592029  T  T  T
0.6666666666666643  0.3333333333333357  0.1229324890568133  T  T  T
0.3333333333333357  0.6666666666666643  0.1914350218140778  T  T  T
0.0000000000000000  -0.0000000000000000  0.2606133538116811  T  T  T
0.3333333333333357  0.6666666666666643  0.0852728227632072  T  T  T
0.0000000000000000  -0.0000000000000000  0.1571837554354455  T  T  T
0.6666666666666643  0.3333333333333357  0.2290946881076767  T  T  T
0.3333333333333357  0.6666666666666643  0.0000000000000000  T  T  T
0.6666666666666643  0.3333333333333357  0.3143675108708836  T  T  T

0.00000000E+00  0.00000000E+00  0.00000000E+00
0.00000000E+00  0.00000000E+00  0.00000000E+00
0.00000000E+00  0.00000000E+00  0.00000000E+00
0.00000000E+00  0.00000000E+00  0.00000000E+00
0.00000000E+00  0.00000000E+00  0.00000000E+00
0.00000000E+00  0.00000000E+00  0.00000000E+00
0.00000000E+00  0.00000000E+00  0.00000000E+00
0.00000000E+00  0.00000000E+00  0.00000000E+00
0.00000000E+00  0.00000000E+00  0.00000000E+00
