Nb4N3  (n=3)
1.00000000000000
3.2114500997570437  -0.0000000000000001  0.0000000000000000
-1.6057250498785220  2.7811973702048869  0.0000000000000000
0.0000000000000000  0.0000000000000006  36.4783145534177962
Nb  N  Br
4  3  2
Selective  dynamics
Direct
0.0000000000000000  0.0000000000000000  0.0552252990340794  T  T  T
0.6666666666666643  0.3333333333333357  0.1226565962547794  T  T  T
0.3333333333333357  0.6666666666666643  0.1920047222282683  T  T  T
-0.0000000000000000  -0.0000000000000000  0.2594360194489684  T  T  T
0.3333333333333357  0.6666666666666643  0.0867394861629769  T  T  T
0.0000000000000000  0.0000000000000000  0.1573306592415277  T  T  T
0.6666666666666643  0.3333333333333357  0.2279218323200710  T  T  T
0.3333333333333357  0.6666666666666643  0.0000000000000000  T  T  T
0.6666666666666643  0.3333333333333357  0.3146613184830478  T  T  T

0.00000000E+00  0.00000000E+00  0.00000000E+00
0.00000000E+00  0.00000000E+00  0.00000000E+00
0.00000000E+00  0.00000000E+00  0.00000000E+00
0.00000000E+00  0.00000000E+00  0.00000000E+00
0.00000000E+00  0.00000000E+00  0.00000000E+00
0.00000000E+00  0.00000000E+00  0.00000000E+00
0.00000000E+00  0.00000000E+00  0.00000000E+00
0.00000000E+00  0.00000000E+00  0.00000000E+00
0.00000000E+00  0.00000000E+00  0.00000000E+00
