Ti4C3  (n=3)
1.00000000000000
3.1831438598237729  -0.0000000000000001  0.0000000000000001
-1.5915719299118865  2.7566834469393742  -0.0000000000000002
0.0000000000000005  -0.0000000000000025  35.9303811082720017
Ti  C  Br
4  3  2
Selective  dynamics
Direct
-0.0000000000000000  -0.0000000000000000  0.0531960720441929  T  T  T
0.6666666666666643  0.3333333333333357  0.1194148623856965  T  T  T
0.3333333333333357  0.6666666666666643  0.1847951340330606  T  T  T
0.0000000000000000  0.0000000000000000  0.2510139243745640  T  T  T
0.3333333333333357  0.6666666666666643  0.0830349337090400  T  T  T
0.0000000000000000  -0.0000000000000000  0.1521049982093785  T  T  T
0.6666666666666643  0.3333333333333357  0.2211750627097098  T  T  T
0.3333333333333357  0.6666666666666643  0.0000000000000000  T  T  T
0.6666666666666643  0.3333333333333357  0.3042099964187571  T  T  T

0.00000000E+00  0.00000000E+00  0.00000000E+00
0.00000000E+00  0.00000000E+00  0.00000000E+00
0.00000000E+00  0.00000000E+00  0.00000000E+00
0.00000000E+00  0.00000000E+00  0.00000000E+00
0.00000000E+00  0.00000000E+00  0.00000000E+00
0.00000000E+00  0.00000000E+00  0.00000000E+00
0.00000000E+00  0.00000000E+00  0.00000000E+00
0.00000000E+00  0.00000000E+00  0.00000000E+00
0.00000000E+00  0.00000000E+00  0.00000000E+00
