Cr4C3  (n=3)
1.00000000000000
3.0831993903271639  -0.0000000000000001  0.0000000000000000
-1.5415996951635820  2.6701289969206181  0.0000000000000005
-0.0000000000000004  0.0000000000000074  35.2958566621393715
Cr  C  Br
4  3  2
Selective  dynamics
Direct
0.0000000000000000  0.0000000000000000  0.0549568539400045  T  T  T
0.6666666666666643  0.3333333333333357  0.1156810216598717  T  T  T
0.3333333333333357  0.6666666666666643  0.1760205443537785  T  T  T
0.0000000000000000  0.0000000000000000  0.2367447120736457  T  T  T
0.3333333333333357  0.6666666666666643  0.0810425916488783  T  T  T
0.0000000000000000  -0.0000000000000000  0.1458507830068250  T  T  T
0.6666666666666643  0.3333333333333357  0.2106589743647647  T  T  T
0.3333333333333357  0.6666666666666643  0.0000000000000000  T  T  T
0.6666666666666643  0.3333333333333357  0.2917015660136500  T  T  T

0.00000000E+00  0.00000000E+00  0.00000000E+00
0.00000000E+00  0.00000000E+00  0.00000000E+00
0.00000000E+00  0.00000000E+00  0.00000000E+00
0.00000000E+00  0.00000000E+00  0.00000000E+00
0.00000000E+00  0.00000000E+00  0.00000000E+00
0.00000000E+00  0.00000000E+00  0.00000000E+00
0.00000000E+00  0.00000000E+00  0.00000000E+00
0.00000000E+00  0.00000000E+00  0.00000000E+00
0.00000000E+00  0.00000000E+00  0.00000000E+00
