Cr4N3  (n=3)
1.00000000000000
3.0401707157722426  -0.0000000000000001  0.0000000000000001
-1.5200853578861213  2.6328650718073416  0.0000000000000000
0.0000000000000011  0.0000000000000020  35.6670647954423856
Cr  N  Br
4  3  2
Selective  dynamics
Direct
0.0000000000000000  0.0000000000000000  0.0543941946272541  T  T  T
0.6666666666666643  0.3333333333333357  0.1169677319964679  T  T  T
0.3333333333333357  0.6666666666666643  0.1821055126515105  T  T  T
-0.0000000000000000  -0.0000000000000000  0.2446790500207175  T  T  T
0.3333333333333357  0.6666666666666643  0.0830289272413510  T  T  T
-0.0000000000000000  0.0000000000000000  0.1495366223239926  T  T  T
0.6666666666666643  0.3333333333333357  0.2160443174066204  T  T  T
0.3333333333333357  0.6666666666666643  0.0000000000000000  T  T  T
0.6666666666666643  0.3333333333333357  0.2990732446479714  T  T  T

0.00000000E+00  0.00000000E+00  0.00000000E+00
0.00000000E+00  0.00000000E+00  0.00000000E+00
0.00000000E+00  0.00000000E+00  0.00000000E+00
0.00000000E+00  0.00000000E+00  0.00000000E+00
0.00000000E+00  0.00000000E+00  0.00000000E+00
0.00000000E+00  0.00000000E+00  0.00000000E+00
0.00000000E+00  0.00000000E+00  0.00000000E+00
0.00000000E+00  0.00000000E+00  0.00000000E+00
0.00000000E+00  0.00000000E+00  0.00000000E+00
