Ta4N3  (n=3)
1.00000000000000
3.1644392727034329  -0.0000000000000006  0.0000000000000000
-1.5822196363517171  2.7404847994512869  0.0000000000000000
0.0000000000000006  0.0000000000000007  36.5758474693710482
Ta  N  Br
4  3  2
Selective  dynamics
Direct
0.0000000000000000  -0.0000000000000000  0.0548561366284058  T  T  T
0.6666666666666643  0.3333333333333357  0.1241768847840974  T  T  T
0.3333333333333357  0.6666666666666643  0.1923119533505496  T  T  T
0.0000000000000000  0.0000000000000000  0.2616327015062340  T  T  T
0.3333333333333357  0.6666666666666643  0.0882775783959448  T  T  T
0.0000000000000000  -0.0000000000000000  0.1582444190673199  T  T  T
0.6666666666666643  0.3333333333333357  0.2282112597386879  T  T  T
0.3333333333333357  0.6666666666666643  0.0000000000000000  T  T  T
0.6666666666666643  0.3333333333333357  0.3164888381346398  T  T  T

0.00000000E+00  0.00000000E+00  0.00000000E+00
0.00000000E+00  0.00000000E+00  0.00000000E+00
0.00000000E+00  0.00000000E+00  0.00000000E+00
0.00000000E+00  0.00000000E+00  0.00000000E+00
0.00000000E+00  0.00000000E+00  0.00000000E+00
0.00000000E+00  0.00000000E+00  0.00000000E+00
0.00000000E+00  0.00000000E+00  0.00000000E+00
0.00000000E+00  0.00000000E+00  0.00000000E+00
0.00000000E+00  0.00000000E+00  0.00000000E+00
