Hf4C3  (n=3)
1.00000000000000
3.3553838984982587  0.0000000000000002  -0.0000000000000000
-1.6776919492491291  2.9058476972387588  -0.0000000000000001
-0.0000000000000006  0.0000000000000023  36.7325078057041239
Hf  C  Br
4  3  2
Selective  dynamics
Direct
-0.0000000000000000  0.0000000000000000  0.0548697684918718  T  T  T
0.6666666666666643  0.3333333333333357  0.1249464740696392  T  T  T
0.3333333333333357  0.6666666666666643  0.1944574682847189  T  T  T
0.0000000000000000  -0.0000000000000000  0.2645341738624862  T  T  T
0.3333333333333357  0.6666666666666643  0.0863681610067988  T  T  T
-0.0000000000000000  -0.0000000000000000  0.1597019711771827  T  T  T
0.6666666666666643  0.3333333333333357  0.2330357813475519  T  T  T
0.3333333333333357  0.6666666666666643  0.0000000000000000  T  T  T
0.6666666666666643  0.3333333333333357  0.3194039423543580  T  T  T

0.00000000E+00  0.00000000E+00  0.00000000E+00
0.00000000E+00  0.00000000E+00  0.00000000E+00
0.00000000E+00  0.00000000E+00  0.00000000E+00
0.00000000E+00  0.00000000E+00  0.00000000E+00
0.00000000E+00  0.00000000E+00  0.00000000E+00
0.00000000E+00  0.00000000E+00  0.00000000E+00
0.00000000E+00  0.00000000E+00  0.00000000E+00
0.00000000E+00  0.00000000E+00  0.00000000E+00
0.00000000E+00  0.00000000E+00  0.00000000E+00
