Ti4N3  (n=3)
1.00000000000000
3.1094168491343583  0.0000000000000000  0.0000000000000000
-1.5547084245671792  2.6928339825873042  0.0000000000000000
-0.0000000000000004  0.0000000000000004  35.8933922443449021
Ti  N  Br
4  3  2
Selective  dynamics
Direct
-0.0000000000000000  -0.0000000000000000  0.0527549616279658  T  T  T
0.6666666666666643  0.3333333333333357  0.1174245045482610  T  T  T
0.3333333333333357  0.6666666666666643  0.1860684662522680  T  T  T
0.0000000000000000  0.0000000000000000  0.2507380091725631  T  T  T
0.3333333333333357  0.6666666666666643  0.0846445960824585  T  T  T
0.0000000000000000  0.0000000000000000  0.1517464854002610  T  T  T
0.6666666666666643  0.3333333333333357  0.2188483747180635  T  T  T
0.3333333333333357  0.6666666666666643  0.0000000000000000  T  T  T
0.6666666666666643  0.3333333333333357  0.3034929708005291  T  T  T

0.00000000E+00  0.00000000E+00  0.00000000E+00
0.00000000E+00  0.00000000E+00  0.00000000E+00
0.00000000E+00  0.00000000E+00  0.00000000E+00
0.00000000E+00  0.00000000E+00  0.00000000E+00
0.00000000E+00  0.00000000E+00  0.00000000E+00
0.00000000E+00  0.00000000E+00  0.00000000E+00
0.00000000E+00  0.00000000E+00  0.00000000E+00
0.00000000E+00  0.00000000E+00  0.00000000E+00
0.00000000E+00  0.00000000E+00  0.00000000E+00
