Ta4C3  (n=3)
1.00000000000000
3.2053325553395426  -0.0000000000000004  0.0000000000000000
-1.6026662776697713  2.7758994213970558  -0.0000000000000001
0.0000000000000010  -0.0000000000000009  36.6027921275403116
Ta  C  Br
4  3  2
Selective  dynamics
Direct
0.0000000000000000  0.0000000000000000  0.0552307492141336  T  T  T
0.6666666666666643  0.3333333333333357  0.1232911349542786  T  T  T
0.3333333333333357  0.6666666666666643  0.1937008608232927  T  T  T
0.0000000000000000  0.0000000000000000  0.2617612465634303  T  T  T
0.3333333333333357  0.6666666666666643  0.0872007596774660  T  T  T
0.0000000000000000  0.0000000000000000  0.1584959978887857  T  T  T
0.6666666666666643  0.3333333333333357  0.2297912361000979  T  T  T
0.3333333333333357  0.6666666666666643  0.0000000000000000  T  T  T
0.6666666666666643  0.3333333333333357  0.3169919957775640  T  T  T

0.00000000E+00  0.00000000E+00  0.00000000E+00
0.00000000E+00  0.00000000E+00  0.00000000E+00
0.00000000E+00  0.00000000E+00  0.00000000E+00
0.00000000E+00  0.00000000E+00  0.00000000E+00
0.00000000E+00  0.00000000E+00  0.00000000E+00
0.00000000E+00  0.00000000E+00  0.00000000E+00
0.00000000E+00  0.00000000E+00  0.00000000E+00
0.00000000E+00  0.00000000E+00  0.00000000E+00
0.00000000E+00  0.00000000E+00  0.00000000E+00
