Mo4N3  (n=3)
1.00000000000000
3.2639754616447867  0.0000000000000002  -0.0000000000000002
-1.6319877308223933  2.8266856677533383  0.0000000000000000
-0.0000000000000025  -0.0000000000000004  35.7966359035000465
Mo  N  Br
4  3  2
Selective  dynamics
Direct
0.0000000000000000  0.0000000000000000  0.0590427022222023  T  T  T
0.6666666666666643  0.3333333333333357  0.1154273109114118  T  T  T
0.3333333333333357  0.6666666666666643  0.1861830396423568  T  T  T
-0.0000000000000000  -0.0000000000000000  0.2425676483315662  T  T  T
0.3333333333333357  0.6666666666666643  0.0810244824100793  T  T  T
-0.0000000000000000  -0.0000000000000000  0.1508051752768842  T  T  T
0.6666666666666643  0.3333333333333357  0.2205858681436771  T  T  T
0.3333333333333357  0.6666666666666643  0.0000000000000000  T  T  T
0.6666666666666643  0.3333333333333357  0.3016103505537623  T  T  T

0.00000000E+00  0.00000000E+00  0.00000000E+00
0.00000000E+00  0.00000000E+00  0.00000000E+00
0.00000000E+00  0.00000000E+00  0.00000000E+00
0.00000000E+00  0.00000000E+00  0.00000000E+00
0.00000000E+00  0.00000000E+00  0.00000000E+00
0.00000000E+00  0.00000000E+00  0.00000000E+00
0.00000000E+00  0.00000000E+00  0.00000000E+00
0.00000000E+00  0.00000000E+00  0.00000000E+00
0.00000000E+00  0.00000000E+00  0.00000000E+00
