Mo4C3  (n=3)
1.00000000000000
3.1834952924352753  -0.0000000000000000  0.0000000000000001
-1.5917476462176376  2.7569877967668135  -0.0000000000000002
-0.0000000000000002  -0.0000000000000022  36.2611962667798906
Mo  C  Br
4  3  2
Selective  dynamics
Direct
-0.0000000000000000  -0.0000000000000000  0.0570717844793417  T  T  T
0.6666666666666643  0.3333333333333357  0.1199556163673740  T  T  T
0.3333333333333357  0.6666666666666643  0.1906021540914270  T  T  T
0.0000000000000000  0.0000000000000000  0.2534859859794521  T  T  T
0.3333333333333357  0.6666666666666643  0.0841198461253004  T  T  T
-0.0000000000000000  -0.0000000000000000  0.1552788852293968  T  T  T
0.6666666666666643  0.3333333333333357  0.2264379243334934  T  T  T
0.3333333333333357  0.6666666666666643  0.0000000000000000  T  T  T
0.6666666666666643  0.3333333333333357  0.3105577704587936  T  T  T

0.00000000E+00  0.00000000E+00  0.00000000E+00
0.00000000E+00  0.00000000E+00  0.00000000E+00
0.00000000E+00  0.00000000E+00  0.00000000E+00
0.00000000E+00  0.00000000E+00  0.00000000E+00
0.00000000E+00  0.00000000E+00  0.00000000E+00
0.00000000E+00  0.00000000E+00  0.00000000E+00
0.00000000E+00  0.00000000E+00  0.00000000E+00
0.00000000E+00  0.00000000E+00  0.00000000E+00
0.00000000E+00  0.00000000E+00  0.00000000E+00
