Sc4C3  (n=3)
1.00000000000000
3.4081919682626189  0.0000000000000002  -0.0000000000000001
-1.7040959841313092  2.9515808272748894  -0.0000000000000003
-0.0000000000000023  -0.0000000000000066  36.6911395126451367
Sc  C  Br
4  3  2
Selective  dynamics
Direct
-0.0000000000000000  -0.0000000000000000  0.0526512226540972  T  T  T
0.6666666666666643  0.3333333333333357  0.1221316383626771  T  T  T
0.3333333333333357  0.6666666666666643  0.1965049498690930  T  T  T
0.0000000000000000  0.0000000000000000  0.2659853655776653  T  T  T
0.3333333333333357  0.6666666666666643  0.0864754987145143  T  T  T
-0.0000000000000000  0.0000000000000000  0.1593182941158850  T  T  T
0.6666666666666643  0.3333333333333357  0.2321610895172482  T  T  T
0.3333333333333357  0.6666666666666643  0.0000000000000000  T  T  T
0.6666666666666643  0.3333333333333357  0.3186365882317702  T  T  T

0.00000000E+00  0.00000000E+00  0.00000000E+00
0.00000000E+00  0.00000000E+00  0.00000000E+00
0.00000000E+00  0.00000000E+00  0.00000000E+00
0.00000000E+00  0.00000000E+00  0.00000000E+00
0.00000000E+00  0.00000000E+00  0.00000000E+00
0.00000000E+00  0.00000000E+00  0.00000000E+00
0.00000000E+00  0.00000000E+00  0.00000000E+00
0.00000000E+00  0.00000000E+00  0.00000000E+00
0.00000000E+00  0.00000000E+00  0.00000000E+00
