Ti4C3  (n=3)
1.00000000000000
3.1436640677066041  -0.0000000000000000  0.0000000000000001
-1.5718320338533023  2.7224929440742884  0.0000000000000001
0.0000000000000005  -0.0000000000000010  35.9583330561018073
Ti  C  Se
4  3  2
Selective  dynamics
Direct
-0.0000000000000000  -0.0000000000000000  0.0519905872127472  T  T  T
0.6666666666666643  0.3333333333333357  0.1194125888800446  T  T  T
0.3333333333333357  0.6666666666666643  0.1868382000144882  T  T  T
0.0000000000000000  0.0000000000000000  0.2541928943260212  T  T  T
0.3333333333333357  0.6666666666666643  0.0842276875089320  T  T  T
0.0000000000000000  0.0000000000000000  0.1534490444591783  T  T  T
0.6666666666666643  0.3333333333333357  0.2230444408081626  T  T  T
0.3333333333333357  0.6666666666666643  0.0000000000000000  T  T  T
0.3333333333333357  0.6666666666666643  0.3047508637011825  T  T  T

0.00000000E+00  0.00000000E+00  0.00000000E+00
0.00000000E+00  0.00000000E+00  0.00000000E+00
0.00000000E+00  0.00000000E+00  0.00000000E+00
0.00000000E+00  0.00000000E+00  0.00000000E+00
0.00000000E+00  0.00000000E+00  0.00000000E+00
0.00000000E+00  0.00000000E+00  0.00000000E+00
0.00000000E+00  0.00000000E+00  0.00000000E+00
0.00000000E+00  0.00000000E+00  0.00000000E+00
0.00000000E+00  0.00000000E+00  0.00000000E+00
