Ta4N3  (n=3)
1.00000000000000
3.1867946595327714  -0.0000000000000002  0.0000000000000000
-1.5933973297663859  2.7598451324874147  0.0000000000000001
-0.0000000000000001  0.0000000000000008  36.1873188759915791
Ta  N  Se
4  3  2
Selective  dynamics
Direct
-0.0000000000000000  -0.0000000000000000  0.0497469898481939  T  T  T
0.6666666666666643  0.3333333333333357  0.1215991273031323  T  T  T
0.3333333333333357  0.6666666666666643  0.1897809084737076  T  T  T
0.0000000000000000  -0.0000000000000000  0.2591932701841620  T  T  T
0.3333333333333357  0.6666666666666643  0.0864785120820298  T  T  T
0.0000000000000000  -0.0000000000000000  0.1547614428782916  T  T  T
0.6666666666666643  0.3333333333333357  0.2234088641828185  T  T  T
0.3333333333333357  0.6666666666666643  0.0000000000000000  T  T  T
0.3333333333333357  0.6666666666666643  0.3091502554894662  T  T  T

0.00000000E+00  0.00000000E+00  0.00000000E+00
0.00000000E+00  0.00000000E+00  0.00000000E+00
0.00000000E+00  0.00000000E+00  0.00000000E+00
0.00000000E+00  0.00000000E+00  0.00000000E+00
0.00000000E+00  0.00000000E+00  0.00000000E+00
0.00000000E+00  0.00000000E+00  0.00000000E+00
0.00000000E+00  0.00000000E+00  0.00000000E+00
0.00000000E+00  0.00000000E+00  0.00000000E+00
0.00000000E+00  0.00000000E+00  0.00000000E+00
