Sc4N3  (n=3)
1.00000000000000
3.2346181891298085  -0.0000000000000001  0.0000000000000000
-1.6173090945649042  2.8012615243833503  -0.0000000000000003
-0.0000000000000003  -0.0000000000000014  36.6731612101639897
Sc  N  Se
4  3  2
Selective  dynamics
Direct
0.0000000000000000  -0.0000000000000000  0.0547676505386375  T  T  T
0.6666666666666643  0.3333333333333357  0.1251730997976426  T  T  T
0.3333333333333357  0.6666666666666643  0.1950643863001925  T  T  T
-0.0000000000000000  0.0000000000000000  0.2648694418852272  T  T  T
0.3333333333333357  0.6666666666666643  0.0889052844312670  T  T  T
-0.0000000000000000  -0.0000000000000000  0.1603212046423395  T  T  T
0.6666666666666643  0.3333333333333357  0.2319690936997298  T  T  T
0.3333333333333357  0.6666666666666643  0.0000000000000000  T  T  T
0.3333333333333357  0.6666666666666643  0.3183025630997081  T  T  T

0.00000000E+00  0.00000000E+00  0.00000000E+00
0.00000000E+00  0.00000000E+00  0.00000000E+00
0.00000000E+00  0.00000000E+00  0.00000000E+00
0.00000000E+00  0.00000000E+00  0.00000000E+00
0.00000000E+00  0.00000000E+00  0.00000000E+00
0.00000000E+00  0.00000000E+00  0.00000000E+00
0.00000000E+00  0.00000000E+00  0.00000000E+00
0.00000000E+00  0.00000000E+00  0.00000000E+00
0.00000000E+00  0.00000000E+00  0.00000000E+00
