Hf4N3  (n=3)
1.00000000000000
3.3090477045400628  0.0000000000000000  0.0000000000000000
-1.6545238522700316  2.8657193756840291  -0.0000000000000001
-0.0000000000000002  -0.0000000000000020  36.3153708234682426
Hf  N  Se
4  3  2
Selective  dynamics
Direct
0.0000000000000000  -0.0000000000000000  0.0496676868851208  T  T  T
0.6666666666666643  0.3333333333333357  0.1193525850840685  T  T  T
0.3333333333333357  0.6666666666666643  0.1925014301945822  T  T  T
0.0000000000000000  -0.0000000000000000  0.2616455640968373  T  T  T
0.3333333333333357  0.6666666666666643  0.0870632829488275  T  T  T
-0.0000000000000000  -0.0000000000000000  0.1561565168861398  T  T  T
0.6666666666666643  0.3333333333333357  0.2270074126985741  T  T  T
0.3333333333333357  0.6666666666666643  0.0000000000000000  T  T  T
0.3333333333333357  0.6666666666666643  0.3115862668310098  T  T  T

0.00000000E+00  0.00000000E+00  0.00000000E+00
0.00000000E+00  0.00000000E+00  0.00000000E+00
0.00000000E+00  0.00000000E+00  0.00000000E+00
0.00000000E+00  0.00000000E+00  0.00000000E+00
0.00000000E+00  0.00000000E+00  0.00000000E+00
0.00000000E+00  0.00000000E+00  0.00000000E+00
0.00000000E+00  0.00000000E+00  0.00000000E+00
0.00000000E+00  0.00000000E+00  0.00000000E+00
0.00000000E+00  0.00000000E+00  0.00000000E+00
