Sc4C3  (n=3)
1.00000000000000
3.5526185313496748  0.0000000000000010  0.0000000000000002
-1.7763092656748360  3.0766578998929908  -0.0000000000000011
0.0000000000000038  -0.0000000000000072  35.6200375135625862
Sc  C  Se
4  3  2
Selective  dynamics
Direct
-0.0000000000000000  -0.0000000000000000  0.0426388970889736  T  T  T
0.6666666666666643  0.3333333333333357  0.1076343134679478  T  T  T
0.3333333333333357  0.6666666666666643  0.1764240666011840  T  T  T
-0.0000000000000000  0.0000000000000000  0.2480468573173874  T  T  T
0.3333333333333357  0.6666666666666643  0.0654813264528742  T  T  T
-0.0000000000000000  0.0000000000000000  0.1381145377355747  T  T  T
0.6666666666666643  0.3333333333333357  0.2127776854090802  T  T  T
0.3333333333333357  0.6666666666666643  0.0000000000000000  T  T  T
0.3333333333333357  0.6666666666666643  0.2981478475287662  T  T  T

0.00000000E+00  0.00000000E+00  0.00000000E+00
0.00000000E+00  0.00000000E+00  0.00000000E+00
0.00000000E+00  0.00000000E+00  0.00000000E+00
0.00000000E+00  0.00000000E+00  0.00000000E+00
0.00000000E+00  0.00000000E+00  0.00000000E+00
0.00000000E+00  0.00000000E+00  0.00000000E+00
0.00000000E+00  0.00000000E+00  0.00000000E+00
0.00000000E+00  0.00000000E+00  0.00000000E+00
0.00000000E+00  0.00000000E+00  0.00000000E+00
