Cr4C3  (n=3)
1.00000000000000
2.9865025284264584  0.0000000000000000  0.0000000000000000
-1.4932512642132294  2.5863870580561321  0.0000000000000006
-0.0000000000000007  0.0000000000000068  35.2230608782059704
Cr  C  Se
4  3  2
Selective  dynamics
Direct
0.0000000000000000  0.0000000000000000  0.0486141187178113  T  T  T
0.6666666666666643  0.3333333333333357  0.1134701906904139  T  T  T
0.3333333333333357  0.6666666666666643  0.1790909179927165  T  T  T
-0.0000000000000000  -0.0000000000000000  0.2383688256430739  T  T  T
0.3333333333333357  0.6666666666666643  0.0788089164371720  T  T  T
-0.0000000000000000  0.0000000000000000  0.1453290299681629  T  T  T
0.6666666666666643  0.3333333333333357  0.2110616230745423  T  T  T
0.3333333333333357  0.6666666666666643  0.0000000000000000  T  T  T
0.3333333333333357  0.6666666666666643  0.2902377199288610  T  T  T

0.00000000E+00  0.00000000E+00  0.00000000E+00
0.00000000E+00  0.00000000E+00  0.00000000E+00
0.00000000E+00  0.00000000E+00  0.00000000E+00
0.00000000E+00  0.00000000E+00  0.00000000E+00
0.00000000E+00  0.00000000E+00  0.00000000E+00
0.00000000E+00  0.00000000E+00  0.00000000E+00
0.00000000E+00  0.00000000E+00  0.00000000E+00
0.00000000E+00  0.00000000E+00  0.00000000E+00
0.00000000E+00  0.00000000E+00  0.00000000E+00
