Nb4C3  (n=3)
1.00000000000000
3.2405606777317373  0.0000000000000003  -0.0000000000000001
-1.6202803388658686  2.8064078704552080  0.0000000000000001
-0.0000000000000003  0.0000000000000020  36.3057304032654997
Nb  C  Se
4  3  2
Selective  dynamics
Direct
0.0000000000000000  0.0000000000000000  0.0509861719830827  T  T  T
0.6666666666666643  0.3333333333333357  0.1187170363538421  T  T  T
0.3333333333333357  0.6666666666666643  0.1928889153234283  T  T  T
-0.0000000000000000  -0.0000000000000000  0.2603426270099169  T  T  T
0.3333333333333357  0.6666666666666643  0.0848556595827030  T  T  T
-0.0000000000000000  -0.0000000000000000  0.1557983296944112  T  T  T
0.6666666666666643  0.3333333333333357  0.2272640206847581  T  T  T
0.3333333333333357  0.6666666666666643  0.0000000000000000  T  T  T
0.3333333333333357  0.6666666666666643  0.3114034693060084  T  T  T

0.00000000E+00  0.00000000E+00  0.00000000E+00
0.00000000E+00  0.00000000E+00  0.00000000E+00
0.00000000E+00  0.00000000E+00  0.00000000E+00
0.00000000E+00  0.00000000E+00  0.00000000E+00
0.00000000E+00  0.00000000E+00  0.00000000E+00
0.00000000E+00  0.00000000E+00  0.00000000E+00
0.00000000E+00  0.00000000E+00  0.00000000E+00
0.00000000E+00  0.00000000E+00  0.00000000E+00
0.00000000E+00  0.00000000E+00  0.00000000E+00
