Mo4N3  (n=3)
1.00000000000000
3.0166774629356379  -0.0000000000000001  -0.0000000000000001
-1.5083387314678189  2.6125193181779718  0.0000000000000002
-0.0000000000000008  0.0000000000000000  36.7796397899642216
Mo  N  Se
4  3  2
Selective  dynamics
Direct
-0.0000000000000000  0.0000000000000000  0.0492090683340215  T  T  T
0.6666666666666643  0.3333333333333357  0.1235422167282647  T  T  T
0.3333333333333357  0.6666666666666643  0.1968655658352245  T  T  T
0.0000000000000000  -0.0000000000000000  0.2701677883650583  T  T  T
0.3333333333333357  0.6666666666666643  0.0841803375666598  T  T  T
-0.0000000000000000  -0.0000000000000000  0.1580950812443954  T  T  T
0.6666666666666643  0.3333333333333357  0.2318998197954293  T  T  T
0.3333333333333357  0.6666666666666643  0.0000000000000000  T  T  T
0.3333333333333357  0.6666666666666643  0.3202761054005330  T  T  T

0.00000000E+00  0.00000000E+00  0.00000000E+00
0.00000000E+00  0.00000000E+00  0.00000000E+00
0.00000000E+00  0.00000000E+00  0.00000000E+00
0.00000000E+00  0.00000000E+00  0.00000000E+00
0.00000000E+00  0.00000000E+00  0.00000000E+00
0.00000000E+00  0.00000000E+00  0.00000000E+00
0.00000000E+00  0.00000000E+00  0.00000000E+00
0.00000000E+00  0.00000000E+00  0.00000000E+00
0.00000000E+00  0.00000000E+00  0.00000000E+00
