Mo4C3  (n=3)
1.00000000000000
3.1397130451357933  -0.0000000000000000  -0.0000000000000001
-1.5698565225678969  2.7190712582966259  -0.0000000000000001
-0.0000000000000005  -0.0000000000000022  36.0939949052296356
Mo  C  Se
4  3  2
Selective  dynamics
Direct
-0.0000000000000000  -0.0000000000000000  0.0500159727287995  T  T  T
0.6666666666666643  0.3333333333333357  0.1200694763330256  T  T  T
0.3333333333333357  0.6666666666666643  0.1896519102492159  T  T  T
0.0000000000000000  0.0000000000000000  0.2548973695992744  T  T  T
0.3333333333333357  0.6666666666666643  0.0824363391618908  T  T  T
-0.0000000000000000  -0.0000000000000000  0.1532694262305832  T  T  T
0.6666666666666643  0.3333333333333357  0.2237025266087903  T  T  T
0.3333333333333357  0.6666666666666643  0.0000000000000000  T  T  T
0.3333333333333357  0.6666666666666643  0.3073640070698364  T  T  T

0.00000000E+00  0.00000000E+00  0.00000000E+00
0.00000000E+00  0.00000000E+00  0.00000000E+00
0.00000000E+00  0.00000000E+00  0.00000000E+00
0.00000000E+00  0.00000000E+00  0.00000000E+00
0.00000000E+00  0.00000000E+00  0.00000000E+00
0.00000000E+00  0.00000000E+00  0.00000000E+00
0.00000000E+00  0.00000000E+00  0.00000000E+00
0.00000000E+00  0.00000000E+00  0.00000000E+00
0.00000000E+00  0.00000000E+00  0.00000000E+00
