Ti4N3  (n=3)
1.00000000000000
3.1014527206163920  -0.0000000000000003  0.0000000000000000
-1.5507263603081962  2.6859368449575545  0.0000000000000001
0.0000000000000002  0.0000000000000008  35.7298977251601428
Ti  N  Se
4  3  2
Selective  dynamics
Direct
-0.0000000000000000  -0.0000000000000000  0.0508274391637265  T  T  T
0.6666666666666643  0.3333333333333357  0.1158067247237591  T  T  T
0.3333333333333357  0.6666666666666643  0.1847410746909014  T  T  T
-0.0000000000000000  -0.0000000000000000  0.2498618009693413  T  T  T
0.3333333333333357  0.6666666666666643  0.0838631556878286  T  T  T
-0.0000000000000000  -0.0000000000000000  0.1506123671161967  T  T  T
0.6666666666666643  0.3333333333333357  0.2184448556652088  T  T  T
0.3333333333333357  0.6666666666666643  0.0000000000000000  T  T  T
0.3333333333333357  0.6666666666666643  0.3003058617098813  T  T  T

0.00000000E+00  0.00000000E+00  0.00000000E+00
0.00000000E+00  0.00000000E+00  0.00000000E+00
0.00000000E+00  0.00000000E+00  0.00000000E+00
0.00000000E+00  0.00000000E+00  0.00000000E+00
0.00000000E+00  0.00000000E+00  0.00000000E+00
0.00000000E+00  0.00000000E+00  0.00000000E+00
0.00000000E+00  0.00000000E+00  0.00000000E+00
0.00000000E+00  0.00000000E+00  0.00000000E+00
0.00000000E+00  0.00000000E+00  0.00000000E+00
