Zr4C3  (n=3)
1.00000000000000
3.3991989722871874  -0.0000000000000000  -0.0000000000000001
-1.6995994861435944  2.9437926644591279  0.0000000000000000
-0.0000000000000012  0.0000000000000018  36.8026725319912131
Zr  C  Se
4  3  2
Selective  dynamics
Direct
0.0000000000000000  0.0000000000000000  0.0515185738346891  T  T  T
0.6666666666666643  0.3333333333333357  0.1242526797377924  T  T  T
0.3333333333333357  0.6666666666666643  0.1967090492702862  T  T  T
-0.0000000000000000  -0.0000000000000000  0.2693523672886649  T  T  T
0.3333333333333357  0.6666666666666643  0.0871765044491839  T  T  T
-0.0000000000000000  -0.0000000000000000  0.1611065319006273  T  T  T
0.6666666666666643  0.3333333333333357  0.2356391156845259  T  T  T
0.3333333333333357  0.6666666666666643  0.0000000000000000  T  T  T
0.3333333333333357  0.6666666666666643  0.3207015067107310  T  T  T

0.00000000E+00  0.00000000E+00  0.00000000E+00
0.00000000E+00  0.00000000E+00  0.00000000E+00
0.00000000E+00  0.00000000E+00  0.00000000E+00
0.00000000E+00  0.00000000E+00  0.00000000E+00
0.00000000E+00  0.00000000E+00  0.00000000E+00
0.00000000E+00  0.00000000E+00  0.00000000E+00
0.00000000E+00  0.00000000E+00  0.00000000E+00
0.00000000E+00  0.00000000E+00  0.00000000E+00
0.00000000E+00  0.00000000E+00  0.00000000E+00
