Zr4N3  (n=3)
1.00000000000000
3.3520445435577653  0.0000000000000000  0.0000000000000000
-1.6760222717788826  2.9029557307583924  0.0000000000000000
-0.0000000000000003  -0.0000000000000015  36.5158546687565746
Zr  N  Se
4  3  2
Selective  dynamics
Direct
0.0000000000000000  0.0000000000000000  0.0502406161755702  T  T  T
0.6666666666666643  0.3333333333333357  0.1207095424997371  T  T  T
0.3333333333333357  0.6666666666666643  0.1946817206035006  T  T  T
-0.0000000000000000  -0.0000000000000000  0.2648092559643489  T  T  T
0.3333333333333357  0.6666666666666643  0.0875049198012584  T  T  T
0.0000000000000000  0.0000000000000000  0.1578983147563487  T  T  T
0.6666666666666643  0.3333333333333357  0.2299175678206295  T  T  T
0.3333333333333357  0.6666666666666643  0.0000000000000000  T  T  T
0.3333333333333357  0.6666666666666643  0.3153658807446642  T  T  T

0.00000000E+00  0.00000000E+00  0.00000000E+00
0.00000000E+00  0.00000000E+00  0.00000000E+00
0.00000000E+00  0.00000000E+00  0.00000000E+00
0.00000000E+00  0.00000000E+00  0.00000000E+00
0.00000000E+00  0.00000000E+00  0.00000000E+00
0.00000000E+00  0.00000000E+00  0.00000000E+00
0.00000000E+00  0.00000000E+00  0.00000000E+00
0.00000000E+00  0.00000000E+00  0.00000000E+00
0.00000000E+00  0.00000000E+00  0.00000000E+00
