Hf4C3  (n=3)
1.00000000000000
3.3520330856925944  0.0000000000000000  -0.0000000000000003
-1.6760165428462972  2.9029458084534938  -0.0000000000000001
-0.0000000000000011  0.0000000000000006  36.6234838269919791
Hf  C  Se
4  3  2
Selective  dynamics
Direct
0.0000000000000000  -0.0000000000000000  0.0512459393431159  T  T  T
0.6666666666666643  0.3333333333333357  0.1230887186049784  T  T  T
0.3333333333333357  0.6666666666666643  0.1946016169497880  T  T  T
-0.0000000000000000  -0.0000000000000000  0.2663039123209968  T  T  T
0.3333333333333357  0.6666666666666643  0.0865658332422567  T  T  T
-0.0000000000000000  -0.0000000000000000  0.1595493728729861  T  T  T
0.6666666666666643  0.3333333333333357  0.2331465598482625  T  T  T
0.3333333333333357  0.6666666666666643  0.0000000000000000  T  T  T
0.3333333333333357  0.6666666666666643  0.3173778846900775  T  T  T

0.00000000E+00  0.00000000E+00  0.00000000E+00
0.00000000E+00  0.00000000E+00  0.00000000E+00
0.00000000E+00  0.00000000E+00  0.00000000E+00
0.00000000E+00  0.00000000E+00  0.00000000E+00
0.00000000E+00  0.00000000E+00  0.00000000E+00
0.00000000E+00  0.00000000E+00  0.00000000E+00
0.00000000E+00  0.00000000E+00  0.00000000E+00
0.00000000E+00  0.00000000E+00  0.00000000E+00
0.00000000E+00  0.00000000E+00  0.00000000E+00
