Nb4N3  (n=3)
1.00000000000000
3.2201731136915361  -0.0000000000000001  0.0000000000000000
-1.6100865568457681  2.7887517217488780  0.0000000000000000
0.0000000000000001  0.0000000000000002  36.1370312615807734
Nb  N  Se
4  3  2
Selective  dynamics
Direct
-0.0000000000000000  -0.0000000000000000  0.0501425580550769  T  T  T
0.6666666666666643  0.3333333333333357  0.1212932721438143  T  T  T
0.3333333333333357  0.6666666666666643  0.1900974420561927  T  T  T
-0.0000000000000000  -0.0000000000000000  0.2578624635508370  T  T  T
0.3333333333333357  0.6666666666666643  0.0856558554267886  T  T  T
-0.0000000000000000  0.0000000000000000  0.1543648177812959  T  T  T
0.6666666666666643  0.3333333333333357  0.2234143656395310  T  T  T
0.3333333333333357  0.6666666666666643  0.0000000000000000  T  T  T
0.3333333333333357  0.6666666666666643  0.3081888819522691  T  T  T

0.00000000E+00  0.00000000E+00  0.00000000E+00
0.00000000E+00  0.00000000E+00  0.00000000E+00
0.00000000E+00  0.00000000E+00  0.00000000E+00
0.00000000E+00  0.00000000E+00  0.00000000E+00
0.00000000E+00  0.00000000E+00  0.00000000E+00
0.00000000E+00  0.00000000E+00  0.00000000E+00
0.00000000E+00  0.00000000E+00  0.00000000E+00
0.00000000E+00  0.00000000E+00  0.00000000E+00
0.00000000E+00  0.00000000E+00  0.00000000E+00
