Ta4C3  (n=3)
1.00000000000000
3.2302654876701569  -0.0000000000000001  0.0000000000000000
-1.6151327438350784  2.7974919740464834  -0.0000000000000001
0.0000000000000003  -0.0000000000000019  36.2197135815695717
Ta  C  Se
4  3  2
Selective  dynamics
Direct
-0.0000000000000000  -0.0000000000000000  0.0506015323918754  T  T  T
0.6666666666666643  0.3333333333333357  0.1181457432154860  T  T  T
0.3333333333333357  0.6666666666666643  0.1920918764288791  T  T  T
0.0000000000000000  0.0000000000000000  0.2591328474830941  T  T  T
0.3333333333333357  0.6666666666666643  0.0848993949245344  T  T  T
0.0000000000000000  0.0000000000000000  0.1550615201837229  T  T  T
0.6666666666666643  0.3333333333333357  0.2261263532278175  T  T  T
0.3333333333333357  0.6666666666666643  0.0000000000000000  T  T  T
0.3333333333333357  0.6666666666666643  0.3097681475669849  T  T  T

0.00000000E+00  0.00000000E+00  0.00000000E+00
0.00000000E+00  0.00000000E+00  0.00000000E+00
0.00000000E+00  0.00000000E+00  0.00000000E+00
0.00000000E+00  0.00000000E+00  0.00000000E+00
0.00000000E+00  0.00000000E+00  0.00000000E+00
0.00000000E+00  0.00000000E+00  0.00000000E+00
0.00000000E+00  0.00000000E+00  0.00000000E+00
0.00000000E+00  0.00000000E+00  0.00000000E+00
0.00000000E+00  0.00000000E+00  0.00000000E+00
