Cr4N3  (n=3)
1.00000000000000
2.9910634152948563  0.0000000000000000  0.0000000000000000
-1.4955317076474282  2.5903369020454985  0.0000000000000000
-0.0000000000000001  0.0000000000000019  35.2235165750457213
Cr  N  Se
4  3  2
Selective  dynamics
Direct
-0.0000000000000000  -0.0000000000000000  0.0483877027281798  T  T  T
0.6666666666666643  0.3333333333333357  0.1137699801687054  T  T  T
0.3333333333333357  0.6666666666666643  0.1804363827591028  T  T  T
0.0000000000000000  0.0000000000000000  0.2380318899536971  T  T  T
0.3333333333333357  0.6666666666666643  0.0801378981254483  T  T  T
-0.0000000000000000  -0.0000000000000000  0.1467798825382193  T  T  T
0.6666666666666643  0.3333333333333357  0.2126987297566390  T  T  T
0.3333333333333357  0.6666666666666643  0.0000000000000000  T  T  T
0.3333333333333357  0.6666666666666643  0.2902469023291282  T  T  T

0.00000000E+00  0.00000000E+00  0.00000000E+00
0.00000000E+00  0.00000000E+00  0.00000000E+00
0.00000000E+00  0.00000000E+00  0.00000000E+00
0.00000000E+00  0.00000000E+00  0.00000000E+00
0.00000000E+00  0.00000000E+00  0.00000000E+00
0.00000000E+00  0.00000000E+00  0.00000000E+00
0.00000000E+00  0.00000000E+00  0.00000000E+00
0.00000000E+00  0.00000000E+00  0.00000000E+00
0.00000000E+00  0.00000000E+00  0.00000000E+00
