Ti3N2  (n=2)
1.00000000000000
2.8599487420088487  0.0000000000000000  0.0000000000000000
-1.4299743710044244  2.4767882641451560  0.0000000000000000
0.0000000000000000  0.0000000000000000  33.0044214689962701
Ti  N  F
3  2  2
Selective  dynamics
Direct
-0.0000000000000000  0.0000000000000000  0.0398475845981057  T  T  T
-0.0000000000000000  0.0000000000000000  0.1212628658938239  T  T  T
-0.0000000000000000  0.0000000000000000  0.2026781471895421  T  T  T
0.3333333333333357  0.6666666666666643  0.0789911205197223  T  T  T
0.3333333333333357  0.6666666666666643  0.1635346112679177  T  T  T
0.3333333333333357  0.6666666666666643  0.0000000000000000  T  T  T
0.3333333333333357  0.6666666666666643  0.2425257317876477  T  T  T

0.00000000E+00  0.00000000E+00  0.00000000E+00
0.00000000E+00  0.00000000E+00  0.00000000E+00
0.00000000E+00  0.00000000E+00  0.00000000E+00
0.00000000E+00  0.00000000E+00  0.00000000E+00
0.00000000E+00  0.00000000E+00  0.00000000E+00
0.00000000E+00  0.00000000E+00  0.00000000E+00
0.00000000E+00  0.00000000E+00  0.00000000E+00
