Zr3N2  (n=2)
1.00000000000000
3.1048609872647250  0.0000000000000001  0.0000000000000000
-1.5524304936323625  2.6888884903994543  0.0000000000000000
0.0000000000000000  0.0000000000000000  33.6613101209605077
Zr  N  F
3  2  2
Selective  dynamics
Direct
-0.0000000000000000  0.0000000000000000  0.0416483922282829  T  T  T
-0.0000000000000000  0.0000000000000000  0.1286537881299953  T  T  T
-0.0000000000000000  0.0000000000000000  0.2156591840317156  T  T  T
0.3333333333333357  0.6666666666666643  0.0838160107749025  T  T  T
0.3333333333333357  0.6666666666666643  0.1734915654850960  T  T  T
0.3333333333333357  0.6666666666666643  0.0000000000000000  T  T  T
0.3333333333333357  0.6666666666666643  0.2573075762599984  T  T  T

0.00000000E+00  0.00000000E+00  0.00000000E+00
0.00000000E+00  0.00000000E+00  0.00000000E+00
0.00000000E+00  0.00000000E+00  0.00000000E+00
0.00000000E+00  0.00000000E+00  0.00000000E+00
0.00000000E+00  0.00000000E+00  0.00000000E+00
0.00000000E+00  0.00000000E+00  0.00000000E+00
0.00000000E+00  0.00000000E+00  0.00000000E+00
