Mo3N2  (n=2)
1.00000000000000
2.8177763340842916  0.0000000000000001  0.0000000000000000
-1.4088881670421456  2.4402658875706207  0.0000000000000000
0.0000000000000000  0.0000000000000000  33.8930387540046567
Mo  N  F
3  2  2
Selective  dynamics
Direct
-0.0000000000000000  -0.0000000000000000  0.0469104996530096  T  T  T
-0.0000000000000000  -0.0000000000000000  0.1311927032944766  T  T  T
-0.0000000000000000  -0.0000000000000000  0.2154749069359437  T  T  T
0.3333333333333357  0.6666666666666643  0.0874227945749527  T  T  T
0.3333333333333357  0.6666666666666643  0.1749626120139929  T  T  T
0.3333333333333357  0.6666666666666643  0.0000000000000000  T  T  T
0.3333333333333357  0.6666666666666643  0.2623854065889531  T  T  T

0.00000000E+00  0.00000000E+00  0.00000000E+00
0.00000000E+00  0.00000000E+00  0.00000000E+00
0.00000000E+00  0.00000000E+00  0.00000000E+00
0.00000000E+00  0.00000000E+00  0.00000000E+00
0.00000000E+00  0.00000000E+00  0.00000000E+00
0.00000000E+00  0.00000000E+00  0.00000000E+00
0.00000000E+00  0.00000000E+00  0.00000000E+00
