Sc3N2  (n=2)
1.00000000000000
3.0696073746051513  -0.0000000000000002  0.0000000000000000
-1.5348036873025757  2.6583579661055965  0.0000000000000000
0.0000000000000000  0.0000000000000000  33.1509794377846774
Sc  N  F
3  2  2
Selective  dynamics
Direct
-0.0000000000000000  -0.0000000000000000  0.0394877140272902  T  T  T
-0.0000000000000000  -0.0000000000000000  0.1229372340730018  T  T  T
-0.0000000000000000  -0.0000000000000000  0.2063867541187134  T  T  T
0.3333333333333357  0.6666666666666643  0.0788447394920893  T  T  T
0.3333333333333357  0.6666666666666643  0.1670297286539143  T  T  T
0.3333333333333357  0.6666666666666643  0.0000000000000000  T  T  T
0.3333333333333357  0.6666666666666643  0.2458744681460116  T  T  T

0.00000000E+00  0.00000000E+00  0.00000000E+00
0.00000000E+00  0.00000000E+00  0.00000000E+00
0.00000000E+00  0.00000000E+00  0.00000000E+00
0.00000000E+00  0.00000000E+00  0.00000000E+00
0.00000000E+00  0.00000000E+00  0.00000000E+00
0.00000000E+00  0.00000000E+00  0.00000000E+00
0.00000000E+00  0.00000000E+00  0.00000000E+00
