Nb3C2  (n=2)
1.00000000000000
3.0098550969447029  0.0000000000000001  0.0000000000000000
-1.5049275484723512  2.6066109758655633  0.0000000000000000
0.0000000000000000  0.0000000000000000  33.5473107513698707
Nb  C  F
3  2  2
Selective  dynamics
Direct
-0.0000000000000000  0.0000000000000000  0.0420066291515416  T  T  T
0.0000000000000000  0.0000000000000000  0.1273918916290607  T  T  T
-0.0000000000000000  0.0000000000000000  0.2127771541065798  T  T  T
0.3333333333333357  0.6666666666666643  0.0825891091824998  T  T  T
0.3333333333333357  0.6666666666666643  0.1721946740756215  T  T  T
0.3333333333333357  0.6666666666666643  0.0000000000000000  T  T  T
0.3333333333333357  0.6666666666666643  0.2547837832581215  T  T  T

0.00000000E+00  0.00000000E+00  0.00000000E+00
0.00000000E+00  0.00000000E+00  0.00000000E+00
0.00000000E+00  0.00000000E+00  0.00000000E+00
0.00000000E+00  0.00000000E+00  0.00000000E+00
0.00000000E+00  0.00000000E+00  0.00000000E+00
0.00000000E+00  0.00000000E+00  0.00000000E+00
0.00000000E+00  0.00000000E+00  0.00000000E+00
