Hf3N2  (n=2)
1.00000000000000
3.0484004420672934  0.0000000000000001  0.0000000000000000
-1.5242002210336465  2.6399922239284641  0.0000000000000000
0.0000000000000000  0.0000000000000000  33.5945964852030414
Hf  N  F
3  2  2
Selective  dynamics
Direct
-0.0000000000000000  0.0000000000000000  0.0416470948874812  T  T  T
-0.0000000000000000  0.0000000000000000  0.1279163523959663  T  T  T
-0.0000000000000000  0.0000000000000000  0.2141856099044515  T  T  T
0.3333333333333357  0.6666666666666643  0.0834224829609318  T  T  T
0.3333333333333357  0.6666666666666643  0.1724102218310086  T  T  T
0.3333333333333357  0.6666666666666643  0.0000000000000000  T  T  T
0.3333333333333357  0.6666666666666643  0.2558327047919325  T  T  T

0.00000000E+00  0.00000000E+00  0.00000000E+00
0.00000000E+00  0.00000000E+00  0.00000000E+00
0.00000000E+00  0.00000000E+00  0.00000000E+00
0.00000000E+00  0.00000000E+00  0.00000000E+00
0.00000000E+00  0.00000000E+00  0.00000000E+00
0.00000000E+00  0.00000000E+00  0.00000000E+00
0.00000000E+00  0.00000000E+00  0.00000000E+00
