Cr3N2  (n=2)
1.00000000000000
2.6708579007414901  0.0000000000000000  0.0000000000000000
-1.3354289503707453  2.3130307919296000  0.0000000000000000
0.0000000000000000  0.0000000000000000  32.9289847419652517
Cr  N  F
3  2  2
Selective  dynamics
Direct
-0.0000000000000000  0.0000000000000000  0.0425010626403419  T  T  T
-0.0000000000000000  0.0000000000000000  0.1203952202610794  T  T  T
-0.0000000000000000  0.0000000000000000  0.1982893778818169  T  T  T
0.3333333333333357  0.6666666666666643  0.0797622225844257  T  T  T
0.3333333333333357  0.6666666666666643  0.1610282179377329  T  T  T
0.3333333333333357  0.6666666666666643  0.0000000000000000  T  T  T
0.3333333333333357  0.6666666666666643  0.2407904405221585  T  T  T

0.00000000E+00  0.00000000E+00  0.00000000E+00
0.00000000E+00  0.00000000E+00  0.00000000E+00
0.00000000E+00  0.00000000E+00  0.00000000E+00
0.00000000E+00  0.00000000E+00  0.00000000E+00
0.00000000E+00  0.00000000E+00  0.00000000E+00
0.00000000E+00  0.00000000E+00  0.00000000E+00
0.00000000E+00  0.00000000E+00  0.00000000E+00
