Mo3C2  (n=2)
1.00000000000000
2.8777837135233333  0.0000000000000001  0.0000000000000000
-1.4388918567616666  2.4922338025892405  0.0000000000000000
0.0000000000000000  0.0000000000000000  33.6530584231744143
Mo  C  F
3  2  2
Selective  dynamics
Direct
-0.0000000000000000  -0.0000000000000000  0.0446866850009580  T  T  T
-0.0000000000000000  -0.0000000000000000  0.1285627343934871  T  T  T
-0.0000000000000000  -0.0000000000000000  0.2124387837860317  T  T  T
0.3333333333333357  0.6666666666666643  0.0851939024083109  T  T  T
0.3333333333333357  0.6666666666666643  0.1719315663786634  T  T  T
0.3333333333333357  0.6666666666666643  0.0000000000000000  T  T  T
0.3333333333333357  0.6666666666666643  0.2571254687869821  T  T  T

0.00000000E+00  0.00000000E+00  0.00000000E+00
0.00000000E+00  0.00000000E+00  0.00000000E+00
0.00000000E+00  0.00000000E+00  0.00000000E+00
0.00000000E+00  0.00000000E+00  0.00000000E+00
0.00000000E+00  0.00000000E+00  0.00000000E+00
0.00000000E+00  0.00000000E+00  0.00000000E+00
0.00000000E+00  0.00000000E+00  0.00000000E+00
