Sc3C2  (n=2)
1.00000000000000
3.1350295298219990  0.0000000000000000  0.0000000000000000
-1.5675147649109995  2.7150152145429138  0.0000000000000000
0.0000000000000000  0.0000000000000000  33.5064696583051571
Sc  C  F
3  2  2
Selective  dynamics
Direct
-0.0000000000000000  -0.0000000000000000  0.0386376290975438  T  T  T
-0.0000000000000000  -0.0000000000000000  0.1269377189696876  T  T  T
-0.0000000000000000  -0.0000000000000000  0.2152378088418396  T  T  T
0.3333333333333357  0.6666666666666643  0.0805722495392118  T  T  T
0.3333333333333357  0.6666666666666643  0.1733031884001634  T  T  T
0.3333333333333357  0.6666666666666643  0.0000000000000000  T  T  T
0.3333333333333357  0.6666666666666643  0.2538754379393916  T  T  T

0.00000000E+00  0.00000000E+00  0.00000000E+00
0.00000000E+00  0.00000000E+00  0.00000000E+00
0.00000000E+00  0.00000000E+00  0.00000000E+00
0.00000000E+00  0.00000000E+00  0.00000000E+00
0.00000000E+00  0.00000000E+00  0.00000000E+00
0.00000000E+00  0.00000000E+00  0.00000000E+00
0.00000000E+00  0.00000000E+00  0.00000000E+00
