Ti3C2  (n=2)
1.00000000000000
2.9586577201154927  0.0000000000000000  0.0000000000000000
-1.4793288600577463  2.5622727467864084  0.0000000000000000
0.0000000000000000  0.0000000000000000  32.9923480941984906
Ti  C  F
3  2  2
Selective  dynamics
Direct
-0.0000000000000000  -0.0000000000000000  0.0404292259257326  T  T  T
-0.0000000000000000  -0.0000000000000000  0.1211242690483721  T  T  T
-0.0000000000000000  -0.0000000000000000  0.2018193121710116  T  T  T
0.3333333333333357  0.6666666666666643  0.0778112345913344  T  T  T
0.3333333333333357  0.6666666666666643  0.1644373035054097  T  T  T
0.3333333333333357  0.6666666666666643  0.0000000000000000  T  T  T
0.3333333333333357  0.6666666666666643  0.2422485380967442  T  T  T

0.00000000E+00  0.00000000E+00  0.00000000E+00
0.00000000E+00  0.00000000E+00  0.00000000E+00
0.00000000E+00  0.00000000E+00  0.00000000E+00
0.00000000E+00  0.00000000E+00  0.00000000E+00
0.00000000E+00  0.00000000E+00  0.00000000E+00
0.00000000E+00  0.00000000E+00  0.00000000E+00
0.00000000E+00  0.00000000E+00  0.00000000E+00
