Nb3N2  (n=2)
1.00000000000000
2.9366619937971978  -0.0000000000000001  0.0000000000000000
-1.4683309968985991  2.5432238890940706  0.0000000000000000
0.0000000000000000  0.0000000000000000  33.7149235716246807
Nb  N  F
3  2  2
Selective  dynamics
Direct
-0.0000000000000000  -0.0000000000000000  0.0433087844832804  T  T  T
-0.0000000000000000  0.0000000000000000  0.1292443026470201  T  T  T
-0.0000000000000000  -0.0000000000000000  0.2151798208107676  T  T  T
0.3333333333333357  0.6666666666666643  0.0860880175114560  T  T  T
0.3333333333333357  0.6666666666666643  0.1724005877825843  T  T  T
0.3333333333333357  0.6666666666666643  0.0000000000000000  T  T  T
0.3333333333333357  0.6666666666666643  0.2584886052940479  T  T  T

0.00000000E+00  0.00000000E+00  0.00000000E+00
0.00000000E+00  0.00000000E+00  0.00000000E+00
0.00000000E+00  0.00000000E+00  0.00000000E+00
0.00000000E+00  0.00000000E+00  0.00000000E+00
0.00000000E+00  0.00000000E+00  0.00000000E+00
0.00000000E+00  0.00000000E+00  0.00000000E+00
0.00000000E+00  0.00000000E+00  0.00000000E+00
