Zr3C2  (n=2)
1.00000000000000
3.2075461453525347  0.0000000000000000  0.0000000000000000
-1.6037730726762673  2.7778164459261134  0.0000000000000000
0.0000000000000000  0.0000000000000000  33.6130482881532799
Zr  C  F
3  2  2
Selective  dynamics
Direct
-0.0000000000000000  0.0000000000000000  0.0422213795699101  T  T  T
-0.0000000000000000  0.0000000000000000  0.1281206068297725  T  T  T
-0.0000000000000000  0.0000000000000000  0.2140198340896348  T  T  T
0.3333333333333357  0.6666666666666643  0.0813083844832578  T  T  T
0.3333333333333357  0.6666666666666643  0.1749328291762871  T  T  T
0.3333333333333357  0.6666666666666643  0.0000000000000000  T  T  T
0.3333333333333357  0.6666666666666643  0.2562412136595448  T  T  T

0.00000000E+00  0.00000000E+00  0.00000000E+00
0.00000000E+00  0.00000000E+00  0.00000000E+00
0.00000000E+00  0.00000000E+00  0.00000000E+00
0.00000000E+00  0.00000000E+00  0.00000000E+00
0.00000000E+00  0.00000000E+00  0.00000000E+00
0.00000000E+00  0.00000000E+00  0.00000000E+00
0.00000000E+00  0.00000000E+00  0.00000000E+00
