Hf3C2  (n=2)
1.00000000000000
3.1595877448867911  -0.0000000000000001  0.0000000000000000
-1.5797938724433953  2.7362832527688976  0.0000000000000000
0.0000000000000000  0.0000000000000000  33.5218899176480321
Hf  C  F
3  2  2
Selective  dynamics
Direct
-0.0000000000000000  -0.0000000000000000  0.0422530093120890  T  T  T
-0.0000000000000000  -0.0000000000000000  0.1271093297332456  T  T  T
-0.0000000000000000  -0.0000000000000000  0.2119656501544101  T  T  T
0.3333333333333357  0.6666666666666643  0.0809504928792509  T  T  T
0.3333333333333357  0.6666666666666643  0.1732681665872320  T  T  T
0.3333333333333357  0.6666666666666643  0.0000000000000000  T  T  T
0.3333333333333357  0.6666666666666643  0.2542186594664990  T  T  T

0.00000000E+00  0.00000000E+00  0.00000000E+00
0.00000000E+00  0.00000000E+00  0.00000000E+00
0.00000000E+00  0.00000000E+00  0.00000000E+00
0.00000000E+00  0.00000000E+00  0.00000000E+00
0.00000000E+00  0.00000000E+00  0.00000000E+00
0.00000000E+00  0.00000000E+00  0.00000000E+00
0.00000000E+00  0.00000000E+00  0.00000000E+00
