Ta3N2  (n=2)
1.00000000000000
2.9092191325046608  0.0000000000000001  0.0000000000000000
-1.4546095662523306  2.5194576740600834  0.0000000000000000
0.0000000000000000  0.0000000000000000  33.8055679150141017
Ta  N  F
3  2  2
Selective  dynamics
Direct
-0.0000000000000000  -0.0000000000000000  0.0442035848631570  T  T  T
-0.0000000000000000  -0.0000000000000000  0.1302384260656435  T  T  T
-0.0000000000000000  -0.0000000000000000  0.2162732672681379  T  T  T
0.3333333333333357  0.6666666666666643  0.0871324724354176  T  T  T
0.3333333333333357  0.6666666666666643  0.1733443796958772  T  T  T
0.3333333333333357  0.6666666666666643  0.0000000000000000  T  T  T
0.3333333333333357  0.6666666666666643  0.2604768521313104  T  T  T

0.00000000E+00  0.00000000E+00  0.00000000E+00
0.00000000E+00  0.00000000E+00  0.00000000E+00
0.00000000E+00  0.00000000E+00  0.00000000E+00
0.00000000E+00  0.00000000E+00  0.00000000E+00
0.00000000E+00  0.00000000E+00  0.00000000E+00
0.00000000E+00  0.00000000E+00  0.00000000E+00
0.00000000E+00  0.00000000E+00  0.00000000E+00
