Cr3C2  (n=2)
1.00000000000000
2.6778353347776616  -0.0000000000000001  0.0000000000000000
-1.3389176673888310  2.3190734270481772  0.0000000000000000
0.0000000000000000  0.0000000000000000  32.9020088013173932
Cr  C  F
3  2  2
Selective  dynamics
Direct
-0.0000000000000000  -0.0000000000000000  0.0410652456472628  T  T  T
-0.0000000000000000  -0.0000000000000000  0.1200839871059901  T  T  T
-0.0000000000000000  -0.0000000000000000  0.1991027285647327  T  T  T
0.3333333333333357  0.6666666666666643  0.0794280372636656  T  T  T
0.3333333333333357  0.6666666666666643  0.1607399369483147  T  T  T
0.3333333333333357  0.6666666666666643  0.0000000000000000  T  T  T
0.3333333333333357  0.6666666666666643  0.2401679742119878  T  T  T

0.00000000E+00  0.00000000E+00  0.00000000E+00
0.00000000E+00  0.00000000E+00  0.00000000E+00
0.00000000E+00  0.00000000E+00  0.00000000E+00
0.00000000E+00  0.00000000E+00  0.00000000E+00
0.00000000E+00  0.00000000E+00  0.00000000E+00
0.00000000E+00  0.00000000E+00  0.00000000E+00
0.00000000E+00  0.00000000E+00  0.00000000E+00
