Ta3C2  (n=2)
1.00000000000000
2.9939418252665835  0.0000000000000000  0.0000000000000000
-1.4969709126332917  2.5928296783065541  0.0000000000000000
0.0000000000000000  0.0000000000000000  33.5448028093572503
Ta  C  F
3  2  2
Selective  dynamics
Direct
0.0000000000000000  -0.0000000000000000  0.0424157652895318  T  T  T
0.0000000000000000  -0.0000000000000000  0.1273640339744886  T  T  T
0.0000000000000000  -0.0000000000000000  0.2123123026594531  T  T  T
0.3333333333333357  0.6666666666666643  0.0827491843364913  T  T  T
0.3333333333333357  0.6666666666666643  0.1719788836124857  T  T  T
0.3333333333333357  0.6666666666666643  0.0000000000000000  T  T  T
0.3333333333333357  0.6666666666666643  0.2547280679489847  T  T  T

0.00000000E+00  0.00000000E+00  0.00000000E+00
0.00000000E+00  0.00000000E+00  0.00000000E+00
0.00000000E+00  0.00000000E+00  0.00000000E+00
0.00000000E+00  0.00000000E+00  0.00000000E+00
0.00000000E+00  0.00000000E+00  0.00000000E+00
0.00000000E+00  0.00000000E+00  0.00000000E+00
0.00000000E+00  0.00000000E+00  0.00000000E+00
