Nb4C3  (n=3)
1.00000000000000
3.2820500047526786  -0.0000000000000002  0.0000000000000000
-1.6410250023763393  2.8423386810421873  0.0000000000000000
0.0000000000000005  0.0000000000000005  36.7143444495482782
Nb  C  Te
4  3  2
Selective  dynamics
Direct
-0.0000000000000000  -0.0000000000000000  0.0577053026676205  T  T  T
0.6666666666666643  0.3333333333333357  0.1233670092666586  T  T  T
0.3333333333333357  0.6666666666666643  0.1957002279448287  T  T  T
0.0000000000000000  0.0000000000000000  0.2613619345438669  T  T  T
0.3333333333333357  0.6666666666666643  0.0897760188653512  T  T  T
0.0000000000000000  0.0000000000000000  0.1595336186057473  T  T  T
0.6666666666666643  0.3333333333333357  0.2292912183461288  T  T  T
0.3333333333333357  0.6666666666666643  0.0000000000000000  T  T  T
0.6666666666666643  0.3333333333333357  0.3190672372114873  T  T  T

0.00000000E+00  0.00000000E+00  0.00000000E+00
0.00000000E+00  0.00000000E+00  0.00000000E+00
0.00000000E+00  0.00000000E+00  0.00000000E+00
0.00000000E+00  0.00000000E+00  0.00000000E+00
0.00000000E+00  0.00000000E+00  0.00000000E+00
0.00000000E+00  0.00000000E+00  0.00000000E+00
0.00000000E+00  0.00000000E+00  0.00000000E+00
0.00000000E+00  0.00000000E+00  0.00000000E+00
0.00000000E+00  0.00000000E+00  0.00000000E+00
