Cr4C3  (n=3)
1.00000000000000
3.0785280508662463  0.0000000000000000  0.0000000000000000
-1.5392640254331231  2.6660834983073323  0.0000000000000001
-0.0000000000000001  0.0000000000000006  35.5728874633967465
Cr  C  Te
4  3  2
Selective  dynamics
Direct
0.0000000000000000  0.0000000000000000  0.0591391145386398  T  T  T
0.6666666666666643  0.3333333333333357  0.1182621942373571  T  T  T
0.3333333333333357  0.6666666666666643  0.1789553840173144  T  T  T
-0.0000000000000000  -0.0000000000000000  0.2380784637160317  T  T  T
0.3333333333333357  0.6666666666666643  0.0835177545049574  T  T  T
-0.0000000000000000  -0.0000000000000000  0.1486087891273357  T  T  T
0.6666666666666643  0.3333333333333357  0.2136998237497059  T  T  T
0.3333333333333357  0.6666666666666643  0.0000000000000000  T  T  T
0.6666666666666643  0.3333333333333357  0.2972175782546715  T  T  T

0.00000000E+00  0.00000000E+00  0.00000000E+00
0.00000000E+00  0.00000000E+00  0.00000000E+00
0.00000000E+00  0.00000000E+00  0.00000000E+00
0.00000000E+00  0.00000000E+00  0.00000000E+00
0.00000000E+00  0.00000000E+00  0.00000000E+00
0.00000000E+00  0.00000000E+00  0.00000000E+00
0.00000000E+00  0.00000000E+00  0.00000000E+00
0.00000000E+00  0.00000000E+00  0.00000000E+00
0.00000000E+00  0.00000000E+00  0.00000000E+00
