Ta4C3  (n=3)
1.00000000000000
3.2706942875580092  0.0000000000000001  0.0000000000000000
-1.6353471437790046  2.8325043412602984  0.0000000000000000
0.0000000000000007  -0.0000000000000003  36.6465402649311187
Ta  C  Te
4  3  2
Selective  dynamics
Direct
0.0000000000000000  -0.0000000000000000  0.0573624252985405  T  T  T
0.6666666666666643  0.3333333333333357  0.1227789806301209  T  T  T
0.3333333333333357  0.6666666666666643  0.1950283807397128  T  T  T
0.0000000000000000  0.0000000000000000  0.2604449360712932  T  T  T
0.3333333333333357  0.6666666666666643  0.0897689783627710  T  T  T
0.0000000000000000  0.0000000000000000  0.1589036806849128  T  T  T
0.6666666666666643  0.3333333333333357  0.2280383830070545  T  T  T
0.3333333333333357  0.6666666666666643  0.0000000000000000  T  T  T
0.6666666666666643  0.3333333333333357  0.3178073613698335  T  T  T

0.00000000E+00  0.00000000E+00  0.00000000E+00
0.00000000E+00  0.00000000E+00  0.00000000E+00
0.00000000E+00  0.00000000E+00  0.00000000E+00
0.00000000E+00  0.00000000E+00  0.00000000E+00
0.00000000E+00  0.00000000E+00  0.00000000E+00
0.00000000E+00  0.00000000E+00  0.00000000E+00
0.00000000E+00  0.00000000E+00  0.00000000E+00
0.00000000E+00  0.00000000E+00  0.00000000E+00
0.00000000E+00  0.00000000E+00  0.00000000E+00
