Cr4N3  (n=3)
1.00000000000000
3.0602273447652331  0.0000000000000000  0.0000000000000000
-1.5301136723826168  2.6502346219454962  0.0000000000000001
-0.0000000000000001  0.0000000000000007  35.7398715679965875
Cr  N  Te
4  3  2
Selective  dynamics
Direct
0.0000000000000000  -0.0000000000000000  0.0596296963536956  T  T  T
0.6666666666666643  0.3333333333333357  0.1173172031767874  T  T  T
0.3333333333333357  0.6666666666666643  0.1831839205489682  T  T  T
-0.0000000000000000  0.0000000000000000  0.2408714273720520  T  T  T
0.3333333333333357  0.6666666666666643  0.0847698954346295  T  T  T
-0.0000000000000000  -0.0000000000000000  0.1502505618628779  T  T  T
0.6666666666666643  0.3333333333333357  0.2157312282911181  T  T  T
0.3333333333333357  0.6666666666666643  0.0000000000000000  T  T  T
0.6666666666666643  0.3333333333333357  0.3005011237257398  T  T  T

0.00000000E+00  0.00000000E+00  0.00000000E+00
0.00000000E+00  0.00000000E+00  0.00000000E+00
0.00000000E+00  0.00000000E+00  0.00000000E+00
0.00000000E+00  0.00000000E+00  0.00000000E+00
0.00000000E+00  0.00000000E+00  0.00000000E+00
0.00000000E+00  0.00000000E+00  0.00000000E+00
0.00000000E+00  0.00000000E+00  0.00000000E+00
0.00000000E+00  0.00000000E+00  0.00000000E+00
0.00000000E+00  0.00000000E+00  0.00000000E+00
