Hf4C3  (n=3)
1.00000000000000
3.3529053190803433  0.0000000000000000  0.0000000000000000
-1.6764526595401716  2.9037011833144022  -0.0000000000000000
-0.0000000000000001  0.0000000000000011  37.3399753639367944
Hf  C  Te
4  3  2
Selective  dynamics
Direct
-0.0000000000000000  -0.0000000000000000  0.0614620796583343  T  T  T
0.6666666666666643  0.3333333333333357  0.1307161699104451  T  T  T
0.3333333333333357  0.6666666666666643  0.1997600889425491  T  T  T
0.0000000000000000  0.0000000000000000  0.2690141791946674  T  T  T
0.3333333333333357  0.6666666666666643  0.0930013124292024  T  T  T
0.0000000000000000  0.0000000000000000  0.1652381294265008  T  T  T
0.6666666666666643  0.3333333333333357  0.2374749464237840  T  T  T
0.3333333333333357  0.6666666666666643  0.0000000000000000  T  T  T
0.6666666666666643  0.3333333333333357  0.3304762588529940  T  T  T

0.00000000E+00  0.00000000E+00  0.00000000E+00
0.00000000E+00  0.00000000E+00  0.00000000E+00
0.00000000E+00  0.00000000E+00  0.00000000E+00
0.00000000E+00  0.00000000E+00  0.00000000E+00
0.00000000E+00  0.00000000E+00  0.00000000E+00
0.00000000E+00  0.00000000E+00  0.00000000E+00
0.00000000E+00  0.00000000E+00  0.00000000E+00
0.00000000E+00  0.00000000E+00  0.00000000E+00
0.00000000E+00  0.00000000E+00  0.00000000E+00
