Mo4N3  (n=3)
1.00000000000000
3.2380338655258050  0.0000000000000000  -0.0000000000000001
-1.6190169327629025  2.8042195859992036  0.0000000000000000
-0.0000000000000005  0.0000000000000012  36.0520591369595280
Mo  N  Te
4  3  2
Selective  dynamics
Direct
0.0000000000000000  -0.0000000000000000  0.0557831883712022  T  T  T
0.6666666666666643  0.3333333333333357  0.1252578228786244  T  T  T
0.3333333333333357  0.6666666666666643  0.1813005097529027  T  T  T
0.0000000000000000  0.0000000000000000  0.2507751442603250  T  T  T
0.3333333333333357  0.6666666666666643  0.0882598061611274  T  T  T
0.0000000000000000  0.0000000000000000  0.1532791663157667  T  T  T
0.6666666666666643  0.3333333333333357  0.2182985264703934  T  T  T
0.3333333333333357  0.6666666666666643  0.0000000000000000  T  T  T
0.6666666666666643  0.3333333333333357  0.3065583326315271  T  T  T

0.00000000E+00  0.00000000E+00  0.00000000E+00
0.00000000E+00  0.00000000E+00  0.00000000E+00
0.00000000E+00  0.00000000E+00  0.00000000E+00
0.00000000E+00  0.00000000E+00  0.00000000E+00
0.00000000E+00  0.00000000E+00  0.00000000E+00
0.00000000E+00  0.00000000E+00  0.00000000E+00
0.00000000E+00  0.00000000E+00  0.00000000E+00
0.00000000E+00  0.00000000E+00  0.00000000E+00
0.00000000E+00  0.00000000E+00  0.00000000E+00
