Ti4N3  (n=3)
1.00000000000000
3.1212316874950283  0.0000000000000000  0.0000000000000000
-1.5606158437475142  2.7030659325499449  0.0000000000000000
-0.0000000000000009  0.0000000000000002  36.4505980112340495
Ti  N  Te
4  3  2
Selective  dynamics
Direct
0.0000000000000000  0.0000000000000000  0.0603517726082647  T  T  T
0.6666666666666643  0.3333333333333357  0.1230827792846762  T  T  T
0.3333333333333357  0.6666666666666643  0.1910574169256846  T  T  T
-0.0000000000000000  -0.0000000000000000  0.2537884236020962  T  T  T
0.3333333333333357  0.6666666666666643  0.0914764327412540  T  T  T
0.0000000000000000  0.0000000000000000  0.1570700981051844  T  T  T
0.6666666666666643  0.3333333333333357  0.2226637634690991  T  T  T
0.3333333333333357  0.6666666666666643  0.0000000000000000  T  T  T
0.6666666666666643  0.3333333333333357  0.3141401962103608  T  T  T

0.00000000E+00  0.00000000E+00  0.00000000E+00
0.00000000E+00  0.00000000E+00  0.00000000E+00
0.00000000E+00  0.00000000E+00  0.00000000E+00
0.00000000E+00  0.00000000E+00  0.00000000E+00
0.00000000E+00  0.00000000E+00  0.00000000E+00
0.00000000E+00  0.00000000E+00  0.00000000E+00
0.00000000E+00  0.00000000E+00  0.00000000E+00
0.00000000E+00  0.00000000E+00  0.00000000E+00
0.00000000E+00  0.00000000E+00  0.00000000E+00
