Mo4C3  (n=3)
1.00000000000000
3.1984427953086167  0.0000000000000000  0.0000000000000000
-1.5992213976543084  2.7699327133847209  0.0000000000000000
-0.0000000000000004  -0.0000000000000004  36.4518183655461883
Mo  C  Te
4  3  2
Selective  dynamics
Direct
-0.0000000000000000  -0.0000000000000000  0.0587281055074758  T  T  T
0.6666666666666643  0.3333333333333357  0.1226732619734376  T  T  T
0.3333333333333357  0.6666666666666643  0.1914898958340995  T  T  T
-0.0000000000000000  0.0000000000000000  0.2554350523000532  T  T  T
0.3333333333333357  0.6666666666666643  0.0871248651181320  T  T  T
-0.0000000000000000  0.0000000000000000  0.1570815789037645  T  T  T
0.6666666666666643  0.3333333333333357  0.2270382926893970  T  T  T
0.3333333333333357  0.6666666666666643  0.0000000000000000  T  T  T
0.6666666666666643  0.3333333333333357  0.3141631578075211  T  T  T

0.00000000E+00  0.00000000E+00  0.00000000E+00
0.00000000E+00  0.00000000E+00  0.00000000E+00
0.00000000E+00  0.00000000E+00  0.00000000E+00
0.00000000E+00  0.00000000E+00  0.00000000E+00
0.00000000E+00  0.00000000E+00  0.00000000E+00
0.00000000E+00  0.00000000E+00  0.00000000E+00
0.00000000E+00  0.00000000E+00  0.00000000E+00
0.00000000E+00  0.00000000E+00  0.00000000E+00
0.00000000E+00  0.00000000E+00  0.00000000E+00
