Zr4N3  (n=3)
1.00000000000000
3.3279398327245562  0.0000000000000000  0.0000000000000000
-1.6639699163622781  2.8820804376202540  0.0000000000000000
-0.0000000000000001  -0.0000000000000004  37.3496058326540847
Zr  N  Te
4  3  2
Selective  dynamics
Direct
0.0000000000000000  -0.0000000000000000  0.0605515892830454  T  T  T
0.6666666666666643  0.3333333333333357  0.1286593197721242  T  T  T
0.3333333333333357  0.6666666666666643  0.2019895734983115  T  T  T
0.0000000000000000  -0.0000000000000000  0.2700973039873903  T  T  T
0.3333333333333357  0.6666666666666643  0.0959460902730858  T  T  T
0.0000000000000000  -0.0000000000000000  0.1653244466352137  T  T  T
0.6666666666666643  0.3333333333333357  0.2347028029973498  T  T  T
0.3333333333333357  0.6666666666666643  0.0000000000000000  T  T  T
0.6666666666666643  0.3333333333333357  0.3306488932704357  T  T  T

0.00000000E+00  0.00000000E+00  0.00000000E+00
0.00000000E+00  0.00000000E+00  0.00000000E+00
0.00000000E+00  0.00000000E+00  0.00000000E+00
0.00000000E+00  0.00000000E+00  0.00000000E+00
0.00000000E+00  0.00000000E+00  0.00000000E+00
0.00000000E+00  0.00000000E+00  0.00000000E+00
0.00000000E+00  0.00000000E+00  0.00000000E+00
0.00000000E+00  0.00000000E+00  0.00000000E+00
0.00000000E+00  0.00000000E+00  0.00000000E+00
