Nb4N3  (n=3)
1.00000000000000
3.2698819382635587  0.0000000000000000  0.0000000000000000
-1.6349409691317793  2.8318008260933105  0.0000000000000000
0.0000000000000000  -0.0000000000000010  36.4951048293464382
Nb  N  Te
4  3  2
Selective  dynamics
Direct
0.0000000000000000  0.0000000000000000  0.0565094706790546  T  T  T
0.6666666666666643  0.3333333333333357  0.1245191242489493  T  T  T
0.3333333333333357  0.6666666666666643  0.1904574974952086  T  T  T
-0.0000000000000000  -0.0000000000000000  0.2584671510651033  T  T  T
0.3333333333333357  0.6666666666666643  0.0896507094167024  T  T  T
-0.0000000000000000  -0.0000000000000000  0.1574883108720789  T  T  T
0.6666666666666643  0.3333333333333357  0.2253259123274477  T  T  T
0.3333333333333357  0.6666666666666643  0.0000000000000000  T  T  T
0.6666666666666643  0.3333333333333357  0.3149766217441578  T  T  T

0.00000000E+00  0.00000000E+00  0.00000000E+00
0.00000000E+00  0.00000000E+00  0.00000000E+00
0.00000000E+00  0.00000000E+00  0.00000000E+00
0.00000000E+00  0.00000000E+00  0.00000000E+00
0.00000000E+00  0.00000000E+00  0.00000000E+00
0.00000000E+00  0.00000000E+00  0.00000000E+00
0.00000000E+00  0.00000000E+00  0.00000000E+00
0.00000000E+00  0.00000000E+00  0.00000000E+00
0.00000000E+00  0.00000000E+00  0.00000000E+00
