Hf4N3  (n=3)
1.00000000000000
3.2887730061828182  0.0000000000000000  0.0000000000000000
-1.6443865030914091  2.8481609708388000  0.0000000000000000
0.0000000000000000  -0.0000000000000004  37.1334169677020682
Hf  N  Te
4  3  2
Selective  dynamics
Direct
-0.0000000000000000  -0.0000000000000000  0.0598193759654471  T  T  T
0.6666666666666643  0.3333333333333357  0.1270716232134548  T  T  T
0.3333333333333357  0.6666666666666643  0.1996803419573100  T  T  T
0.0000000000000000  0.0000000000000000  0.2669325892053093  T  T  T
0.3333333333333357  0.6666666666666643  0.0957660539988947  T  T  T
0.0000000000000000  0.0000000000000000  0.1633759825853783  T  T  T
0.6666666666666643  0.3333333333333357  0.2309859111718533  T  T  T
0.3333333333333357  0.6666666666666643  0.0000000000000000  T  T  T
0.6666666666666643  0.3333333333333357  0.3267519651707647  T  T  T

0.00000000E+00  0.00000000E+00  0.00000000E+00
0.00000000E+00  0.00000000E+00  0.00000000E+00
0.00000000E+00  0.00000000E+00  0.00000000E+00
0.00000000E+00  0.00000000E+00  0.00000000E+00
0.00000000E+00  0.00000000E+00  0.00000000E+00
0.00000000E+00  0.00000000E+00  0.00000000E+00
0.00000000E+00  0.00000000E+00  0.00000000E+00
0.00000000E+00  0.00000000E+00  0.00000000E+00
0.00000000E+00  0.00000000E+00  0.00000000E+00
