Zr4C3  (n=3)
1.00000000000000
3.3949720660348262  0.0000000000000000  0.0000000000000000
-1.6974860330174131  2.9401320546046672  0.0000000000000000
0.0000000000000001  -0.0000000000000004  37.5232752765859630
Zr  C  Te
4  3  2
Selective  dynamics
Direct
-0.0000000000000000  -0.0000000000000000  0.0618705240769273  T  T  T
0.6666666666666643  0.3333333333333357  0.1319822127897839  T  T  T
0.3333333333333357  0.6666666666666643  0.2017646465735385  T  T  T
0.0000000000000000  0.0000000000000000  0.2718763352864029  T  T  T
0.3333333333333357  0.6666666666666643  0.0937639984614862  T  T  T
0.0000000000000000  -0.0000000000000000  0.1668734296816612  T  T  T
0.6666666666666643  0.3333333333333357  0.2399828609018362  T  T  T
0.3333333333333357  0.6666666666666643  0.0000000000000000  T  T  T
0.6666666666666643  0.3333333333333357  0.3337468593633224  T  T  T

0.00000000E+00  0.00000000E+00  0.00000000E+00
0.00000000E+00  0.00000000E+00  0.00000000E+00
0.00000000E+00  0.00000000E+00  0.00000000E+00
0.00000000E+00  0.00000000E+00  0.00000000E+00
0.00000000E+00  0.00000000E+00  0.00000000E+00
0.00000000E+00  0.00000000E+00  0.00000000E+00
0.00000000E+00  0.00000000E+00  0.00000000E+00
0.00000000E+00  0.00000000E+00  0.00000000E+00
0.00000000E+00  0.00000000E+00  0.00000000E+00
