Sc4C3  (n=3)
1.00000000000000
3.3208293108903733  0.0000000000000000  -0.0000000000000002
-1.6604146554451866  2.8759225448921684  -0.0000000000000001
0.0000000000000002  0.0000000000000019  38.0155900526820290
Sc  C  Te
4  3  2
Selective  dynamics
Direct
-0.0000000000000000  0.0000000000000000  0.0676519917592726  T  T  T
0.6666666666666643  0.3333333333333357  0.1346016977721885  T  T  T
0.3333333333333357  0.6666666666666643  0.2077733655806284  T  T  T
-0.0000000000000000  -0.0000000000000000  0.2747230715935523  T  T  T
0.3333333333333357  0.6666666666666643  0.0976508464914277  T  T  T
-0.0000000000000000  0.0000000000000000  0.1711875316764084  T  T  T
0.6666666666666643  0.3333333333333357  0.2447242168613811  T  T  T
0.3333333333333357  0.6666666666666643  0.0000000000000000  T  T  T
0.6666666666666643  0.3333333333333357  0.3423750633528249  T  T  T

0.00000000E+00  0.00000000E+00  0.00000000E+00
0.00000000E+00  0.00000000E+00  0.00000000E+00
0.00000000E+00  0.00000000E+00  0.00000000E+00
0.00000000E+00  0.00000000E+00  0.00000000E+00
0.00000000E+00  0.00000000E+00  0.00000000E+00
0.00000000E+00  0.00000000E+00  0.00000000E+00
0.00000000E+00  0.00000000E+00  0.00000000E+00
0.00000000E+00  0.00000000E+00  0.00000000E+00
0.00000000E+00  0.00000000E+00  0.00000000E+00
