Ta4N3  (n=3)
1.00000000000000
3.2476971151867637  0.0000000000000000  0.0000000000000000
-1.6238485575933816  2.8125882056508891  0.0000000000000000
0.0000000000000003  0.0000000000000004  36.4827992971362463
Ta  N  Te
4  3  2
Selective  dynamics
Direct
0.0000000000000000  0.0000000000000000  0.0561186564299014  T  T  T
0.6666666666666643  0.3333333333333357  0.1245505121431154  T  T  T
0.3333333333333357  0.6666666666666643  0.1901950533935149  T  T  T
0.0000000000000000  0.0000000000000000  0.2586269091067213  T  T  T
0.3333333333333357  0.6666666666666643  0.0904168236523395  T  T  T
0.0000000000000000  0.0000000000000000  0.1573727827683113  T  T  T
0.6666666666666643  0.3333333333333357  0.2243287418842756  T  T  T
0.3333333333333357  0.6666666666666643  0.0000000000000000  T  T  T
0.6666666666666643  0.3333333333333357  0.3147455655366227  T  T  T

0.00000000E+00  0.00000000E+00  0.00000000E+00
0.00000000E+00  0.00000000E+00  0.00000000E+00
0.00000000E+00  0.00000000E+00  0.00000000E+00
0.00000000E+00  0.00000000E+00  0.00000000E+00
0.00000000E+00  0.00000000E+00  0.00000000E+00
0.00000000E+00  0.00000000E+00  0.00000000E+00
0.00000000E+00  0.00000000E+00  0.00000000E+00
0.00000000E+00  0.00000000E+00  0.00000000E+00
0.00000000E+00  0.00000000E+00  0.00000000E+00
