Sc4N3  (n=3)
1.00000000000000
3.2539779797806925  0.0000000000000000  0.0000000000000000
-1.6269889898903460  2.8180275941481421  -0.0000000000000001
-0.0000000000000003  0.0000000000000000  37.3754771567728667
Sc  N  Te
4  3  2
Selective  dynamics
Direct
-0.0000000000000000  -0.0000000000000000  0.0649390367577254  T  T  T
0.6666666666666643  0.3333333333333357  0.1322021671902062  T  T  T
0.3333333333333357  0.6666666666666643  0.1989100512535464  T  T  T
-0.0000000000000000  -0.0000000000000000  0.2661731816860271  T  T  T
0.3333333333333357  0.6666666666666643  0.0948025664265655  T  T  T
0.0000000000000000  -0.0000000000000000  0.1655561092218762  T  T  T
0.6666666666666643  0.3333333333333357  0.2363096520171870  T  T  T
0.3333333333333357  0.6666666666666643  0.0000000000000000  T  T  T
0.6666666666666643  0.3333333333333357  0.3311122184437527  T  T  T

0.00000000E+00  0.00000000E+00  0.00000000E+00
0.00000000E+00  0.00000000E+00  0.00000000E+00
0.00000000E+00  0.00000000E+00  0.00000000E+00
0.00000000E+00  0.00000000E+00  0.00000000E+00
0.00000000E+00  0.00000000E+00  0.00000000E+00
0.00000000E+00  0.00000000E+00  0.00000000E+00
0.00000000E+00  0.00000000E+00  0.00000000E+00
0.00000000E+00  0.00000000E+00  0.00000000E+00
0.00000000E+00  0.00000000E+00  0.00000000E+00
