Ti4C3  (n=3)
1.00000000000000
3.1597921869937369  0.0000000000000000  0.0000000000000000
-1.5798960934968684  2.7364603046979306  0.0000000000000000
0.0000000000000000  0.0000000000000001  36.7677920920145880
Ti  C  Te
4  3  2
Selective  dynamics
Direct
-0.0000000000000000  -0.0000000000000000  0.0632714352031307  T  T  T
0.6666666666666643  0.3333333333333357  0.1277858507780532  T  T  T
0.3333333333333357  0.6666666666666643  0.1922712269644631  T  T  T
0.0000000000000000  0.0000000000000000  0.2567856425393777  T  T  T
0.3333333333333357  0.6666666666666643  0.0919405343060997  T  T  T
0.0000000000000000  0.0000000000000000  0.1600285388712541  T  T  T
0.6666666666666643  0.3333333333333357  0.2281165434364085  T  T  T
0.3333333333333357  0.6666666666666643  0.0000000000000000  T  T  T
0.6666666666666643  0.3333333333333357  0.3200570777425163  T  T  T

0.00000000E+00  0.00000000E+00  0.00000000E+00
0.00000000E+00  0.00000000E+00  0.00000000E+00
0.00000000E+00  0.00000000E+00  0.00000000E+00
0.00000000E+00  0.00000000E+00  0.00000000E+00
0.00000000E+00  0.00000000E+00  0.00000000E+00
0.00000000E+00  0.00000000E+00  0.00000000E+00
0.00000000E+00  0.00000000E+00  0.00000000E+00
0.00000000E+00  0.00000000E+00  0.00000000E+00
0.00000000E+00  0.00000000E+00  0.00000000E+00
