Mo3N2  (n=2)
1.00000000000000
3.3251012204641106  0.0000000000000000  0.0000000000000000
-1.6625506102320553  2.8796221271411175  0.0000000000000000
0.0000000000000000  0.0000000000000011  33.7677448936797475
Mo  N  I
3  2  2
Selective  dynamics
Direct
0.0000000000000000  -0.0000000000000000  0.0663657624807035  T  T  T
0.6666666666666643  0.3333333333333357  0.1298200760282444  T  T  T
0.3333333333333357  0.6666666666666643  0.1932827548036353  T  T  T
0.3333333333333357  0.6666666666666643  0.0944144194856692  T  T  T
0.0000000000000000  -0.0000000000000000  0.1652287691955171  T  T  T
0.3333333333333357  0.6666666666666643  0.0000000000000000  T  T  T
-0.0000000000000000  -0.0000000000000000  0.2596485172843388  T  T  T

0.00000000E+00  0.00000000E+00  0.00000000E+00
0.00000000E+00  0.00000000E+00  0.00000000E+00
0.00000000E+00  0.00000000E+00  0.00000000E+00
0.00000000E+00  0.00000000E+00  0.00000000E+00
0.00000000E+00  0.00000000E+00  0.00000000E+00
0.00000000E+00  0.00000000E+00  0.00000000E+00
0.00000000E+00  0.00000000E+00  0.00000000E+00
