Zr3N2  (n=2)
1.00000000000000
3.4371033923134560  0.0000000000000000  0.0000000000000000
-1.7185516961567280  2.9766188535927860  0.0000000000000000
0.0000000000000002  0.0000000000000012  34.3822233389360434
Zr  N  I
3  2  2
Selective  dynamics
Direct
-0.0000000000000000  -0.0000000000000000  0.0624898659003210  T  T  T
0.6666666666666643  0.3333333333333357  0.1364400324907245  T  T  T
0.3333333333333357  0.6666666666666643  0.2103901990811351  T  T  T
0.3333333333333357  0.6666666666666643  0.0995430096811226  T  T  T
-0.0000000000000000  -0.0000000000000000  0.1733370553003335  T  T  T
0.3333333333333357  0.6666666666666643  0.0000000000000000  T  T  T
0.0000000000000000  -0.0000000000000000  0.2728800649814629  T  T  T

0.00000000E+00  0.00000000E+00  0.00000000E+00
0.00000000E+00  0.00000000E+00  0.00000000E+00
0.00000000E+00  0.00000000E+00  0.00000000E+00
0.00000000E+00  0.00000000E+00  0.00000000E+00
0.00000000E+00  0.00000000E+00  0.00000000E+00
0.00000000E+00  0.00000000E+00  0.00000000E+00
0.00000000E+00  0.00000000E+00  0.00000000E+00
