Ta3N2  (n=2)
1.00000000000000
3.3196316762746823  0.0000000000000000  0.0000000000000000
-1.6598158381373407  2.8748853629783548  0.0000000000000000
0.0000000000000001  0.0000000000000000  34.0517298346062489
Ta  N  I
3  2  2
Selective  dynamics
Direct
-0.0000000000000000  -0.0000000000000000  0.0640611105099627  T  T  T
0.6666666666666643  0.3333333333333357  0.1329114538170477  T  T  T
0.3333333333333357  0.6666666666666643  0.2017617971241405  T  T  T
0.3333333333333357  0.6666666666666643  0.0971447020607807  T  T  T
-0.0000000000000000  0.0000000000000000  0.1686782055733227  T  T  T
0.3333333333333357  0.6666666666666643  0.0000000000000000  T  T  T
0.0000000000000000  0.0000000000000000  0.2658229076341113  T  T  T

0.00000000E+00  0.00000000E+00  0.00000000E+00
0.00000000E+00  0.00000000E+00  0.00000000E+00
0.00000000E+00  0.00000000E+00  0.00000000E+00
0.00000000E+00  0.00000000E+00  0.00000000E+00
0.00000000E+00  0.00000000E+00  0.00000000E+00
0.00000000E+00  0.00000000E+00  0.00000000E+00
0.00000000E+00  0.00000000E+00  0.00000000E+00
