Cr3N2  (n=2)
1.00000000000000
3.1855565831541526  0.0000000000000000  0.0000000000000000
-1.5927782915770763  2.7587729262134166  0.0000000000000000
0.0000000000000000  0.0000000000000000  33.7673165419418524
Cr  N  I
3  2  2
Selective  dynamics
Direct
-0.0000000000000000  -0.0000000000000000  0.0703835110972347  T  T  T
0.6666666666666643  0.3333333333333357  0.1298195628167779  T  T  T
0.3333333333333357  0.6666666666666643  0.1892556145363380  T  T  T
0.3333333333333357  0.6666666666666643  0.0950062156039507  T  T  T
0.0000000000000000  0.0000000000000000  0.1646329100296051  T  T  T
0.3333333333333357  0.6666666666666643  0.0000000000000000  T  T  T
-0.0000000000000000  -0.0000000000000000  0.2596391256335726  T  T  T

0.00000000E+00  0.00000000E+00  0.00000000E+00
0.00000000E+00  0.00000000E+00  0.00000000E+00
0.00000000E+00  0.00000000E+00  0.00000000E+00
0.00000000E+00  0.00000000E+00  0.00000000E+00
0.00000000E+00  0.00000000E+00  0.00000000E+00
0.00000000E+00  0.00000000E+00  0.00000000E+00
0.00000000E+00  0.00000000E+00  0.00000000E+00
