Hf3N2  (n=2)
1.00000000000000
3.3901704160063995  -0.0000000000000001  0.0000000000000000
-1.6950852080031997  2.9359737036592755  -0.0000000000000001
0.0000000000000001  0.0000000000000006  34.2590111386373621
Hf  N  I
3  2  2
Selective  dynamics
Direct
0.0000000000000000  0.0000000000000000  0.0619400577639407  T  T  T
0.6666666666666643  0.3333333333333357  0.1351324926041873  T  T  T
0.3333333333333357  0.6666666666666643  0.2083249274444399  T  T  T
0.3333333333333357  0.6666666666666643  0.0994994776581532  T  T  T
0.0000000000000000  0.0000000000000000  0.1707655075502335  T  T  T
0.3333333333333357  0.6666666666666643  0.0000000000000000  T  T  T
0.0000000000000000  0.0000000000000000  0.2702649852083746  T  T  T

0.00000000E+00  0.00000000E+00  0.00000000E+00
0.00000000E+00  0.00000000E+00  0.00000000E+00
0.00000000E+00  0.00000000E+00  0.00000000E+00
0.00000000E+00  0.00000000E+00  0.00000000E+00
0.00000000E+00  0.00000000E+00  0.00000000E+00
0.00000000E+00  0.00000000E+00  0.00000000E+00
0.00000000E+00  0.00000000E+00  0.00000000E+00
