Nb3C2  (n=2)
1.00000000000000
3.3369379848286256  0.0000000000000000  0.0000000000000000
-1.6684689924143128  2.8898730658393439  -0.0000000000000001
0.0000000000000001  0.0000000000000002  34.2174479392555639
Nb  C  I
3  2  2
Selective  dynamics
Direct
-0.0000000000000000  -0.0000000000000000  0.0630232933678346  T  T  T
0.6666666666666643  0.3333333333333357  0.1346892958764565  T  T  T
0.3333333333333357  0.6666666666666643  0.2063552983850868  T  T  T
0.3333333333333357  0.6666666666666643  0.0964140803739553  T  T  T
0.0000000000000000  -0.0000000000000000  0.1729645113789659  T  T  T
0.3333333333333357  0.6666666666666643  0.0000000000000000  T  T  T
0.0000000000000000  0.0000000000000000  0.2693785917529213  T  T  T

0.00000000E+00  0.00000000E+00  0.00000000E+00
0.00000000E+00  0.00000000E+00  0.00000000E+00
0.00000000E+00  0.00000000E+00  0.00000000E+00
0.00000000E+00  0.00000000E+00  0.00000000E+00
0.00000000E+00  0.00000000E+00  0.00000000E+00
0.00000000E+00  0.00000000E+00  0.00000000E+00
0.00000000E+00  0.00000000E+00  0.00000000E+00
