Hf3C2  (n=2)
1.00000000000000
3.4662121237388424  -0.0000000000000001  0.0000000000000000
-1.7331060618694212  3.0018277544925378  -0.0000000000000002
-0.0000000000000003  -0.0000000000000029  34.3254760267066672
Hf  C  I
3  2  2
Selective  dynamics
Direct
-0.0000000000000000  -0.0000000000000000  0.0639205814323897  T  T  T
0.6666666666666643  0.3333333333333357  0.1358389905423460  T  T  T
0.3333333333333357  0.6666666666666643  0.2077573996523024  T  T  T
0.3333333333333357  0.6666666666666643  0.0968733118264997  T  T  T
-0.0000000000000000  0.0000000000000000  0.1748046692581925  T  T  T
0.3333333333333357  0.6666666666666643  0.0000000000000000  T  T  T
-0.0000000000000000  -0.0000000000000000  0.2716779810846921  T  T  T

0.00000000E+00  0.00000000E+00  0.00000000E+00
0.00000000E+00  0.00000000E+00  0.00000000E+00
0.00000000E+00  0.00000000E+00  0.00000000E+00
0.00000000E+00  0.00000000E+00  0.00000000E+00
0.00000000E+00  0.00000000E+00  0.00000000E+00
0.00000000E+00  0.00000000E+00  0.00000000E+00
0.00000000E+00  0.00000000E+00  0.00000000E+00
