Nb3N2  (n=2)
1.00000000000000
3.3196606916217202  0.0000000000000002  0.0000000000000000
-1.6598303458108601  2.8749104911552719  0.0000000000000000
-0.0000000000000002  0.0000000000000006  34.1531846089326763
Nb  N  I
3  2  2
Selective  dynamics
Direct
-0.0000000000000000  -0.0000000000000000  0.0637357773313361  T  T  T
0.6666666666666643  0.3333333333333357  0.1340019197878615  T  T  T
0.3333333333333357  0.6666666666666643  0.2042680622443939  T  T  T
0.3333333333333357  0.6666666666666643  0.0974990548853454  T  T  T
-0.0000000000000000  0.0000000000000000  0.1705047846903776  T  T  T
0.3333333333333357  0.6666666666666643  0.0000000000000000  T  T  T
0.0000000000000000  0.0000000000000000  0.2680038395757299  T  T  T

0.00000000E+00  0.00000000E+00  0.00000000E+00
0.00000000E+00  0.00000000E+00  0.00000000E+00
0.00000000E+00  0.00000000E+00  0.00000000E+00
0.00000000E+00  0.00000000E+00  0.00000000E+00
0.00000000E+00  0.00000000E+00  0.00000000E+00
0.00000000E+00  0.00000000E+00  0.00000000E+00
0.00000000E+00  0.00000000E+00  0.00000000E+00
