Zr3C2  (n=2)
1.00000000000000
3.5100305238543275  0.0000000000000000  0.0000000000000000
-1.7550152619271637  3.0397756020564932  0.0000000000000000
-0.0000000000000001  -0.0000000000000012  34.4530608477939353
Zr  C  I
3  2  2
Selective  dynamics
Direct
-0.0000000000000000  -0.0000000000000000  0.0640811921481841  T  T  T
0.6666666666666643  0.3333333333333357  0.1371875330548271  T  T  T
0.3333333333333357  0.6666666666666643  0.2102938739614781  T  T  T
0.3333333333333357  0.6666666666666643  0.0975965171683165  T  T  T
-0.0000000000000000  -0.0000000000000000  0.1767785489413457  T  T  T
0.3333333333333357  0.6666666666666643  0.0000000000000000  T  T  T
-0.0000000000000000  -0.0000000000000000  0.2743750661096698  T  T  T

0.00000000E+00  0.00000000E+00  0.00000000E+00
0.00000000E+00  0.00000000E+00  0.00000000E+00
0.00000000E+00  0.00000000E+00  0.00000000E+00
0.00000000E+00  0.00000000E+00  0.00000000E+00
0.00000000E+00  0.00000000E+00  0.00000000E+00
0.00000000E+00  0.00000000E+00  0.00000000E+00
0.00000000E+00  0.00000000E+00  0.00000000E+00
