Sc3N2  (n=2)
1.00000000000000
3.4393523264055528  0.0000000000000000  0.0000000000000001
-1.7196761632027764  2.9785664876671771  0.0000000000000000
0.0000000000000002  -0.0000000000000014  34.1735594198985382
Sc  N  I
3  2  2
Selective  dynamics
Direct
0.0000000000000000  0.0000000000000000  0.0630230024002174  T  T  T
0.6666666666666643  0.3333333333333357  0.1342201335714127  T  T  T
0.3333333333333357  0.6666666666666643  0.2054172647426080  T  T  T
0.3333333333333357  0.6666666666666643  0.0960864306579525  T  T  T
-0.0000000000000000  -0.0000000000000000  0.1723538364848660  T  T  T
0.3333333333333357  0.6666666666666643  0.0000000000000000  T  T  T
0.0000000000000000  -0.0000000000000000  0.2684402671428183  T  T  T

0.00000000E+00  0.00000000E+00  0.00000000E+00
0.00000000E+00  0.00000000E+00  0.00000000E+00
0.00000000E+00  0.00000000E+00  0.00000000E+00
0.00000000E+00  0.00000000E+00  0.00000000E+00
0.00000000E+00  0.00000000E+00  0.00000000E+00
0.00000000E+00  0.00000000E+00  0.00000000E+00
0.00000000E+00  0.00000000E+00  0.00000000E+00
