Ti3N2  (n=2)
1.00000000000000
3.2823867968281006  0.0000000000000000  0.0000000000000000
-1.6411933984140505  2.8426303511548436  0.0000000000000000
-0.0000000000000004  -0.0000000000000006  33.6576782851717056
Ti  N  I
3  2  2
Selective  dynamics
Direct
0.0000000000000000  0.0000000000000000  0.0635837010148847  T  T  T
0.6666666666666643  0.3333333333333357  0.1286137179727269  T  T  T
0.3333333333333357  0.6666666666666643  0.1936437349305692  T  T  T
0.3333333333333357  0.6666666666666643  0.0928411975127832  T  T  T
0.0000000000000000  0.0000000000000000  0.1643862384326625  T  T  T
0.3333333333333357  0.6666666666666643  0.0000000000000000  T  T  T
-0.0000000000000000  -0.0000000000000000  0.2572274359454541  T  T  T

0.00000000E+00  0.00000000E+00  0.00000000E+00
0.00000000E+00  0.00000000E+00  0.00000000E+00
0.00000000E+00  0.00000000E+00  0.00000000E+00
0.00000000E+00  0.00000000E+00  0.00000000E+00
0.00000000E+00  0.00000000E+00  0.00000000E+00
0.00000000E+00  0.00000000E+00  0.00000000E+00
0.00000000E+00  0.00000000E+00  0.00000000E+00
