Sc3C2  (n=2)
1.00000000000000
3.4595319552225452  0.0000000000000001  0.0000000000000000
-1.7297659776112726  2.9960425587740303  0.0000000000000000
-0.0000000000000015  0.0000000000000015  34.8051467340568479
Sc  C  I
3  2  2
Selective  dynamics
Direct
-0.0000000000000000  -0.0000000000000000  0.0685595590601421  T  T  T
0.6666666666666643  0.3333333333333357  0.1408577129264369  T  T  T
0.3333333333333357  0.6666666666666643  0.2131558667927394  T  T  T
0.3333333333333357  0.6666666666666643  0.1001790371832648  T  T  T
0.0000000000000000  0.0000000000000000  0.1815363886696093  T  T  T
0.3333333333333357  0.6666666666666643  0.0000000000000000  T  T  T
-0.0000000000000000  -0.0000000000000000  0.2817154258528813  T  T  T

0.00000000E+00  0.00000000E+00  0.00000000E+00
0.00000000E+00  0.00000000E+00  0.00000000E+00
0.00000000E+00  0.00000000E+00  0.00000000E+00
0.00000000E+00  0.00000000E+00  0.00000000E+00
0.00000000E+00  0.00000000E+00  0.00000000E+00
0.00000000E+00  0.00000000E+00  0.00000000E+00
0.00000000E+00  0.00000000E+00  0.00000000E+00
