Ti3C2  (n=2)
1.00000000000000
3.3243538872621659  -0.0000000000000002  0.0000000000000001
-1.6621769436310829  2.8789749176663588  0.0000000000000001
0.0000000000000004  0.0000000000000002  33.6998608460479545
Ti  C  I
3  2  2
Selective  dynamics
Direct
-0.0000000000000000  -0.0000000000000000  0.0621192513397029  T  T  T
0.6666666666666643  0.3333333333333357  0.1290785870866318  T  T  T
0.3333333333333357  0.6666666666666643  0.1960379228335685  T  T  T
0.3333333333333357  0.6666666666666643  0.0925932869989251  T  T  T
-0.0000000000000000  0.0000000000000000  0.1655638871743308  T  T  T
0.3333333333333357  0.6666666666666643  0.0000000000000000  T  T  T
0.0000000000000000  0.0000000000000000  0.2581571741732637  T  T  T

0.00000000E+00  0.00000000E+00  0.00000000E+00
0.00000000E+00  0.00000000E+00  0.00000000E+00
0.00000000E+00  0.00000000E+00  0.00000000E+00
0.00000000E+00  0.00000000E+00  0.00000000E+00
0.00000000E+00  0.00000000E+00  0.00000000E+00
0.00000000E+00  0.00000000E+00  0.00000000E+00
0.00000000E+00  0.00000000E+00  0.00000000E+00
