Cr3C2  (n=2)
1.00000000000000
3.2331372917530494  0.0000000000000000  0.0000000000000000
-1.6165686458765247  2.7999790286130235  -0.0000000000000003
-0.0000000000000002  -0.0000000000000023  33.2670097865194379
Cr  C  I
3  2  2
Selective  dynamics
Direct
-0.0000000000000000  -0.0000000000000000  0.0647551744404852  T  T  T
0.6666666666666643  0.3333333333333357  0.1242523725391933  T  T  T
0.3333333333333357  0.6666666666666643  0.1837495706379154  T  T  T
0.3333333333333357  0.6666666666666643  0.0902585034638391  T  T  T
0.0000000000000000  -0.0000000000000000  0.1582462416145545  T  T  T
0.3333333333333357  0.6666666666666643  0.0000000000000000  T  T  T
0.0000000000000000  0.0000000000000000  0.2485047450783937  T  T  T

0.00000000E+00  0.00000000E+00  0.00000000E+00
0.00000000E+00  0.00000000E+00  0.00000000E+00
0.00000000E+00  0.00000000E+00  0.00000000E+00
0.00000000E+00  0.00000000E+00  0.00000000E+00
0.00000000E+00  0.00000000E+00  0.00000000E+00
0.00000000E+00  0.00000000E+00  0.00000000E+00
0.00000000E+00  0.00000000E+00  0.00000000E+00
