Mo3C2  (n=2)
1.00000000000000
3.3014036780524241  0.0000000000000000  0.0000000000000001
-1.6507018390262120  2.8590994535287155  0.0000000000000001
-0.0000000000000001  0.0000000000000008  34.0261905590041565
Mo  C  I
3  2  2
Selective  dynamics
Direct
0.0000000000000000  -0.0000000000000000  0.0676102076259014  T  T  T
0.6666666666666643  0.3333333333333357  0.1326359256019534  T  T  T
0.3333333333333357  0.6666666666666643  0.1976616435780122  T  T  T
0.3333333333333357  0.6666666666666643  0.0945404864887520  T  T  T
0.0000000000000000  0.0000000000000000  0.1707313647151549  T  T  T
0.3333333333333357  0.6666666666666643  0.0000000000000000  T  T  T
0.0000000000000000  -0.0000000000000000  0.2652718512039136  T  T  T

0.00000000E+00  0.00000000E+00  0.00000000E+00
0.00000000E+00  0.00000000E+00  0.00000000E+00
0.00000000E+00  0.00000000E+00  0.00000000E+00
0.00000000E+00  0.00000000E+00  0.00000000E+00
0.00000000E+00  0.00000000E+00  0.00000000E+00
0.00000000E+00  0.00000000E+00  0.00000000E+00
0.00000000E+00  0.00000000E+00  0.00000000E+00
