Ta3C2  (n=2)
1.00000000000000
3.3180127975883256  0.0000000000000000  0.0000000000000000
-1.6590063987941628  2.8734833729450764  0.0000000000000001
-0.0000000000000001  0.0000000000000000  34.1904168134606579
Ta  C  I
3  2  2
Selective  dynamics
Direct
-0.0000000000000000  -0.0000000000000000  0.0628963204085268  T  T  T
0.6666666666666643  0.3333333333333357  0.1344004792863833  T  T  T
0.3333333333333357  0.6666666666666643  0.2059046381642399  T  T  T
0.3333333333333357  0.6666666666666643  0.0966325153387922  T  T  T
-0.0000000000000000  -0.0000000000000000  0.1721684432339663  T  T  T
0.3333333333333357  0.6666666666666643  0.0000000000000000  T  T  T
0.0000000000000000  -0.0000000000000000  0.2688009585727665  T  T  T

0.00000000E+00  0.00000000E+00  0.00000000E+00
0.00000000E+00  0.00000000E+00  0.00000000E+00
0.00000000E+00  0.00000000E+00  0.00000000E+00
0.00000000E+00  0.00000000E+00  0.00000000E+00
0.00000000E+00  0.00000000E+00  0.00000000E+00
0.00000000E+00  0.00000000E+00  0.00000000E+00
0.00000000E+00  0.00000000E+00  0.00000000E+00
