Hf2C  (n=1)
1.00000000000000
3.2879610707041937  0.0000000000000004  0.0000000000000000
-1.6439805353520969  2.8474578139421878  0.0000000000000000
-0.0000000000000001  -0.0000000000000025  31.9487012112383049
Hf  C  N  H
2  1  2  2
Selective  dynamics
Direct
-0.0000000000000000  -0.0000000000000000  0.0657342258519414  T  T  T
0.6666666666666643  0.3333333333333357  0.1517613513640120  T  T  T
0.3333333333333357  0.6666666666666643  0.1087477886079768  T  T  T
0.6666666666666643  0.3333333333333357  0.0320923036904648  T  T  T
0.0000000000000000  0.0000000000000000  0.1854032735254885  T  T  T
0.6666666666666643  0.3333333333333357  0.0000000000000000  T  T  T
-0.0000000000000000  0.0000000000000000  0.2174955772159534  T  T  T

0.00000000E+00  0.00000000E+00  0.00000000E+00
0.00000000E+00  0.00000000E+00  0.00000000E+00
0.00000000E+00  0.00000000E+00  0.00000000E+00
0.00000000E+00  0.00000000E+00  0.00000000E+00
0.00000000E+00  0.00000000E+00  0.00000000E+00
0.00000000E+00  0.00000000E+00  0.00000000E+00
0.00000000E+00  0.00000000E+00  0.00000000E+00
