Cr2C  (n=1)
1.00000000000000
2.8394669484918951  0.0000000000000000  0.0000000000000000
-1.4197334742459475  2.4590505106074363  0.0000000000000000
0.0000000000000000  -0.0000000000000001  31.6153329690372118
Cr  C  N  H
2  1  2  2
Selective  dynamics
Direct
-0.0000000000000000  -0.0000000000000000  0.0674725553594152  T  T  T
0.6666666666666643  0.3333333333333357  0.1417718949684053  T  T  T
0.3333333333333357  0.6666666666666643  0.1046222251639102  T  T  T
0.6666666666666643  0.3333333333333357  0.0324119653063275  T  T  T
-0.0000000000000000  -0.0000000000000000  0.1768324850214930  T  T  T
0.6666666666666643  0.3333333333333357  0.0000000000000000  T  T  T
0.0000000000000000  0.0000000000000000  0.2092444503278205  T  T  T

0.00000000E+00  0.00000000E+00  0.00000000E+00
0.00000000E+00  0.00000000E+00  0.00000000E+00
0.00000000E+00  0.00000000E+00  0.00000000E+00
0.00000000E+00  0.00000000E+00  0.00000000E+00
0.00000000E+00  0.00000000E+00  0.00000000E+00
0.00000000E+00  0.00000000E+00  0.00000000E+00
0.00000000E+00  0.00000000E+00  0.00000000E+00
