Zr2N  (n=1)
1.00000000000000
3.2923004185619931  0.0000000000000003  -0.0000000000000001
-1.6461502092809965  2.8512157994234171  0.0000000000000002
-0.0000000000000002  0.0000000000000005  31.9930072663289238
Zr  N  H
2  3  2
Selective  dynamics
Direct
0.0000000000000000  0.0000000000000000  0.0671645065048907  T  T  T
0.6666666666666643  0.3333333333333357  0.1514147351435946  T  T  T
0.3333333333333357  0.6666666666666643  0.1092896208242469  T  T  T
0.6666666666666643  0.3333333333333357  0.0320358132201243  T  T  T
-0.0000000000000000  -0.0000000000000000  0.1865434284283693  T  T  T
0.6666666666666643  0.3333333333333357  0.0000000000000000  T  T  T
0.0000000000000000  0.0000000000000000  0.2185792416484937  T  T  T

0.00000000E+00  0.00000000E+00  0.00000000E+00
0.00000000E+00  0.00000000E+00  0.00000000E+00
0.00000000E+00  0.00000000E+00  0.00000000E+00
0.00000000E+00  0.00000000E+00  0.00000000E+00
0.00000000E+00  0.00000000E+00  0.00000000E+00
0.00000000E+00  0.00000000E+00  0.00000000E+00
0.00000000E+00  0.00000000E+00  0.00000000E+00
