Nb2C  (n=1)
1.00000000000000
3.1558114207823631  0.0000000000000000  0.0000000000000000
-1.5779057103911815  2.7330128600155308  0.0000000000000000
0.0000000000000000  0.0000000000000000  31.9563399885851425
Nb  C  N  H
2  1  2  2
Selective  dynamics
Direct
-0.0000000000000000  -0.0000000000000000  0.0697646712978636  T  T  T
0.6666666666666643  0.3333333333333357  0.1479179541551670  T  T  T
0.3333333333333357  0.6666666666666643  0.1088413127265195  T  T  T
0.6666666666666643  0.3333333333333357  0.0320103061019432  T  T  T
-0.0000000000000000  -0.0000000000000000  0.1856723193510875  T  T  T
0.6666666666666643  0.3333333333333357  0.0000000000000000  T  T  T
-0.0000000000000000  0.0000000000000000  0.2176826254530388  T  T  T

0.00000000E+00  0.00000000E+00  0.00000000E+00
0.00000000E+00  0.00000000E+00  0.00000000E+00
0.00000000E+00  0.00000000E+00  0.00000000E+00
0.00000000E+00  0.00000000E+00  0.00000000E+00
0.00000000E+00  0.00000000E+00  0.00000000E+00
0.00000000E+00  0.00000000E+00  0.00000000E+00
0.00000000E+00  0.00000000E+00  0.00000000E+00
