Nb2N  (n=1)
1.00000000000000
3.1622369367429073  0.0000000000000000  0.0000000000000000
-1.5811184683714536  2.7385775200642661  0.0000000000000000
0.0000000000000000  0.0000000000000000  31.8289630725268857
Nb  N  H
2  3  2
Selective  dynamics
Direct
0.0000000000000000  -0.0000000000000000  0.0695307031024552  T  T  T
0.6666666666666643  0.3333333333333357  0.1450211519789091  T  T  T
0.3333333333333357  0.6666666666666643  0.1072759275406822  T  T  T
0.6666666666666643  0.3333333333333357  0.0321821033957667  T  T  T
-0.0000000000000000  -0.0000000000000000  0.1823697516855977  T  T  T
0.6666666666666643  0.3333333333333357  0.0000000000000000  T  T  T
-0.0000000000000000  0.0000000000000000  0.2145518550813643  T  T  T

0.00000000E+00  0.00000000E+00  0.00000000E+00
0.00000000E+00  0.00000000E+00  0.00000000E+00
0.00000000E+00  0.00000000E+00  0.00000000E+00
0.00000000E+00  0.00000000E+00  0.00000000E+00
0.00000000E+00  0.00000000E+00  0.00000000E+00
0.00000000E+00  0.00000000E+00  0.00000000E+00
0.00000000E+00  0.00000000E+00  0.00000000E+00
