Hf2N  (n=1)
1.00000000000000
3.2421491168636507  -0.0000000000000003  0.0000000000000000
-1.6210745584318256  2.8077834981168670  0.0000000000000000
0.0000000000000000  0.0000000000000000  31.9002671372379432
Hf  N  H
2  3  2
Selective  dynamics
Direct
-0.0000000000000000  -0.0000000000000000  0.0666628526233426  T  T  T
0.6666666666666643  0.3333333333333357  0.1496446506195723  T  T  T
0.3333333333333357  0.6666666666666643  0.1081537516214617  T  T  T
0.6666666666666643  0.3333333333333357  0.0321035213019078  T  T  T
0.0000000000000000  0.0000000000000000  0.1842039819410071  T  T  T
0.6666666666666643  0.3333333333333357  0.0000000000000000  T  T  T
-0.0000000000000000  -0.0000000000000000  0.2163075032429148  T  T  T

0.00000000E+00  0.00000000E+00  0.00000000E+00
0.00000000E+00  0.00000000E+00  0.00000000E+00
0.00000000E+00  0.00000000E+00  0.00000000E+00
0.00000000E+00  0.00000000E+00  0.00000000E+00
0.00000000E+00  0.00000000E+00  0.00000000E+00
0.00000000E+00  0.00000000E+00  0.00000000E+00
0.00000000E+00  0.00000000E+00  0.00000000E+00
