Ta2C  (n=1)
1.00000000000000
3.1472768281079913  0.0000000000000000  0.0000000000000002
-1.5736384140539956  2.7256216859351827  -0.0000000000000006
0.0000000000000008  -0.0000000000000009  31.8951320671774958
Ta  C  N  H
2  1  2  2
Selective  dynamics
Direct
-0.0000000000000000  -0.0000000000000000  0.0693231958157107  T  T  T
0.6666666666666643  0.3333333333333357  0.1468581340704603  T  T  T
0.3333333333333357  0.6666666666666643  0.1080906649430814  T  T  T
0.6666666666666643  0.3333333333333357  0.0320567721369093  T  T  T
0.0000000000000000  0.0000000000000000  0.1841245577492618  T  T  T
0.6666666666666643  0.3333333333333357  0.0000000000000000  T  T  T
0.0000000000000000  0.0000000000000000  0.2161813298861712  T  T  T

0.00000000E+00  0.00000000E+00  0.00000000E+00
0.00000000E+00  0.00000000E+00  0.00000000E+00
0.00000000E+00  0.00000000E+00  0.00000000E+00
0.00000000E+00  0.00000000E+00  0.00000000E+00
0.00000000E+00  0.00000000E+00  0.00000000E+00
0.00000000E+00  0.00000000E+00  0.00000000E+00
0.00000000E+00  0.00000000E+00  0.00000000E+00
