Ti2C  (n=1)
1.00000000000000
3.0629909311588559  0.0000000000000000  0.0000000000000000
-1.5314954655794280  2.6526279579934831  0.0000000000000000
0.0000000000000000  -0.0000000000000001  31.7148743067580270
Ti  C  N  H
2  1  2  2
Selective  dynamics
Direct
0.0000000000000000  0.0000000000000000  0.0654200574727771  T  T  T
0.6666666666666643  0.3333333333333357  0.1463062839848391  T  T  T
0.3333333333333357  0.6666666666666643  0.1058631707288121  T  T  T
0.6666666666666643  0.3333333333333357  0.0322939139722809  T  T  T
-0.0000000000000000  -0.0000000000000000  0.1794324274853353  T  T  T
0.6666666666666643  0.3333333333333357  0.0000000000000000  T  T  T
-0.0000000000000000  -0.0000000000000000  0.2117263414576162  T  T  T

0.00000000E+00  0.00000000E+00  0.00000000E+00
0.00000000E+00  0.00000000E+00  0.00000000E+00
0.00000000E+00  0.00000000E+00  0.00000000E+00
0.00000000E+00  0.00000000E+00  0.00000000E+00
0.00000000E+00  0.00000000E+00  0.00000000E+00
0.00000000E+00  0.00000000E+00  0.00000000E+00
0.00000000E+00  0.00000000E+00  0.00000000E+00
