Sc2C  (n=1)
1.00000000000000
3.2975012166731683  0.0000000000000000  0.0000000000000000
-1.6487506083365842  2.8557198227363814  0.0000000000000000
0.0000000000000000  0.0000000000000001  32.0192265135680643
Sc  C  N  H
2  1  2  2
Selective  dynamics
Direct
0.0000000000000000  0.0000000000000000  0.0617873599795874  T  T  T
0.6666666666666643  0.3333333333333357  0.1574317554663673  T  T  T
0.3333333333333357  0.6666666666666643  0.1096095577229773  T  T  T
0.6666666666666643  0.3333333333333357  0.0321657960902962  T  T  T
0.0000000000000000  0.0000000000000000  0.1870533193556585  T  T  T
0.6666666666666643  0.3333333333333357  0.0000000000000000  T  T  T
-0.0000000000000000  -0.0000000000000000  0.2192191154459550  T  T  T

0.00000000E+00  0.00000000E+00  0.00000000E+00
0.00000000E+00  0.00000000E+00  0.00000000E+00
0.00000000E+00  0.00000000E+00  0.00000000E+00
0.00000000E+00  0.00000000E+00  0.00000000E+00
0.00000000E+00  0.00000000E+00  0.00000000E+00
0.00000000E+00  0.00000000E+00  0.00000000E+00
0.00000000E+00  0.00000000E+00  0.00000000E+00
