Zr2C  (n=1)
1.00000000000000
3.3408426985979327  -0.0000000000000006  0.0000000000000002
-1.6704213492989664  2.8932546470945866  0.0000000000000000
0.0000000000000003  -0.0000000000000016  32.0245905840275356
Zr  C  N  H
2  1  2  2
Selective  dynamics
Direct
0.0000000000000000  0.0000000000000000  0.0660273525759202  T  T  T
0.6666666666666643  0.3333333333333357  0.1533225424866205  T  T  T
0.3333333333333357  0.6666666666666643  0.1096749475312745  T  T  T
0.6666666666666643  0.3333333333333357  0.0320476686975730  T  T  T
-0.0000000000000000  -0.0000000000000000  0.1873022263649678  T  T  T
0.6666666666666643  0.3333333333333357  0.0000000000000000  T  T  T
0.0000000000000000  0.0000000000000000  0.2193498950625490  T  T  T

0.00000000E+00  0.00000000E+00  0.00000000E+00
0.00000000E+00  0.00000000E+00  0.00000000E+00
0.00000000E+00  0.00000000E+00  0.00000000E+00
0.00000000E+00  0.00000000E+00  0.00000000E+00
0.00000000E+00  0.00000000E+00  0.00000000E+00
0.00000000E+00  0.00000000E+00  0.00000000E+00
0.00000000E+00  0.00000000E+00  0.00000000E+00
