Ti2N  (n=1)
1.00000000000000
3.0145909055103650  0.0000000000000000  0.0000000000000000
-1.5072954527551825  2.6107123062251003  0.0000000000000000
0.0000000000000000  0.0000000000000000  31.6843968043089070
Ti  N  H
2  3  2
Selective  dynamics
Direct
-0.0000000000000000  -0.0000000000000000  0.0663521561017590  T  T  T
0.6666666666666643  0.3333333333333357  0.1446159379286797  T  T  T
0.3333333333333357  0.6666666666666643  0.1054840470152194  T  T  T
0.6666666666666643  0.3333333333333357  0.0322657547917950  T  T  T
-0.0000000000000000  -0.0000000000000000  0.1787023392386436  T  T  T
0.6666666666666643  0.3333333333333357  0.0000000000000000  T  T  T
0.0000000000000000  0.0000000000000000  0.2109680940304303  T  T  T

0.00000000E+00  0.00000000E+00  0.00000000E+00
0.00000000E+00  0.00000000E+00  0.00000000E+00
0.00000000E+00  0.00000000E+00  0.00000000E+00
0.00000000E+00  0.00000000E+00  0.00000000E+00
0.00000000E+00  0.00000000E+00  0.00000000E+00
0.00000000E+00  0.00000000E+00  0.00000000E+00
0.00000000E+00  0.00000000E+00  0.00000000E+00
