Cr2N  (n=1)
1.00000000000000
2.8542949842990706  0.0000000000000000  0.0000000000000000
-1.4271474921495353  2.4718919663419179  0.0000000000000000
0.0000000000000000  0.0000000000000000  31.5878957042052022
Cr  N  H
2  3  2
Selective  dynamics
Direct
0.0000000000000000  -0.0000000000000000  0.0665046148758607  T  T  T
0.6666666666666643  0.3333333333333357  0.1420529847153071  T  T  T
0.3333333333333357  0.6666666666666643  0.1042787997955880  T  T  T
0.6666666666666643  0.3333333333333357  0.0324234400913935  T  T  T
-0.0000000000000000  -0.0000000000000000  0.1761341594997743  T  T  T
0.6666666666666643  0.3333333333333357  0.0000000000000000  T  T  T
-0.0000000000000000  -0.0000000000000000  0.2085575995911680  T  T  T

0.00000000E+00  0.00000000E+00  0.00000000E+00
0.00000000E+00  0.00000000E+00  0.00000000E+00
0.00000000E+00  0.00000000E+00  0.00000000E+00
0.00000000E+00  0.00000000E+00  0.00000000E+00
0.00000000E+00  0.00000000E+00  0.00000000E+00
0.00000000E+00  0.00000000E+00  0.00000000E+00
0.00000000E+00  0.00000000E+00  0.00000000E+00
