Mo2N  (n=1)
1.00000000000000
2.8612420497222408  -0.0000000000000001  0.0000000000000001
-1.4306210248611202  2.4779083014740091  -0.0000000000000002
0.0000000000000000  -0.0000000000000015  32.5380348692476744
Mo  N  H
2  3  2
Selective  dynamics
Direct
-0.0000000000000000  -0.0000000000000000  0.0701218197021320  T  T  T
0.6666666666666643  0.3333333333333357  0.1615465923436126  T  T  T
0.3333333333333357  0.6666666666666643  0.1158342060228764  T  T  T
0.6666666666666643  0.3333333333333357  0.0315061530190519  T  T  T
-0.0000000000000000  0.0000000000000000  0.2001622590266927  T  T  T
0.6666666666666643  0.3333333333333357  0.0000000000000000  T  T  T
0.0000000000000000  0.0000000000000000  0.2316684120457446  T  T  T

0.00000000E+00  0.00000000E+00  0.00000000E+00
0.00000000E+00  0.00000000E+00  0.00000000E+00
0.00000000E+00  0.00000000E+00  0.00000000E+00
0.00000000E+00  0.00000000E+00  0.00000000E+00
0.00000000E+00  0.00000000E+00  0.00000000E+00
0.00000000E+00  0.00000000E+00  0.00000000E+00
0.00000000E+00  0.00000000E+00  0.00000000E+00
