Ta2N  (n=1)
1.00000000000000
3.1542428454898466  0.0000000000000000  0.0000000000000000
-1.5771214227449233  2.7316544339545246  0.0000000000000000
0.0000000000000000  0.0000000000000000  31.7571960293557183
Ta  N  H
2  3  2
Selective  dynamics
Direct
-0.0000000000000000  0.0000000000000000  0.0690171250953360  T  T  T
0.6666666666666643  0.3333333333333357  0.1437597215478469  T  T  T
0.3333333333333357  0.6666666666666643  0.1063884233215914  T  T  T
0.6666666666666643  0.3333333333333357  0.0322581124097945  T  T  T
0.0000000000000000  0.0000000000000000  0.1805187342333883  T  T  T
0.6666666666666643  0.3333333333333357  0.0000000000000000  T  T  T
0.0000000000000000  0.0000000000000000  0.2127768466431829  T  T  T

0.00000000E+00  0.00000000E+00  0.00000000E+00
0.00000000E+00  0.00000000E+00  0.00000000E+00
0.00000000E+00  0.00000000E+00  0.00000000E+00
0.00000000E+00  0.00000000E+00  0.00000000E+00
0.00000000E+00  0.00000000E+00  0.00000000E+00
0.00000000E+00  0.00000000E+00  0.00000000E+00
0.00000000E+00  0.00000000E+00  0.00000000E+00
