Mo2C  (n=1)
1.00000000000000
2.9525108811568122  0.0000000000000000  0.0000000000000000
-1.4762554405784061  2.5569494280669822  0.0000000000000000
0.0000000000000000  0.0000000000000000  32.2575680499837389
Mo  C  N  H
2  1  2  2
Selective  dynamics
Direct
0.0000000000000000  -0.0000000000000000  0.0702041046415683  T  T  T
0.6666666666666643  0.3333333333333357  0.1547839675757169  T  T  T
0.3333333333333357  0.6666666666666643  0.1124940361086426  T  T  T
0.6666666666666643  0.3333333333333357  0.0317851121880191  T  T  T
-0.0000000000000000  -0.0000000000000000  0.1932029600292660  T  T  T
0.6666666666666643  0.3333333333333357  0.0000000000000000  T  T  T
-0.0000000000000000  0.0000000000000000  0.2249880722172853  T  T  T

0.00000000E+00  0.00000000E+00  0.00000000E+00
0.00000000E+00  0.00000000E+00  0.00000000E+00
0.00000000E+00  0.00000000E+00  0.00000000E+00
0.00000000E+00  0.00000000E+00  0.00000000E+00
0.00000000E+00  0.00000000E+00  0.00000000E+00
0.00000000E+00  0.00000000E+00  0.00000000E+00
0.00000000E+00  0.00000000E+00  0.00000000E+00
