Sc2N
1.00000000000000
3.2182953527396823  0.0000000000000000  0.0000000000000002
-1.6091476763698414  2.7871255324091777  0.0000000000000000
0.0000000000000004  0.0000000000000005  31.9537072409456826
Sc  N  H
2  3  2
Selective  dynamics
Direct
-0.0000000000000000  -0.0000000000000000  0.0656758450336606  T  T  T
0.6666666666666643  0.3333333333333357  0.1519423232906442  T  T  T
0.3333333333333357  0.6666666666666643  0.1088090841621525  T  T  T
0.6666666666666643  0.3333333333333357  0.0321080809460637  T  T  T
-0.0000000000000000  -0.0000000000000000  0.1855100873782412  T  T  T
0.6666666666666643  0.3333333333333357  0.0000000000000000  T  T  T
0.0000000000000000  0.0000000000000000  0.2176181683243050  T  T  T

0.00000000E+00  0.00000000E+00  0.00000000E+00
0.00000000E+00  0.00000000E+00  0.00000000E+00
0.00000000E+00  0.00000000E+00  0.00000000E+00
0.00000000E+00  0.00000000E+00  0.00000000E+00
0.00000000E+00  0.00000000E+00  0.00000000E+00
0.00000000E+00  0.00000000E+00  0.00000000E+00
0.00000000E+00  0.00000000E+00  0.00000000E+00
