Ta3C2  (n=2)
1.00000000000000
3.2405421351115025  0.0000000000000000  0.0000000000000000
-1.6202710675557512  2.8063918117335191  0.0000000000000000
0.0000000000000001  0.0000000000000000  33.6749995611390602
Ta  C  Se
3  2  2
Selective  dynamics
Direct
0.0000000000000000  0.0000000000000000  0.0543355646769006  T  T  T
0.6666666666666643  0.3333333333333357  0.1288047464616713  T  T  T
0.3333333333333357  0.6666666666666643  0.2032739282464491  T  T  T
0.3333333333333357  0.6666666666666643  0.0910433686056531  T  T  T
0.0000000000000000  0.0000000000000000  0.1665661243176894  T  T  T
0.3333333333333357  0.6666666666666643  0.0000000000000000  T  T  T
0.0000000000000000  0.0000000000000000  0.2576094929233497  T  T  T

0.00000000E+00  0.00000000E+00  0.00000000E+00
0.00000000E+00  0.00000000E+00  0.00000000E+00
0.00000000E+00  0.00000000E+00  0.00000000E+00
0.00000000E+00  0.00000000E+00  0.00000000E+00
0.00000000E+00  0.00000000E+00  0.00000000E+00
0.00000000E+00  0.00000000E+00  0.00000000E+00
0.00000000E+00  0.00000000E+00  0.00000000E+00
