Ti3C2  (n=2)
1.00000000000000
3.1524871983232745  -0.0000000000000003  0.0000000000000001
-1.5762435991616375  2.7301339991895914  0.0000000000000000
0.0000000000000016  0.0000000000000025  33.5600749826791827
Ti  C  Se
3  2  2
Selective  dynamics
Direct
0.0000000000000000  0.0000000000000000  0.0557848608237028  T  T  T
0.6666666666666643  0.3333333333333357  0.1275336093125114  T  T  T
0.3333333333333357  0.6666666666666643  0.1992823578013274  T  T  T
0.3333333333333357  0.6666666666666643  0.0903434660935353  T  T  T
0.0000000000000000  0.0000000000000000  0.1647237525314799  T  T  T
0.3333333333333357  0.6666666666666643  0.0000000000000000  T  T  T
-0.0000000000000000  -0.0000000000000000  0.2550672186250226  T  T  T

0.00000000E+00  0.00000000E+00  0.00000000E+00
0.00000000E+00  0.00000000E+00  0.00000000E+00
0.00000000E+00  0.00000000E+00  0.00000000E+00
0.00000000E+00  0.00000000E+00  0.00000000E+00
0.00000000E+00  0.00000000E+00  0.00000000E+00
0.00000000E+00  0.00000000E+00  0.00000000E+00
0.00000000E+00  0.00000000E+00  0.00000000E+00
