Mo3N2  (n=2)
1.00000000000000
3.0689840921847757  0.0000000000000000  0.0000000000000000
-1.5344920460923874  2.6578181880408120  0.0000000000000002
0.0000000000000000  0.0000000000000029  33.8632331515267850
Mo  N  Se
3  2  2
Selective  dynamics
Direct
-0.0000000000000000  -0.0000000000000000  0.0528470917117971  T  T  T
0.6666666666666643  0.3333333333333357  0.1308650316081070  T  T  T
0.3333333333333357  0.6666666666666643  0.2088890842719534  T  T  T
0.3333333333333357  0.6666666666666643  0.0906436741142138  T  T  T
-0.0000000000000000  -0.0000000000000000  0.1710886080709497  T  T  T
0.3333333333333357  0.6666666666666643  0.0000000000000000  T  T  T
0.0000000000000000  0.0000000000000000  0.2617361759837504  T  T  T

0.00000000E+00  0.00000000E+00  0.00000000E+00
0.00000000E+00  0.00000000E+00  0.00000000E+00
0.00000000E+00  0.00000000E+00  0.00000000E+00
0.00000000E+00  0.00000000E+00  0.00000000E+00
0.00000000E+00  0.00000000E+00  0.00000000E+00
0.00000000E+00  0.00000000E+00  0.00000000E+00
0.00000000E+00  0.00000000E+00  0.00000000E+00
