Cr3N2  (n=2)
1.00000000000000
2.9797025692806565  0.0000000000000000  0.0000000000000000
-1.4898512846403282  2.5804981207514519  0.0000000000000000
0.0000000000000000  -0.0000000000000004  33.0489236314178214
Cr  N  Se
3  2  2
Selective  dynamics
Direct
0.0000000000000000  -0.0000000000000000  0.0517485582355374  T  T  T
0.6666666666666643  0.3333333333333357  0.1217728559208791  T  T  T
0.3333333333333357  0.6666666666666643  0.1917971536062286  T  T  T
0.3333333333333357  0.6666666666666643  0.0857531465056078  T  T  T
-0.0000000000000000  -0.0000000000000000  0.1577925653361505  T  T  T
0.3333333333333357  0.6666666666666643  0.0000000000000000  T  T  T
0.0000000000000000  0.0000000000000000  0.2435457118417661  T  T  T

0.00000000E+00  0.00000000E+00  0.00000000E+00
0.00000000E+00  0.00000000E+00  0.00000000E+00
0.00000000E+00  0.00000000E+00  0.00000000E+00
0.00000000E+00  0.00000000E+00  0.00000000E+00
0.00000000E+00  0.00000000E+00  0.00000000E+00
0.00000000E+00  0.00000000E+00  0.00000000E+00
0.00000000E+00  0.00000000E+00  0.00000000E+00
