Zr3C2  (n=2)
1.00000000000000
3.4041802518279258  -0.0000000000000004  -0.0000000000000002
-1.7020901259139636  2.9481065782666551  0.0000000000000000
-0.0000000000000019  -0.0000000000000031  34.1655924631557042
Zr  C  Se
3  2  2
Selective  dynamics
Direct
-0.0000000000000000  -0.0000000000000000  0.0561876556018487  T  T  T
0.6666666666666643  0.3333333333333357  0.1341348386251447  T  T  T
0.3333333333333357  0.6666666666666643  0.2120820216484406  T  T  T
0.3333333333333357  0.6666666666666643  0.0943331822035662  T  T  T
-0.0000000000000000  -0.0000000000000000  0.1739364950467158  T  T  T
0.3333333333333357  0.6666666666666643  0.0000000000000000  T  T  T
0.0000000000000000  0.0000000000000000  0.2682696772502894  T  T  T

0.00000000E+00  0.00000000E+00  0.00000000E+00
0.00000000E+00  0.00000000E+00  0.00000000E+00
0.00000000E+00  0.00000000E+00  0.00000000E+00
0.00000000E+00  0.00000000E+00  0.00000000E+00
0.00000000E+00  0.00000000E+00  0.00000000E+00
0.00000000E+00  0.00000000E+00  0.00000000E+00
0.00000000E+00  0.00000000E+00  0.00000000E+00
