Nb3C2  (n=2)
1.00000000000000
3.2647350012509602  -0.0000000000000001  0.0000000000000000
-1.6323675006254801  2.8273434484473827  -0.0000000000000003
0.0000000000000009  -0.0000000000000019  33.6790302023379766
Nb  C  Se
3  2  2
Selective  dynamics
Direct
-0.0000000000000000  -0.0000000000000000  0.0547616557506527  T  T  T
0.6666666666666643  0.3333333333333357  0.1288491703917217  T  T  T
0.3333333333333357  0.6666666666666643  0.2029366850327906  T  T  T
0.3333333333333357  0.6666666666666643  0.0904524945800094  T  T  T
0.0000000000000000  0.0000000000000000  0.1672458462034266  T  T  T
0.3333333333333357  0.6666666666666643  0.0000000000000000  T  T  T
0.0000000000000000  -0.0000000000000000  0.2576983407834435  T  T  T

0.00000000E+00  0.00000000E+00  0.00000000E+00
0.00000000E+00  0.00000000E+00  0.00000000E+00
0.00000000E+00  0.00000000E+00  0.00000000E+00
0.00000000E+00  0.00000000E+00  0.00000000E+00
0.00000000E+00  0.00000000E+00  0.00000000E+00
0.00000000E+00  0.00000000E+00  0.00000000E+00
0.00000000E+00  0.00000000E+00  0.00000000E+00
