Hf3N2  (n=2)
1.00000000000000
3.3418332183350570  0.0000000000000001  0.0000000000000000
-1.6709166091675287  2.8941124631237476  0.0000000000000000
-0.0000000000000006  0.0000000000000018  33.7105454925947825
Hf  N  Se
3  2  2
Selective  dynamics
Direct
0.0000000000000000  0.0000000000000000  0.0532863739089127  T  T  T
0.6666666666666643  0.3333333333333357  0.1291961516094161  T  T  T
0.3333333333333357  0.6666666666666643  0.2051059293099264  T  T  T
0.3333333333333357  0.6666666666666643  0.0925979904496447  T  T  T
0.0000000000000000  0.0000000000000000  0.1657943127691804  T  T  T
0.3333333333333357  0.6666666666666643  0.0000000000000000  T  T  T
0.0000000000000000  0.0000000000000000  0.2583923032188320  T  T  T

0.00000000E+00  0.00000000E+00  0.00000000E+00
0.00000000E+00  0.00000000E+00  0.00000000E+00
0.00000000E+00  0.00000000E+00  0.00000000E+00
0.00000000E+00  0.00000000E+00  0.00000000E+00
0.00000000E+00  0.00000000E+00  0.00000000E+00
0.00000000E+00  0.00000000E+00  0.00000000E+00
0.00000000E+00  0.00000000E+00  0.00000000E+00
