Zr3N2  (n=2)
1.00000000000000
3.3889435249555735  0.0000000000000000  0.0000000000000000
-1.6944717624777867  2.9349111856800567  0.0000000000000001
-0.0000000000000006  0.0000000000000002  33.8196672572289430
Zr  N  Se
3  2  2
Selective  dynamics
Direct
0.0000000000000000  -0.0000000000000000  0.0540704104717278  T  T  T
0.6666666666666643  0.3333333333333357  0.1303925788232478  T  T  T
0.3333333333333357  0.6666666666666643  0.2067147471747816  T  T  T
0.3333333333333357  0.6666666666666643  0.0930699183661838  T  T  T
0.0000000000000000  0.0000000000000000  0.1677152392803186  T  T  T
0.3333333333333357  0.6666666666666643  0.0000000000000000  T  T  T
0.0000000000000000  -0.0000000000000000  0.2607851576465096  T  T  T

0.00000000E+00  0.00000000E+00  0.00000000E+00
0.00000000E+00  0.00000000E+00  0.00000000E+00
0.00000000E+00  0.00000000E+00  0.00000000E+00
0.00000000E+00  0.00000000E+00  0.00000000E+00
0.00000000E+00  0.00000000E+00  0.00000000E+00
0.00000000E+00  0.00000000E+00  0.00000000E+00
0.00000000E+00  0.00000000E+00  0.00000000E+00
