Ti3N2  (n=2)
1.00000000000000
3.1409779673395204  0.0000000000000000  0.0000000000000000
-1.5704889836697604  2.7201667126357436  -0.0000000000000001
0.0000000000000002  -0.0000000000000025  33.2572209716870830
Ti  N  Se
3  2  2
Selective  dynamics
Direct
0.0000000000000000  0.0000000000000000  0.0540987952185079  T  T  T
0.6666666666666643  0.3333333333333357  0.1241417762884710  T  T  T
0.3333333333333357  0.6666666666666643  0.1941847573584410  T  T  T
0.3333333333333357  0.6666666666666643  0.0886207383633034  T  T  T
0.0000000000000000  0.0000000000000000  0.1596628142136456  T  T  T
0.3333333333333357  0.6666666666666643  0.0000000000000000  T  T  T
0.0000000000000000  0.0000000000000000  0.2482835525769491  T  T  T

0.00000000E+00  0.00000000E+00  0.00000000E+00
0.00000000E+00  0.00000000E+00  0.00000000E+00
0.00000000E+00  0.00000000E+00  0.00000000E+00
0.00000000E+00  0.00000000E+00  0.00000000E+00
0.00000000E+00  0.00000000E+00  0.00000000E+00
0.00000000E+00  0.00000000E+00  0.00000000E+00
0.00000000E+00  0.00000000E+00  0.00000000E+00
