Mo3C2  (n=2)
1.00000000000000
3.1372156010192431  0.0000000000000001  0.0000000000000000
-1.5686078005096216  2.7169084080061308  0.0000000000000001
0.0000000000000001  0.0000000000000012  33.5936467608161706
Mo  C  Se
3  2  2
Selective  dynamics
Direct
0.0000000000000000  0.0000000000000000  0.0536193603457003  T  T  T
0.6666666666666643  0.3333333333333357  0.1279058332368869  T  T  T
0.3333333333333357  0.6666666666666643  0.2021923061280809  T  T  T
0.3333333333333357  0.6666666666666643  0.0895506283117526  T  T  T
-0.0000000000000000  -0.0000000000000000  0.1662610381620285  T  T  T
0.3333333333333357  0.6666666666666643  0.0000000000000000  T  T  T
0.0000000000000000  0.0000000000000000  0.2558116664737884  T  T  T

0.00000000E+00  0.00000000E+00  0.00000000E+00
0.00000000E+00  0.00000000E+00  0.00000000E+00
0.00000000E+00  0.00000000E+00  0.00000000E+00
0.00000000E+00  0.00000000E+00  0.00000000E+00
0.00000000E+00  0.00000000E+00  0.00000000E+00
0.00000000E+00  0.00000000E+00  0.00000000E+00
0.00000000E+00  0.00000000E+00  0.00000000E+00
