Sc3C2  (n=2)
1.00000000000000
3.7126181782334617  0.0000000000000002  0.0000000000000000
-1.8563090891167309  3.2152216579885780  0.0000000000000001
-0.0000000000000004  0.0000000000000009  32.4644097624705665
Sc  C  Se
3  2  2
Selective  dynamics
Direct
-0.0000000000000000  -0.0000000000000000  0.0445098782711317  T  T  T
0.6666666666666643  0.3333333333333357  0.1149629674016060  T  T  T
0.3333333333333357  0.6666666666666643  0.1854160565320804  T  T  T
0.3333333333333357  0.6666666666666643  0.0750113737684688  T  T  T
-0.0000000000000000  -0.0000000000000000  0.1549145610347367  T  T  T
0.3333333333333357  0.6666666666666643  0.0000000000000000  T  T  T
-0.0000000000000000  -0.0000000000000000  0.2299259348032121  T  T  T

0.00000000E+00  0.00000000E+00  0.00000000E+00
0.00000000E+00  0.00000000E+00  0.00000000E+00
0.00000000E+00  0.00000000E+00  0.00000000E+00
0.00000000E+00  0.00000000E+00  0.00000000E+00
0.00000000E+00  0.00000000E+00  0.00000000E+00
0.00000000E+00  0.00000000E+00  0.00000000E+00
0.00000000E+00  0.00000000E+00  0.00000000E+00
