Ta3N2  (n=2)
1.00000000000000
3.2023808813856625  0.0000000000000000  0.0000000000000000
-1.6011904406928310  2.7733431962991864  0.0000000000000000
0.0000000000000000  -0.0000000000000004  33.6666875055995689
Ta  N  Se
3  2  2
Selective  dynamics
Direct
-0.0000000000000000  -0.0000000000000000  0.0534150947742159  T  T  T
0.6666666666666643  0.3333333333333357  0.1287131011056270  T  T  T
0.3333333333333357  0.6666666666666643  0.2040111074370382  T  T  T
0.3333333333333357  0.6666666666666643  0.0922314085965934  T  T  T
-0.0000000000000000  0.0000000000000000  0.1651947936146535  T  T  T
0.3333333333333357  0.6666666666666643  0.0000000000000000  T  T  T
-0.0000000000000000  0.0000000000000000  0.2574262022112540  T  T  T

0.00000000E+00  0.00000000E+00  0.00000000E+00
0.00000000E+00  0.00000000E+00  0.00000000E+00
0.00000000E+00  0.00000000E+00  0.00000000E+00
0.00000000E+00  0.00000000E+00  0.00000000E+00
0.00000000E+00  0.00000000E+00  0.00000000E+00
0.00000000E+00  0.00000000E+00  0.00000000E+00
0.00000000E+00  0.00000000E+00  0.00000000E+00
