Cr3C2  (n=2)
1.00000000000000
2.9891067630389210  0.0000000000000000  0.0000000000000000
-1.4945533815194605  2.5886423914606436  -0.0000000000000004
-0.0000000000000004  -0.0000000000000037  32.9489219510838609
Cr  C  Se
3  2  2
Selective  dynamics
Direct
-0.0000000000000000  -0.0000000000000000  0.0518833737772047  T  T  T
0.6666666666666643  0.3333333333333357  0.1206249169985644  T  T  T
0.3333333333333357  0.6666666666666643  0.1893664602199321  T  T  T
0.3333333333333357  0.6666666666666643  0.0843052845726061  T  T  T
0.0000000000000000  0.0000000000000000  0.1569445494245307  T  T  T
0.3333333333333357  0.6666666666666643  0.0000000000000000  T  T  T
-0.0000000000000000  -0.0000000000000000  0.2412498339971447  T  T  T

0.00000000E+00  0.00000000E+00  0.00000000E+00
0.00000000E+00  0.00000000E+00  0.00000000E+00
0.00000000E+00  0.00000000E+00  0.00000000E+00
0.00000000E+00  0.00000000E+00  0.00000000E+00
0.00000000E+00  0.00000000E+00  0.00000000E+00
0.00000000E+00  0.00000000E+00  0.00000000E+00
0.00000000E+00  0.00000000E+00  0.00000000E+00
