Sc3N2  (n=2)
1.00000000000000
3.2446140929246594  -0.0000000000000001  0.0000000000000000
-1.6223070464623297  2.8099182306371717  0.0000000000000000
0.0000000000000007  -0.0000000000000020  34.1303978556437642
Sc  N  Se
3  2  2
Selective  dynamics
Direct
-0.0000000000000000  -0.0000000000000000  0.0584061506246279  T  T  T
0.6666666666666643  0.3333333333333357  0.1337575655323553  T  T  T
0.3333333333333357  0.6666666666666643  0.2091089804400899  T  T  T
0.3333333333333357  0.6666666666666643  0.0954736213998483  T  T  T
-0.0000000000000000  0.0000000000000000  0.1720415096648695  T  T  T
0.3333333333333357  0.6666666666666643  0.0000000000000000  T  T  T
-0.0000000000000000  -0.0000000000000000  0.2675151310647254  T  T  T

0.00000000E+00  0.00000000E+00  0.00000000E+00
0.00000000E+00  0.00000000E+00  0.00000000E+00
0.00000000E+00  0.00000000E+00  0.00000000E+00
0.00000000E+00  0.00000000E+00  0.00000000E+00
0.00000000E+00  0.00000000E+00  0.00000000E+00
0.00000000E+00  0.00000000E+00  0.00000000E+00
0.00000000E+00  0.00000000E+00  0.00000000E+00
