Nb3N2  (n=2)
1.00000000000000
3.2110840030927350  0.0000000000000000  0.0000000000000000
-1.6055420015463675  2.7808803208800921  0.0000000000000000
0.0000000000000000  -0.0000000000000004  33.7267520041724538
Nb  N  Se
3  2  2
Selective  dynamics
Direct
0.0000000000000000  0.0000000000000000  0.0537606513224461  T  T  T
0.6666666666666643  0.3333333333333357  0.1293743317336463  T  T  T
0.3333333333333357  0.6666666666666643  0.2049880121448464  T  T  T
0.3333333333333357  0.6666666666666643  0.0920413524764703  T  T  T
-0.0000000000000000  0.0000000000000000  0.1667073109908149  T  T  T
0.3333333333333357  0.6666666666666643  0.0000000000000000  T  T  T
-0.0000000000000000  0.0000000000000000  0.2587486634672925  T  T  T

0.00000000E+00  0.00000000E+00  0.00000000E+00
0.00000000E+00  0.00000000E+00  0.00000000E+00
0.00000000E+00  0.00000000E+00  0.00000000E+00
0.00000000E+00  0.00000000E+00  0.00000000E+00
0.00000000E+00  0.00000000E+00  0.00000000E+00
0.00000000E+00  0.00000000E+00  0.00000000E+00
0.00000000E+00  0.00000000E+00  0.00000000E+00
