Hf3C2  (n=2)
1.00000000000000
3.3570970098233013  0.0000000000000005  0.0000000000000001
-1.6785485049116500  2.9073312945739715  -0.0000000000000003
0.0000000000000003  -0.0000000000000048  34.0442604107446130
Hf  C  Se
3  2  2
Selective  dynamics
Direct
0.0000000000000000  -0.0000000000000000  0.0559629233933286  T  T  T
0.6666666666666643  0.3333333333333357  0.1328309133702047  T  T  T
0.3333333333333357  0.6666666666666643  0.2096989033470807  T  T  T
0.3333333333333357  0.6666666666666643  0.0935795085531216  T  T  T
0.0000000000000000  -0.0000000000000000  0.1720823181872803  T  T  T
0.3333333333333357  0.6666666666666643  0.0000000000000000  T  T  T
-0.0000000000000000  -0.0000000000000000  0.2656618267404093  T  T  T

0.00000000E+00  0.00000000E+00  0.00000000E+00
0.00000000E+00  0.00000000E+00  0.00000000E+00
0.00000000E+00  0.00000000E+00  0.00000000E+00
0.00000000E+00  0.00000000E+00  0.00000000E+00
0.00000000E+00  0.00000000E+00  0.00000000E+00
0.00000000E+00  0.00000000E+00  0.00000000E+00
0.00000000E+00  0.00000000E+00  0.00000000E+00
