Nb3N2  (n=2)
1.00000000000000
3.3593219706040687  0.0000000000000000  0.0000000000000000
-1.6796609853020343  2.9092581662908716  0.0000000000000000
0.0000000000000000  0.0000000000000000  34.0036070666212211
Nb  N  I
3  2  2
Selective  dynamics
Direct
0.0000000000000000  -0.0000000000000000  0.0652147027907619  T  T  T
0.6666666666666643  0.3333333333333357  0.1285048121842953  T  T  T
0.3333333333333357  0.6666666666666643  0.2020067205019468  T  T  T
0.3333333333333357  0.6666666666666643  0.0943480307538599  T  T  T
0.0000000000000000  -0.0000000000000000  0.1668569483224630  T  T  T
0.6666666666666643  0.3333333333333357  0.0000000000000000  T  T  T
0.0000000000000000  0.0000000000000000  0.2647838815741222  T  T  T

0.00000000E+00  0.00000000E+00  0.00000000E+00
0.00000000E+00  0.00000000E+00  0.00000000E+00
0.00000000E+00  0.00000000E+00  0.00000000E+00
0.00000000E+00  0.00000000E+00  0.00000000E+00
0.00000000E+00  0.00000000E+00  0.00000000E+00
0.00000000E+00  0.00000000E+00  0.00000000E+00
0.00000000E+00  0.00000000E+00  0.00000000E+00
