Cr3N2  (n=2)
1.00000000000000
3.2349992217065693  -0.0000000000000001  -0.0000000000000000
-1.6174996108532846  2.8015915072356328  0.0000000000000000
-0.0000000000000001  -0.0000000000000006  33.2773344431064473
Cr  N  I
3  2  2
Selective  dynamics
Direct
-0.0000000000000000  -0.0000000000000000  0.0692209365271442  T  T  T
0.6666666666666643  0.3333333333333357  0.1289576874616909  T  T  T
0.3333333333333357  0.6666666666666643  0.1843627906024427  T  T  T
0.3333333333333357  0.6666666666666643  0.0955648910371021  T  T  T
-0.0000000000000000  0.0000000000000000  0.1669540402592089  T  T  T
0.3333333333333357  0.6666666666666643  0.0000000000000000  T  T  T
0.6666666666666643  0.3333333333333357  0.2487379046917965  T  T  T

0.00000000E+00  0.00000000E+00  0.00000000E+00
0.00000000E+00  0.00000000E+00  0.00000000E+00
0.00000000E+00  0.00000000E+00  0.00000000E+00
0.00000000E+00  0.00000000E+00  0.00000000E+00
0.00000000E+00  0.00000000E+00  0.00000000E+00
0.00000000E+00  0.00000000E+00  0.00000000E+00
0.00000000E+00  0.00000000E+00  0.00000000E+00
