Zr3N2  (n=2)
1.00000000000000
3.4899977540287073  0.0000000000000000  0.0000000000000000
-1.7449988770143534  3.0224267144802259  0.0000000000000000
0.0000000000000001  -0.0000000000000001  34.1887919415623927
Zr  N  I
3  2  2
Selective  dynamics
Direct
0.0000000000000000  -0.0000000000000000  0.0631283873573485  T  T  T
0.6666666666666643  0.3333333333333357  0.1356345779143311  T  T  T
0.3333333333333357  0.6666666666666643  0.2043077484341558  T  T  T
0.3333333333333357  0.6666666666666643  0.0964214413825220  T  T  T
0.0000000000000000  0.0000000000000000  0.1724701348518534  T  T  T
0.3333333333333357  0.6666666666666643  0.0000000000000000  T  T  T
0.6666666666666643  0.3333333333333357  0.2687662072783515  T  T  T

0.00000000E+00  0.00000000E+00  0.00000000E+00
0.00000000E+00  0.00000000E+00  0.00000000E+00
0.00000000E+00  0.00000000E+00  0.00000000E+00
0.00000000E+00  0.00000000E+00  0.00000000E+00
0.00000000E+00  0.00000000E+00  0.00000000E+00
0.00000000E+00  0.00000000E+00  0.00000000E+00
0.00000000E+00  0.00000000E+00  0.00000000E+00
