Cr3C2  (n=2)
1.00000000000000
3.2393128893512744  0.0000000000000000  0.0000000000000000
-1.6196564446756372  2.8053272530217224  -0.0000000000000002
-0.0000000000000002  -0.0000000000000019  33.2385294906455684
Cr  C  I
3  2  2
Selective  dynamics
Direct
-0.0000000000000000  -0.0000000000000000  0.0663204642551783  T  T  T
0.6666666666666643  0.3333333333333357  0.1249155810318128  T  T  T
0.3333333333333357  0.6666666666666643  0.1836374082442634  T  T  T
0.3333333333333357  0.6666666666666643  0.0916612895671592  T  T  T
-0.0000000000000000  -0.0000000000000000  0.1607695748797265  T  T  T
0.3333333333333357  0.6666666666666643  0.0000000000000000  T  T  T
0.6666666666666643  0.3333333333333357  0.2478608294919956  T  T  T

0.00000000E+00  0.00000000E+00  0.00000000E+00
0.00000000E+00  0.00000000E+00  0.00000000E+00
0.00000000E+00  0.00000000E+00  0.00000000E+00
0.00000000E+00  0.00000000E+00  0.00000000E+00
0.00000000E+00  0.00000000E+00  0.00000000E+00
0.00000000E+00  0.00000000E+00  0.00000000E+00
0.00000000E+00  0.00000000E+00  0.00000000E+00
