Nb3C2  (n=2)
1.00000000000000
3.4064694944491367  -0.0000000000000002  0.0000000000000000
-1.7032347472245686  2.9500891196034491  -0.0000000000000001
0.0000000000000002  -0.0000000000000019  34.0330362204474710
Nb  C  I
3  2  2
Selective  dynamics
Direct
-0.0000000000000000  -0.0000000000000000  0.0655096073521533  T  T  T
0.6666666666666643  0.3333333333333357  0.1347586642581412  T  T  T
0.3333333333333357  0.6666666666666643  0.2003124408919069  T  T  T
0.3333333333333357  0.6666666666666643  0.0946933771952082  T  T  T
-0.0000000000000000  -0.0000000000000000  0.1717143902613019  T  T  T
0.3333333333333357  0.6666666666666643  0.0000000000000000  T  T  T
0.6666666666666643  0.3333333333333357  0.2654196399620765  T  T  T

0.00000000E+00  0.00000000E+00  0.00000000E+00
0.00000000E+00  0.00000000E+00  0.00000000E+00
0.00000000E+00  0.00000000E+00  0.00000000E+00
0.00000000E+00  0.00000000E+00  0.00000000E+00
0.00000000E+00  0.00000000E+00  0.00000000E+00
0.00000000E+00  0.00000000E+00  0.00000000E+00
0.00000000E+00  0.00000000E+00  0.00000000E+00
