Ti3C2  (n=2)
1.00000000000000
3.3442414696767795  0.0000000000000000  -0.0000000000000001
-1.6721207348383900  2.8961980692352607  0.0000000000000001
-0.0000000000000013  0.0000000000000002  33.6034776203421615
Ti  C  I
3  2  2
Selective  dynamics
Direct
-0.0000000000000000  -0.0000000000000000  0.0622707062375150  T  T  T
0.6666666666666643  0.3333333333333357  0.1287277524722547  T  T  T
0.3333333333333357  0.6666666666666643  0.1948039816337125  T  T  T
0.3333333333333357  0.6666666666666643  0.0928429358803824  T  T  T
0.0000000000000000  -0.0000000000000000  0.1664835814698244  T  T  T
0.3333333333333357  0.6666666666666643  0.0000000000000000  T  T  T
0.6666666666666643  0.3333333333333357  0.2560293823617224  T  T  T

0.00000000E+00  0.00000000E+00  0.00000000E+00
0.00000000E+00  0.00000000E+00  0.00000000E+00
0.00000000E+00  0.00000000E+00  0.00000000E+00
0.00000000E+00  0.00000000E+00  0.00000000E+00
0.00000000E+00  0.00000000E+00  0.00000000E+00
0.00000000E+00  0.00000000E+00  0.00000000E+00
0.00000000E+00  0.00000000E+00  0.00000000E+00
