Sc3N2  (n=2)
1.00000000000000
3.4540129936914163  0.0000000000000001  0.0000000000000000
-1.7270064968457082  2.9912629978174263  0.0000000000000000
-0.0000000000000003  -0.0000000000000008  34.0691192604664650
Sc  N  I
3  2  2
Selective  dynamics
Direct
0.0000000000000000  0.0000000000000000  0.0624891245180601  T  T  T
0.6666666666666643  0.3333333333333357  0.1329169008280302  T  T  T
0.3333333333333357  0.6666666666666643  0.2039190080704169  T  T  T
0.3333333333333357  0.6666666666666643  0.0961859732238027  T  T  T
0.0000000000000000  0.0000000000000000  0.1729812636992182  T  T  T
0.3333333333333357  0.6666666666666643  0.0000000000000000  T  T  T
0.6666666666666643  0.3333333333333357  0.2661976434181026  T  T  T

0.00000000E+00  0.00000000E+00  0.00000000E+00
0.00000000E+00  0.00000000E+00  0.00000000E+00
0.00000000E+00  0.00000000E+00  0.00000000E+00
0.00000000E+00  0.00000000E+00  0.00000000E+00
0.00000000E+00  0.00000000E+00  0.00000000E+00
0.00000000E+00  0.00000000E+00  0.00000000E+00
0.00000000E+00  0.00000000E+00  0.00000000E+00
