Ta3C2  (n=2)
1.00000000000000
3.3941419182644537  0.0000000000000001  0.0000000000000000
-1.6970709591322268  2.9394131255308853  -0.0000000000000001
-0.0000000000000001  -0.0000000000000005  33.9667796416127175
Ta  C  I
3  2  2
Selective  dynamics
Direct
0.0000000000000000  0.0000000000000000  0.0652736857865263  T  T  T
0.6666666666666643  0.3333333333333357  0.1341878797170409  T  T  T
0.3333333333333357  0.6666666666666643  0.1989931470182360  T  T  T
0.3333333333333357  0.6666666666666643  0.0943783341456816  T  T  T
-0.0000000000000000  -0.0000000000000000  0.1709215307335745  T  T  T
0.3333333333333357  0.6666666666666643  0.0000000000000000  T  T  T
0.6666666666666643  0.3333333333333357  0.2639867463510586  T  T  T

0.00000000E+00  0.00000000E+00  0.00000000E+00
0.00000000E+00  0.00000000E+00  0.00000000E+00
0.00000000E+00  0.00000000E+00  0.00000000E+00
0.00000000E+00  0.00000000E+00  0.00000000E+00
0.00000000E+00  0.00000000E+00  0.00000000E+00
0.00000000E+00  0.00000000E+00  0.00000000E+00
0.00000000E+00  0.00000000E+00  0.00000000E+00
