Sc3C2  (n=2)
1.00000000000000
3.4700775768677792  0.0000000000000000  0.0000000000000000
-1.7350387884338896  3.0051753349329564  0.0000000000000000
-0.0000000000000008  -0.0000000000000003  34.6912652904795991
Sc  C  I
3  2  2
Selective  dynamics
Direct
-0.0000000000000000  0.0000000000000000  0.0691715971695518  T  T  T
0.6666666666666643  0.3333333333333357  0.1416835792627121  T  T  T
0.3333333333333357  0.6666666666666643  0.2147073082539886  T  T  T
0.3333333333333357  0.6666666666666643  0.1007563627149678  T  T  T
-0.0000000000000000  -0.0000000000000000  0.1831586618310994  T  T  T
0.3333333333333357  0.6666666666666643  0.0000000000000000  T  T  T
0.6666666666666643  0.3333333333333357  0.2793575042401003  T  T  T

0.00000000E+00  0.00000000E+00  0.00000000E+00
0.00000000E+00  0.00000000E+00  0.00000000E+00
0.00000000E+00  0.00000000E+00  0.00000000E+00
0.00000000E+00  0.00000000E+00  0.00000000E+00
0.00000000E+00  0.00000000E+00  0.00000000E+00
0.00000000E+00  0.00000000E+00  0.00000000E+00
0.00000000E+00  0.00000000E+00  0.00000000E+00
