Hf3N2  (n=2)
1.00000000000000
3.4263021054015548  -0.0000000000000003  0.0000000000000000
-1.7131510527007778  2.9672646647450907  0.0000000000000000
0.0000000000000002  0.0000000000000001  34.1345878001640060
Hf  N  I
3  2  2
Selective  dynamics
Direct
0.0000000000000000  0.0000000000000000  0.0629953416661284  T  T  T
0.6666666666666643  0.3333333333333357  0.1349118585740808  T  T  T
0.3333333333333357  0.6666666666666643  0.2035735402404504  T  T  T
0.3333333333333357  0.6666666666666643  0.0968393432165737  T  T  T
0.0000000000000000  -0.0000000000000000  0.1714123331626423  T  T  T
0.3333333333333357  0.6666666666666643  0.0000000000000000  T  T  T
0.6666666666666643  0.3333333333333357  0.2676050419486863  T  T  T

0.00000000E+00  0.00000000E+00  0.00000000E+00
0.00000000E+00  0.00000000E+00  0.00000000E+00
0.00000000E+00  0.00000000E+00  0.00000000E+00
0.00000000E+00  0.00000000E+00  0.00000000E+00
0.00000000E+00  0.00000000E+00  0.00000000E+00
0.00000000E+00  0.00000000E+00  0.00000000E+00
0.00000000E+00  0.00000000E+00  0.00000000E+00
