Zr3C2  (n=2)
1.00000000000000
3.5307365508468429  0.0000000000000001  0.0000000000000000
-1.7653682754234215  3.0577075474124569  0.0000000000000000
-0.0000000000000001  -0.0000000000000013  34.3662851284857851
Zr  C  I
3  2  2
Selective  dynamics
Direct
-0.0000000000000000  0.0000000000000000  0.0640834355020902  T  T  T
0.6666666666666643  0.3333333333333357  0.1365932159883856  T  T  T
0.3333333333333357  0.6666666666666643  0.2089880934499896  T  T  T
0.3333333333333357  0.6666666666666643  0.0976275800856568  T  T  T
-0.0000000000000000  -0.0000000000000000  0.1773433266656344  T  T  T
0.3333333333333357  0.6666666666666643  0.0000000000000000  T  T  T
0.6666666666666643  0.3333333333333357  0.2725428452178612  T  T  T

0.00000000E+00  0.00000000E+00  0.00000000E+00
0.00000000E+00  0.00000000E+00  0.00000000E+00
0.00000000E+00  0.00000000E+00  0.00000000E+00
0.00000000E+00  0.00000000E+00  0.00000000E+00
0.00000000E+00  0.00000000E+00  0.00000000E+00
0.00000000E+00  0.00000000E+00  0.00000000E+00
0.00000000E+00  0.00000000E+00  0.00000000E+00
