Ti3N2  (n=2)
1.00000000000000
3.3118401482450337  -0.0000000000000002  0.0000000000000000
-1.6559200741225168  2.8681377017391867  0.0000000000000000
-0.0000000000000002  -0.0000000000000009  33.4965646617174571
Ti  N  I
3  2  2
Selective  dynamics
Direct
0.0000000000000000  0.0000000000000000  0.0637133516422722  T  T  T
0.6666666666666643  0.3333333333333357  0.1290712642728295  T  T  T
0.3333333333333357  0.6666666666666643  0.1911884408774910  T  T  T
0.3333333333333357  0.6666666666666643  0.0920401863274442  T  T  T
0.0000000000000000  0.0000000000000000  0.1642597240154796  T  T  T
0.3333333333333357  0.6666666666666643  0.0000000000000000  T  T  T
0.6666666666666643  0.3333333333333357  0.2536548075160677  T  T  T

0.00000000E+00  0.00000000E+00  0.00000000E+00
0.00000000E+00  0.00000000E+00  0.00000000E+00
0.00000000E+00  0.00000000E+00  0.00000000E+00
0.00000000E+00  0.00000000E+00  0.00000000E+00
0.00000000E+00  0.00000000E+00  0.00000000E+00
0.00000000E+00  0.00000000E+00  0.00000000E+00
0.00000000E+00  0.00000000E+00  0.00000000E+00
