Mo3N2  (n=2)
1.00000000000000
3.3368855249228275  0.0000000000000001  0.0000000000000000
-1.6684427624614140  2.8898276343416107  0.0000000000000002
-0.0000000000000007  0.0000000000000018  33.7157764400772919
Mo  N  I
3  2  2
Selective  dynamics
Direct
0.0000000000000000  -0.0000000000000000  0.0648255973503102  T  T  T
0.6666666666666643  0.3333333333333357  0.1317359525444571  T  T  T
0.3333333333333357  0.6666666666666643  0.1917884623116076  T  T  T
0.3333333333333357  0.6666666666666643  0.0972970924086985  T  T  T
0.0000000000000000  -0.0000000000000000  0.1713463843748147  T  T  T
0.3333333333333357  0.6666666666666643  0.0000000000000000  T  T  T
0.6666666666666643  0.3333333333333357  0.2585073624381083  T  T  T

0.00000000E+00  0.00000000E+00  0.00000000E+00
0.00000000E+00  0.00000000E+00  0.00000000E+00
0.00000000E+00  0.00000000E+00  0.00000000E+00
0.00000000E+00  0.00000000E+00  0.00000000E+00
0.00000000E+00  0.00000000E+00  0.00000000E+00
0.00000000E+00  0.00000000E+00  0.00000000E+00
0.00000000E+00  0.00000000E+00  0.00000000E+00
