Ta3N2  (n=2)
1.00000000000000
3.3255510617676376  -0.0000000000000002  0.0000000000000000
-1.6627755308838186  2.8800117012766919  0.0000000000000000
0.0000000000000000  0.0000000000000002  33.9829356629703483
Ta  N  I
3  2  2
Selective  dynamics
Direct
-0.0000000000000000  -0.0000000000000000  0.0631593901531616  T  T  T
0.6666666666666643  0.3333333333333357  0.1341597776177187  T  T  T
0.3333333333333357  0.6666666666666643  0.2012969228117182  T  T  T
0.3333333333333357  0.6666666666666643  0.0979698336954110  T  T  T
0.0000000000000000  0.0000000000000000  0.1669870721811449  T  T  T
0.3333333333333357  0.6666666666666643  0.0000000000000000  T  T  T
0.6666666666666643  0.3333333333333357  0.2643366586118291  T  T  T

0.00000000E+00  0.00000000E+00  0.00000000E+00
0.00000000E+00  0.00000000E+00  0.00000000E+00
0.00000000E+00  0.00000000E+00  0.00000000E+00
0.00000000E+00  0.00000000E+00  0.00000000E+00
0.00000000E+00  0.00000000E+00  0.00000000E+00
0.00000000E+00  0.00000000E+00  0.00000000E+00
0.00000000E+00  0.00000000E+00  0.00000000E+00
