Mo3C2  (n=2)
1.00000000000000
3.3899972772119367  -0.0000000000000001  0.0000000000000000
-1.6949986386059681  2.9358237609219726  -0.0000000000000001
0.0000000000000003  0.0000000000000008  33.6517459453653629
Mo  C  I
3  2  2
Selective  dynamics
Direct
0.0000000000000000  -0.0000000000000000  0.0684385692778153  T  T  T
0.6666666666666643  0.3333333333333357  0.1312372820486931  T  T  T
0.3333333333333357  0.6666666666666643  0.1906443319215473  T  T  T
0.3333333333333357  0.6666666666666643  0.0940568904704236  T  T  T
-0.0000000000000000  0.0000000000000000  0.1689784922468421  T  T  T
0.3333333333333357  0.6666666666666643  0.0000000000000000  T  T  T
0.6666666666666643  0.3333333333333357  0.2570964953619862  T  T  T

0.00000000E+00  0.00000000E+00  0.00000000E+00
0.00000000E+00  0.00000000E+00  0.00000000E+00
0.00000000E+00  0.00000000E+00  0.00000000E+00
0.00000000E+00  0.00000000E+00  0.00000000E+00
0.00000000E+00  0.00000000E+00  0.00000000E+00
0.00000000E+00  0.00000000E+00  0.00000000E+00
0.00000000E+00  0.00000000E+00  0.00000000E+00
