Hf3C2  (n=2)
1.00000000000000
3.4829693911597928  0.0000000000000000  0.0000000000000000
-1.7414846955798964  3.0163399734990612  0.0000000000000000
-0.0000000000000001  -0.0000000000000009  34.2207260270368536
Hf  C  I
3  2  2
Selective  dynamics
Direct
0.0000000000000000  -0.0000000000000000  0.0638161355933465  T  T  T
0.6666666666666643  0.3333333333333357  0.1349614729413373  T  T  T
0.3333333333333357  0.6666666666666643  0.2061869791000551  T  T  T
0.3333333333333357  0.6666666666666643  0.0968824799471221  T  T  T
0.0000000000000000  0.0000000000000000  0.1754413415658372  T  T  T
0.3333333333333357  0.6666666666666643  0.0000000000000000  T  T  T
0.6666666666666643  0.3333333333333357  0.2694485797803300  T  T  T

0.00000000E+00  0.00000000E+00  0.00000000E+00
0.00000000E+00  0.00000000E+00  0.00000000E+00
0.00000000E+00  0.00000000E+00  0.00000000E+00
0.00000000E+00  0.00000000E+00  0.00000000E+00
0.00000000E+00  0.00000000E+00  0.00000000E+00
0.00000000E+00  0.00000000E+00  0.00000000E+00
0.00000000E+00  0.00000000E+00  0.00000000E+00
