Nb4N3  (n=3)
1.00000000000000
3.0609777690672524  0.0000000000000004  0.0000000000000000
-1.5304888845336260  2.6508845084854316  0.0000000000000000
0.0000000000000003  0.0000000000000003  35.1006791258055273
Nb  N  H
4  3  2
Selective  dynamics
Direct
0.0000000000000000  0.0000000000000000  0.0329281060752466  T  T  T
0.6666666666666643  0.3333333333333357  0.1093564535783174  T  T  T
0.3333333333333357  0.6666666666666643  0.1826528569433216  T  T  T
-0.0000000000000000  -0.0000000000000000  0.2580985502570231  T  T  T
0.3333333333333357  0.6666666666666643  0.0701070279538818  T  T  T
-0.0000000000000000  0.0000000000000000  0.1458884270144401  T  T  T
0.6666666666666643  0.3333333333333357  0.2217034268778354  T  T  T
0.3333333333333357  0.6666666666666643  0.0000000000000000  T  T  T
0.3333333333333357  0.6666666666666643  0.2877630683327620  T  T  T

0.00000000E+00  0.00000000E+00  0.00000000E+00
0.00000000E+00  0.00000000E+00  0.00000000E+00
0.00000000E+00  0.00000000E+00  0.00000000E+00
0.00000000E+00  0.00000000E+00  0.00000000E+00
0.00000000E+00  0.00000000E+00  0.00000000E+00
0.00000000E+00  0.00000000E+00  0.00000000E+00
0.00000000E+00  0.00000000E+00  0.00000000E+00
0.00000000E+00  0.00000000E+00  0.00000000E+00
0.00000000E+00  0.00000000E+00  0.00000000E+00
