Sc4C3  (n=3)
1.00000000000000
3.2774578624057864  0.0000000000000001  -0.0000000000000002
-1.6387289312028934  2.8383617687701381  0.0000000000000000
-0.0000000000000024  0.0000000000000048  35.1945992971802397
Sc  C  H
4  3  2
Selective  dynamics
Direct
0.0000000000000000  0.0000000000000000  0.0325587101992463  T  T  T
0.6666666666666643  0.3333333333333357  0.1072030067073344  T  T  T
0.3333333333333357  0.6666666666666643  0.1865460786256370  T  T  T
0.0000000000000000  -0.0000000000000000  0.2609020637237634  T  T  T
0.3333333333333357  0.6666666666666643  0.0691068725219734  T  T  T
0.0000000000000000  0.0000000000000000  0.1467477685783703  T  T  T
0.6666666666666643  0.3333333333333357  0.2255862515910928  T  T  T
0.3333333333333357  0.6666666666666643  0.0000000000000000  T  T  T
0.3333333333333357  0.6666666666666643  0.2896637410500940  T  T  T

0.00000000E+00  0.00000000E+00  0.00000000E+00
0.00000000E+00  0.00000000E+00  0.00000000E+00
0.00000000E+00  0.00000000E+00  0.00000000E+00
0.00000000E+00  0.00000000E+00  0.00000000E+00
0.00000000E+00  0.00000000E+00  0.00000000E+00
0.00000000E+00  0.00000000E+00  0.00000000E+00
0.00000000E+00  0.00000000E+00  0.00000000E+00
0.00000000E+00  0.00000000E+00  0.00000000E+00
0.00000000E+00  0.00000000E+00  0.00000000E+00
