Nb4C3  (n=3)
1.00000000000000
3.1356314799759897  -0.0000000000000003  0.0000000000000000
-1.5678157399879948  2.7155365187301626  0.0000000000000000
0.0000000000000005  -0.0000000000000010  34.9146154039884067
Nb  C  H
4  3  2
Selective  dynamics
Direct
-0.0000000000000000  -0.0000000000000000  0.0331776335235801  T  T  T
0.6666666666666643  0.3333333333333357  0.1055732132442472  T  T  T
0.3333333333333357  0.6666666666666643  0.1828080584340941  T  T  T
0.0000000000000000  -0.0000000000000000  0.2543561989887175  T  T  T
0.3333333333333357  0.6666666666666643  0.0681883078939797  T  T  T
0.0000000000000000  0.0000000000000000  0.1441864266458197  T  T  T
0.6666666666666643  0.3333333333333357  0.2200974106201946  T  T  T
0.3333333333333357  0.6666666666666643  0.0000000000000000  T  T  T
0.3333333333333357  0.6666666666666643  0.2839674815050612  T  T  T

0.00000000E+00  0.00000000E+00  0.00000000E+00
0.00000000E+00  0.00000000E+00  0.00000000E+00
0.00000000E+00  0.00000000E+00  0.00000000E+00
0.00000000E+00  0.00000000E+00  0.00000000E+00
0.00000000E+00  0.00000000E+00  0.00000000E+00
0.00000000E+00  0.00000000E+00  0.00000000E+00
0.00000000E+00  0.00000000E+00  0.00000000E+00
0.00000000E+00  0.00000000E+00  0.00000000E+00
0.00000000E+00  0.00000000E+00  0.00000000E+00
