Mo4C3  (n=3)
1.00000000000000
3.0768699171491507  0.0000000000000000  0.0000000000000000
-1.5384349585745754  2.6646475124991333  0.0000000000000000
0.0000000000000000  -0.0000000000000004  34.6298580263707123
Mo  C  H
4  3  2
Selective  dynamics
Direct
-0.0000000000000000  -0.0000000000000000  0.0348761452753177  T  T  T
0.6666666666666643  0.3333333333333357  0.1027995383003688  T  T  T
0.3333333333333357  0.6666666666666643  0.1789534390415216  T  T  T
0.0000000000000000  -0.0000000000000000  0.2458335387672307  T  T  T
0.3333333333333357  0.6666666666666643  0.0657380494408655  T  T  T
-0.0000000000000000  -0.0000000000000000  0.1410228915281012  T  T  T
0.6666666666666643  0.3333333333333357  0.2161879650628570  T  T  T
0.3333333333333357  0.6666666666666643  0.0000000000000000  T  T  T
0.3333333333333357  0.6666666666666643  0.2780796276738287  T  T  T

0.00000000E+00  0.00000000E+00  0.00000000E+00
0.00000000E+00  0.00000000E+00  0.00000000E+00
0.00000000E+00  0.00000000E+00  0.00000000E+00
0.00000000E+00  0.00000000E+00  0.00000000E+00
0.00000000E+00  0.00000000E+00  0.00000000E+00
0.00000000E+00  0.00000000E+00  0.00000000E+00
0.00000000E+00  0.00000000E+00  0.00000000E+00
0.00000000E+00  0.00000000E+00  0.00000000E+00
0.00000000E+00  0.00000000E+00  0.00000000E+00
