Ta4N3  (n=3)
1.00000000000000
3.0239196224666638  0.0000000000000001  0.0000000000000000
-1.5119598112333317  2.6187912121387922  0.0000000000000000
0.0000000000000003  -0.0000000000000001  35.1391040617047494
Ta  N  H
4  3  2
Selective  dynamics
Direct
0.0000000000000000  0.0000000000000000  0.0322547069179211  T  T  T
0.6666666666666643  0.3333333333333357  0.1090511237130595  T  T  T
0.3333333333333357  0.6666666666666643  0.1833052967794391  T  T  T
0.0000000000000000  -0.0000000000000000  0.2592711182307575  T  T  T
0.3333333333333357  0.6666666666666643  0.0698132746620920  T  T  T
-0.0000000000000000  0.0000000000000000  0.1460878302886652  T  T  T
0.6666666666666643  0.3333333333333357  0.2224817621980776  T  T  T
0.3333333333333357  0.6666666666666643  0.0000000000000000  T  T  T
0.3333333333333357  0.6666666666666643  0.2885419060173061  T  T  T

0.00000000E+00  0.00000000E+00  0.00000000E+00
0.00000000E+00  0.00000000E+00  0.00000000E+00
0.00000000E+00  0.00000000E+00  0.00000000E+00
0.00000000E+00  0.00000000E+00  0.00000000E+00
0.00000000E+00  0.00000000E+00  0.00000000E+00
0.00000000E+00  0.00000000E+00  0.00000000E+00
0.00000000E+00  0.00000000E+00  0.00000000E+00
0.00000000E+00  0.00000000E+00  0.00000000E+00
0.00000000E+00  0.00000000E+00  0.00000000E+00
