Sc4N3  (n=3)
1.00000000000000
3.1673807559001372  0.0000000000000000  0.0000000000000001
-1.5836903779500680  2.7430321982116541  -0.0000000000000003
0.0000000000000005  0.0000000000000007  34.9693472427718461
Sc  N  H
4  3  2
Selective  dynamics
Direct
-0.0000000000000000  -0.0000000000000000  0.0342435348900938  T  T  T
0.6666666666666643  0.3333333333333357  0.1082273736915310  T  T  T
0.3333333333333357  0.6666666666666643  0.1811911374997429  T  T  T
0.0000000000000000  0.0000000000000000  0.2544777288682167  T  T  T
0.3333333333333357  0.6666666666666643  0.0695382294428614  T  T  T
0.0000000000000000  0.0000000000000000  0.1453890865817034  T  T  T
0.6666666666666643  0.3333333333333357  0.2217779021603875  T  T  T
0.3333333333333357  0.6666666666666643  0.0000000000000000  T  T  T
0.3333333333333357  0.6666666666666643  0.2850881708932244  T  T  T

0.00000000E+00  0.00000000E+00  0.00000000E+00
0.00000000E+00  0.00000000E+00  0.00000000E+00
0.00000000E+00  0.00000000E+00  0.00000000E+00
0.00000000E+00  0.00000000E+00  0.00000000E+00
0.00000000E+00  0.00000000E+00  0.00000000E+00
0.00000000E+00  0.00000000E+00  0.00000000E+00
0.00000000E+00  0.00000000E+00  0.00000000E+00
0.00000000E+00  0.00000000E+00  0.00000000E+00
0.00000000E+00  0.00000000E+00  0.00000000E+00
