Zr4N3  (n=3)
1.00000000000000
3.2136425264984103  0.0000000000000001  0.0000000000000000
-1.6068212632492052  2.7830960668178144  0.0000000000000000
-0.0000000000000001  -0.0000000000000004  35.2503601007115748
Zr  N  H
4  3  2
Selective  dynamics
Direct
0.0000000000000000  0.0000000000000000  0.0334345443695328  T  T  T
0.6666666666666643  0.3333333333333357  0.1090105545223825  T  T  T
0.3333333333333357  0.6666666666666643  0.1869519598473428  T  T  T
0.0000000000000000  -0.0000000000000000  0.2612874624124285  T  T  T
0.3333333333333357  0.6666666666666643  0.0714824551035788  T  T  T
0.0000000000000000  0.0000000000000000  0.1477371737016667  T  T  T
0.6666666666666643  0.3333333333333357  0.2245791877671671  T  T  T
0.3333333333333357  0.6666666666666643  0.0000000000000000  T  T  T
0.3333333333333357  0.6666666666666643  0.2907873868926705  T  T  T

0.00000000E+00  0.00000000E+00  0.00000000E+00
0.00000000E+00  0.00000000E+00  0.00000000E+00
0.00000000E+00  0.00000000E+00  0.00000000E+00
0.00000000E+00  0.00000000E+00  0.00000000E+00
0.00000000E+00  0.00000000E+00  0.00000000E+00
0.00000000E+00  0.00000000E+00  0.00000000E+00
0.00000000E+00  0.00000000E+00  0.00000000E+00
0.00000000E+00  0.00000000E+00  0.00000000E+00
0.00000000E+00  0.00000000E+00  0.00000000E+00
