Cr4N3  (n=3)
1.00000000000000
2.8035373649423341  0.0000000000000000  0.0000000000000000
-1.4017686824711670  2.4279345785083444  0.0000000000000000
-0.0000000000000001  0.0000000000000005  34.3833197243335320
Cr  N  H
4  3  2
Selective  dynamics
Direct
-0.0000000000000000  -0.0000000000000000  0.0310287697475271  T  T  T
0.6666666666666643  0.3333333333333357  0.1019292981024996  T  T  T
0.3333333333333357  0.6666666666666643  0.1748113670792721  T  T  T
0.0000000000000000  0.0000000000000000  0.2444738512995075  T  T  T
0.3333333333333357  0.6666666666666643  0.0655267301255357  T  T  T
-0.0000000000000000  -0.0000000000000000  0.1387411369679189  T  T  T
0.6666666666666643  0.3333333333333357  0.2118982712898868  T  T  T
0.3333333333333357  0.6666666666666643  0.0000000000000000  T  T  T
0.3333333333333357  0.6666666666666643  0.2729032507496021  T  T  T

0.00000000E+00  0.00000000E+00  0.00000000E+00
0.00000000E+00  0.00000000E+00  0.00000000E+00
0.00000000E+00  0.00000000E+00  0.00000000E+00
0.00000000E+00  0.00000000E+00  0.00000000E+00
0.00000000E+00  0.00000000E+00  0.00000000E+00
0.00000000E+00  0.00000000E+00  0.00000000E+00
0.00000000E+00  0.00000000E+00  0.00000000E+00
0.00000000E+00  0.00000000E+00  0.00000000E+00
0.00000000E+00  0.00000000E+00  0.00000000E+00
