Ta4C3  (n=3)
1.00000000000000
3.1112816442374918  0.0000000000000001  0.0000000000000000
-1.5556408221187461  2.6944489423863791  0.0000000000000000
-0.0000000000000001  -0.0000000000000011  34.9355846117372835
Ta  C  H
4  3  2
Selective  dynamics
Direct
0.0000000000000000  0.0000000000000000  0.0337776410647517  T  T  T
0.6666666666666643  0.3333333333333357  0.1067929746928178  T  T  T
0.3333333333333357  0.6666666666666643  0.1828933138445673  T  T  T
-0.0000000000000000  -0.0000000000000000  0.2543104150033634  T  T  T
0.3333333333333357  0.6666666666666643  0.0691306037522911  T  T  T
0.0000000000000000  0.0000000000000000  0.1445963921763265  T  T  T
0.6666666666666643  0.3333333333333357  0.2203173391858538  T  T  T
0.3333333333333357  0.6666666666666643  0.0000000000000000  T  T  T
0.3333333333333357  0.6666666666666643  0.2843972620512334  T  T  T

0.00000000E+00  0.00000000E+00  0.00000000E+00
0.00000000E+00  0.00000000E+00  0.00000000E+00
0.00000000E+00  0.00000000E+00  0.00000000E+00
0.00000000E+00  0.00000000E+00  0.00000000E+00
0.00000000E+00  0.00000000E+00  0.00000000E+00
0.00000000E+00  0.00000000E+00  0.00000000E+00
0.00000000E+00  0.00000000E+00  0.00000000E+00
0.00000000E+00  0.00000000E+00  0.00000000E+00
0.00000000E+00  0.00000000E+00  0.00000000E+00
