Ti4N3  (n=3)
1.00000000000000
2.9565906042958159  -0.0000000000000002  0.0000000000000000
-1.4782953021479077  2.5604825719478752  0.0000000000000000
0.0000000000000001  -0.0000000000000001  34.4740684422414674
Ti  N  H
4  3  2
Selective  dynamics
Direct
0.0000000000000000  -0.0000000000000000  0.0329417375379989  T  T  T
0.6666666666666643  0.3333333333333357  0.1029419353634094  T  T  T
0.3333333333333357  0.6666666666666643  0.1767022233244877  T  T  T
0.0000000000000000  0.0000000000000000  0.2456758133307082  T  T  T
0.3333333333333357  0.6666666666666643  0.0678913934616207  T  T  T
0.0000000000000000  0.0000000000000000  0.1398174580164528  T  T  T
0.6666666666666643  0.3333333333333357  0.2121278730164670  T  T  T
0.3333333333333357  0.6666666666666643  0.0000000000000000  T  T  T
0.3333333333333357  0.6666666666666643  0.2748172429405745  T  T  T

0.00000000E+00  0.00000000E+00  0.00000000E+00
0.00000000E+00  0.00000000E+00  0.00000000E+00
0.00000000E+00  0.00000000E+00  0.00000000E+00
0.00000000E+00  0.00000000E+00  0.00000000E+00
0.00000000E+00  0.00000000E+00  0.00000000E+00
0.00000000E+00  0.00000000E+00  0.00000000E+00
0.00000000E+00  0.00000000E+00  0.00000000E+00
0.00000000E+00  0.00000000E+00  0.00000000E+00
0.00000000E+00  0.00000000E+00  0.00000000E+00
