Hf4N3  (n=3)
1.00000000000000
3.1525114195814270  0.0000000000000000  0.0000000000000000
-1.5762557097907135  2.7301549752507626  0.0000000000000000
-0.0000000000000001  -0.0000000000000007  35.1033616200174805
Hf  N  H
4  3  2
Selective  dynamics
Direct
-0.0000000000000000  -0.0000000000000000  0.0328520177211421  T  T  T
0.6666666666666643  0.3333333333333357  0.1083795164020964  T  T  T
0.3333333333333357  0.6666666666666643  0.1851333847332691  T  T  T
0.0000000000000000  0.0000000000000000  0.2591526171454319  T  T  T
0.3333333333333357  0.6666666666666643  0.0714316318667852  T  T  T
0.0000000000000000  0.0000000000000000  0.1464745038075106  T  T  T
0.6666666666666643  0.3333333333333357  0.2223335858103963  T  T  T
0.3333333333333357  0.6666666666666643  0.0000000000000000  T  T  T
0.3333333333333357  0.6666666666666643  0.2878174953550916  T  T  T

0.00000000E+00  0.00000000E+00  0.00000000E+00
0.00000000E+00  0.00000000E+00  0.00000000E+00
0.00000000E+00  0.00000000E+00  0.00000000E+00
0.00000000E+00  0.00000000E+00  0.00000000E+00
0.00000000E+00  0.00000000E+00  0.00000000E+00
0.00000000E+00  0.00000000E+00  0.00000000E+00
0.00000000E+00  0.00000000E+00  0.00000000E+00
0.00000000E+00  0.00000000E+00  0.00000000E+00
0.00000000E+00  0.00000000E+00  0.00000000E+00
