Zr4C3  (n=3)
1.00000000000000
3.3248249433576293  0.0000000000000000  0.0000000000000001
-1.6624124716788147  2.8793828643266735  0.0000000000000002
0.0000000000000004  0.0000000000000009  35.1971195555933676
Zr  C  H
4  3  2
Selective  dynamics
Direct
0.0000000000000000  0.0000000000000000  0.0340482162398631  T  T  T
0.6666666666666643  0.3333333333333357  0.1100353885014373  T  T  T
0.3333333333333357  0.6666666666666643  0.1852673466560701  T  T  T
-0.0000000000000000  -0.0000000000000000  0.2600055971369354  T  T  T
0.3333333333333357  0.6666666666666643  0.0691446617773121  T  T  T
-0.0000000000000000  -0.0000000000000000  0.1475022103537203  T  T  T
0.6666666666666643  0.3333333333333357  0.2265394558885828  T  T  T
0.3333333333333357  0.6666666666666643  0.0000000000000000  T  T  T
0.3333333333333357  0.6666666666666643  0.2897146040455713  T  T  T

0.00000000E+00  0.00000000E+00  0.00000000E+00
0.00000000E+00  0.00000000E+00  0.00000000E+00
0.00000000E+00  0.00000000E+00  0.00000000E+00
0.00000000E+00  0.00000000E+00  0.00000000E+00
0.00000000E+00  0.00000000E+00  0.00000000E+00
0.00000000E+00  0.00000000E+00  0.00000000E+00
0.00000000E+00  0.00000000E+00  0.00000000E+00
0.00000000E+00  0.00000000E+00  0.00000000E+00
0.00000000E+00  0.00000000E+00  0.00000000E+00
