Hf4C3  (n=3)
1.00000000000000
3.2663808060908681  0.0000000000000000  0.0000000000000000
-1.6331904030454341  2.8287687567514999  -0.0000000000000003
0.0000000000000002  0.0000000000000017  35.0668916598452967
Hf  C  H
4  3  2
Selective  dynamics
Direct
-0.0000000000000000  -0.0000000000000000  0.0342086479294604  T  T  T
0.6666666666666643  0.3333333333333357  0.1091998555060544  T  T  T
0.3333333333333357  0.6666666666666643  0.1835297598141886  T  T  T
-0.0000000000000000  -0.0000000000000000  0.2573224146753620  T  T  T
0.3333333333333357  0.6666666666666643  0.0691212852696550  T  T  T
-0.0000000000000000  -0.0000000000000000  0.1463590161289896  T  T  T
0.6666666666666643  0.3333333333333357  0.2243288488270240  T  T  T
0.3333333333333357  0.6666666666666643  0.0000000000000000  T  T  T
0.3333333333333357  0.6666666666666643  0.2870768175718518  T  T  T

0.00000000E+00  0.00000000E+00  0.00000000E+00
0.00000000E+00  0.00000000E+00  0.00000000E+00
0.00000000E+00  0.00000000E+00  0.00000000E+00
0.00000000E+00  0.00000000E+00  0.00000000E+00
0.00000000E+00  0.00000000E+00  0.00000000E+00
0.00000000E+00  0.00000000E+00  0.00000000E+00
0.00000000E+00  0.00000000E+00  0.00000000E+00
0.00000000E+00  0.00000000E+00  0.00000000E+00
0.00000000E+00  0.00000000E+00  0.00000000E+00
