Ti4C3  (n=3)
1.00000000000000
3.0520517448721423  0.0000000000000000  0.0000000000000001
-1.5260258724360711  2.6431543447772294  0.0000000000000001
0.0000000000000005  -0.0000000000000001  34.4084925067607230
Ti  C  H
4  3  2
Selective  dynamics
Direct
-0.0000000000000000  -0.0000000000000000  0.0330443452234773  T  T  T
0.6666666666666643  0.3333333333333357  0.1041104289181290  T  T  T
0.3333333333333357  0.6666666666666643  0.1744984842652583  T  T  T
0.0000000000000000  0.0000000000000000  0.2444605791282709  T  T  T
0.3333333333333357  0.6666666666666643  0.0660783666499960  T  T  T
0.0000000000000000  0.0000000000000000  0.1392910165854289  T  T  T
0.6666666666666643  0.3333333333333357  0.2130601741229399  T  T  T
0.3333333333333357  0.6666666666666643  0.0000000000000000  T  T  T
0.3333333333333357  0.6666666666666643  0.2734351847850383  T  T  T

0.00000000E+00  0.00000000E+00  0.00000000E+00
0.00000000E+00  0.00000000E+00  0.00000000E+00
0.00000000E+00  0.00000000E+00  0.00000000E+00
0.00000000E+00  0.00000000E+00  0.00000000E+00
0.00000000E+00  0.00000000E+00  0.00000000E+00
0.00000000E+00  0.00000000E+00  0.00000000E+00
0.00000000E+00  0.00000000E+00  0.00000000E+00
0.00000000E+00  0.00000000E+00  0.00000000E+00
0.00000000E+00  0.00000000E+00  0.00000000E+00
