Cr4C3  (n=3)
1.00000000000000
2.8258862246822112  0.0000000000000000  0.0000000000000000
-1.4129431123411056  2.4472892587753505  0.0000000000000001
0.0000000000000002  0.0000000000000007  34.1141760830460044
Cr  C  H
4  3  2
Selective  dynamics
Direct
0.0000000000000000  0.0000000000000000  0.0313539909559196  T  T  T
0.6666666666666643  0.3333333333333357  0.0993178881378007  T  T  T
0.3333333333333357  0.6666666666666643  0.1714139601163590  T  T  T
-0.0000000000000000  -0.0000000000000000  0.2384943785541882  T  T  T
0.3333333333333357  0.6666666666666643  0.0638256453604865  T  T  T
0.0000000000000000  -0.0000000000000000  0.1354075528091706  T  T  T
0.6666666666666643  0.3333333333333357  0.2070770398779730  T  T  T
0.3333333333333357  0.6666666666666643  0.0000000000000000  T  T  T
0.3333333333333357  0.6666666666666643  0.2671668241630362  T  T  T

0.00000000E+00  0.00000000E+00  0.00000000E+00
0.00000000E+00  0.00000000E+00  0.00000000E+00
0.00000000E+00  0.00000000E+00  0.00000000E+00
0.00000000E+00  0.00000000E+00  0.00000000E+00
0.00000000E+00  0.00000000E+00  0.00000000E+00
0.00000000E+00  0.00000000E+00  0.00000000E+00
0.00000000E+00  0.00000000E+00  0.00000000E+00
0.00000000E+00  0.00000000E+00  0.00000000E+00
0.00000000E+00  0.00000000E+00  0.00000000E+00
