Mo4N3  (n=3)
1.00000000000000
2.8040224018725111  -0.0000000000000004  0.0000000000000001
-1.4020112009362558  2.4283546328459233  0.0000000000000001
0.0000000000000001  -0.0000000000000007  36.1639316434306153
Mo  N  H
4  3  2
Selective  dynamics
Direct
-0.0000000000000000  -0.0000000000000000  0.0324707049936836  T  T  T
0.6666666666666643  0.3333333333333357  0.1146063066677127  T  T  T
0.3333333333333357  0.6666666666666643  0.1957134372038188  T  T  T
-0.0000000000000000  -0.0000000000000000  0.2768432663017351  T  T  T
0.3333333333333357  0.6666666666666643  0.0717737429318407  T  T  T
-0.0000000000000000  -0.0000000000000000  0.1546037491560124  T  T  T
0.6666666666666643  0.3333333333333357  0.2374606210942823  T  T  T
0.3333333333333357  0.6666666666666643  0.0000000000000000  T  T  T
0.3333333333333357  0.6666666666666643  0.3087034826164596  T  T  T

0.00000000E+00  0.00000000E+00  0.00000000E+00
0.00000000E+00  0.00000000E+00  0.00000000E+00
0.00000000E+00  0.00000000E+00  0.00000000E+00
0.00000000E+00  0.00000000E+00  0.00000000E+00
0.00000000E+00  0.00000000E+00  0.00000000E+00
0.00000000E+00  0.00000000E+00  0.00000000E+00
0.00000000E+00  0.00000000E+00  0.00000000E+00
0.00000000E+00  0.00000000E+00  0.00000000E+00
0.00000000E+00  0.00000000E+00  0.00000000E+00
