Zr2C  (n=1)
1.00000000000000
3.3740299929537008  0.0000000000000003  -0.0000000000000000
-1.6870149964768504  2.9219956876959206  0.0000000000000001
-0.0000000000000000  0.0000000000000008  31.4046174270859026
Zr  C  Cl
2  1  2
Selective  dynamics
Direct
0.0000000000000000  0.0000000000000000  0.0574609415358831  T  T  T
-0.0000000000000000  -0.0000000000000000  0.1471189537538175  T  T  T
0.3333333333333357  0.6666666666666643  0.1035168421188632  T  T  T
0.3333333333333357  0.6666666666666643  0.0000000000000000  T  T  T
0.6666666666666643  0.3333333333333357  0.2039387183096852  T  T  T

0.00000000E+00  0.00000000E+00  0.00000000E+00
0.00000000E+00  0.00000000E+00  0.00000000E+00
0.00000000E+00  0.00000000E+00  0.00000000E+00
0.00000000E+00  0.00000000E+00  0.00000000E+00
0.00000000E+00  0.00000000E+00  0.00000000E+00
