Cr2C  (n=1)
1.00000000000000
3.1049631480826987  0.0000000000000016  0.0000000000000000
-1.5524815740413473  2.6889769643407915  0.0000000000000001
0.0000000000000007  0.0000000000000000  30.5963341200641743
Cr  C  Cl
2  1  2
Selective  dynamics
Direct
-0.0000000000000000  0.0000000000000000  0.0540442303943892  T  T  T
-0.0000000000000000  -0.0000000000000000  0.1295792942258769  T  T  T
0.3333333333333357  0.6666666666666643  0.0924380288217175  T  T  T
0.3333333333333357  0.6666666666666643  0.0000000000000000  T  T  T
0.6666666666666643  0.3333333333333357  0.1829086484055050  T  T  T

0.00000000E+00  0.00000000E+00  0.00000000E+00
0.00000000E+00  0.00000000E+00  0.00000000E+00
0.00000000E+00  0.00000000E+00  0.00000000E+00
0.00000000E+00  0.00000000E+00  0.00000000E+00
0.00000000E+00  0.00000000E+00  0.00000000E+00
