Zr2N  (n=1)
1.00000000000000
3.2576997028085737  -0.0000000000000001  0.0000000000000000
-1.6288498514042864  2.8212507002016047  0.0000000000000000
0.0000000000000009  -0.0000000000000011  31.5367504403157533
Zr  N  Cl
2  1  2
Selective  dynamics
Direct
0.0000000000000000  0.0000000000000000  0.0573243963394075  T  T  T
0.0000000000000000  0.0000000000000000  0.1494817087082673  T  T  T
0.3333333333333357  0.6666666666666643  0.1027772613984297  T  T  T
0.3333333333333357  0.6666666666666643  0.0000000000000000  T  T  T
0.6666666666666643  0.3333333333333357  0.2072740643550689  T  T  T

0.00000000E+00  0.00000000E+00  0.00000000E+00
0.00000000E+00  0.00000000E+00  0.00000000E+00
0.00000000E+00  0.00000000E+00  0.00000000E+00
0.00000000E+00  0.00000000E+00  0.00000000E+00
0.00000000E+00  0.00000000E+00  0.00000000E+00
