Cr2N  (n=1)
1.00000000000000
3.0499561714106629  0.0000000000000000  0.0000000000000000
-1.5249780857053310  2.6413395252075080  0.0000000000000000
-0.0000000000000004  0.0000000000000004  30.5970254997616848
Cr  N  Cl
2  1  2
Selective  dynamics
Direct
0.0000000000000000  -0.0000000000000000  0.0539524175186625  T  T  T
0.0000000000000000  -0.0000000000000000  0.1285599226128143  T  T  T
0.3333333333333357  0.6666666666666643  0.0949065573365080  T  T  T
0.3333333333333357  0.6666666666666643  0.0000000000000000  T  T  T
0.6666666666666643  0.3333333333333357  0.1829271116502902  T  T  T

0.00000000E+00  0.00000000E+00  0.00000000E+00
0.00000000E+00  0.00000000E+00  0.00000000E+00
0.00000000E+00  0.00000000E+00  0.00000000E+00
0.00000000E+00  0.00000000E+00  0.00000000E+00
0.00000000E+00  0.00000000E+00  0.00000000E+00
