Mo2N  (n=1)
1.00000000000000
3.0902786450700268  0.0000000000000000  0.0000000000000000
-1.5451393225350138  2.6762598116336100  0.0000000000000000
0.0000000000000000  0.0000000000000000  31.1898851025605701
Mo  N  Cl
2  1  2
Selective  dynamics
Direct
-0.0000000000000000  0.0000000000000000  0.0590930254168597  T  T  T
-0.0000000000000000  0.0000000000000000  0.1402723491786505  T  T  T
0.3333333333333357  0.6666666666666643  0.0990096389523383  T  T  T
0.3333333333333357  0.6666666666666643  0.0000000000000000  T  T  T
0.6666666666666643  0.3333333333333357  0.1984580924939799  T  T  T

0.00000000E+00  0.00000000E+00  0.00000000E+00
0.00000000E+00  0.00000000E+00  0.00000000E+00
0.00000000E+00  0.00000000E+00  0.00000000E+00
0.00000000E+00  0.00000000E+00  0.00000000E+00
0.00000000E+00  0.00000000E+00  0.00000000E+00
