Nb2C  (n=1)
1.00000000000000
3.1496991045316607  0.0000000000000000  0.0000000000000000
-1.5748495522658303  2.7277194391519699  -0.0000000000000001
0.0000000000000003  -0.0000000000000001  31.4109297994091108
Nb  C  Cl
2  1  2
Selective  dynamics
Direct
0.0000000000000000  0.0000000000000000  0.0563725901976410  T  T  T
0.0000000000000000  0.0000000000000000  0.1461064427076452  T  T  T
0.3333333333333357  0.6666666666666643  0.0998886747297222  T  T  T
0.3333333333333357  0.6666666666666643  0.0000000000000000  T  T  T
0.6666666666666643  0.3333333333333357  0.2040986955925675  T  T  T

0.00000000E+00  0.00000000E+00  0.00000000E+00
0.00000000E+00  0.00000000E+00  0.00000000E+00
0.00000000E+00  0.00000000E+00  0.00000000E+00
0.00000000E+00  0.00000000E+00  0.00000000E+00
0.00000000E+00  0.00000000E+00  0.00000000E+00
