Sc2C  (n=1)
1.00000000000000
3.3922422036601603  -0.0000000000000000  -0.0000000000000000
-1.6961211018300801  2.9377679246798865  0.0000000000000000
-0.0000000000000000  0.0000000000000001  31.1522878248831887
Sc  C  Cl
2  1  2
Selective  dynamics
Direct
0.0000000000000000  0.0000000000000000  0.0562788650462841  T  T  T
-0.0000000000000000  -0.0000000000000000  0.1432847993936876  T  T  T
0.3333333333333357  0.6666666666666643  0.1006360373993436  T  T  T
0.3333333333333357  0.6666666666666643  0.0000000000000000  T  T  T
0.6666666666666643  0.3333333333333357  0.1974907223336897  T  T  T

0.00000000E+00  0.00000000E+00  0.00000000E+00
0.00000000E+00  0.00000000E+00  0.00000000E+00
0.00000000E+00  0.00000000E+00  0.00000000E+00
0.00000000E+00  0.00000000E+00  0.00000000E+00
0.00000000E+00  0.00000000E+00  0.00000000E+00
