Mo2C  (n=1)
1.00000000000000
3.0738725642845743  -0.0000000000000001  -0.0000000000000000
-1.5369362821422872  2.6620517288921821  0.0000000000000000
0.0000000000000000  0.0000000000000001  31.2921456808697904
Mo  C  Cl
2  1  2
Selective  dynamics
Direct
-0.0000000000000000  -0.0000000000000000  0.0588584824823594  T  T  T
0.0000000000000000  0.0000000000000000  0.1423437544771215  T  T  T
0.3333333333333357  0.6666666666666643  0.0997575370860894  T  T  T
0.3333333333333357  0.6666666666666643  0.0000000000000000  T  T  T
0.6666666666666643  0.3333333333333357  0.2010774762791816  T  T  T

0.00000000E+00  0.00000000E+00  0.00000000E+00
0.00000000E+00  0.00000000E+00  0.00000000E+00
0.00000000E+00  0.00000000E+00  0.00000000E+00
0.00000000E+00  0.00000000E+00  0.00000000E+00
0.00000000E+00  0.00000000E+00  0.00000000E+00
