Ti2N  (n=1)
1.00000000000000
3.0928358438421366  -0.0000000000000001  0.0000000000000000
-1.5464179219210683  2.6784744106723162  0.0000000000000000
0.0000000000000003  -0.0000000000000001  30.9519258121703054
Ti  N  Cl
2  1  2
Selective  dynamics
Direct
-0.0000000000000000  -0.0000000000000000  0.0542364119904539  T  T  T
-0.0000000000000000  -0.0000000000000000  0.1381909774193014  T  T  T
0.3333333333333357  0.6666666666666643  0.0964098291927381  T  T  T
0.3333333333333357  0.6666666666666643  0.0000000000000000  T  T  T
0.6666666666666643  0.3333333333333357  0.1922958153973736  T  T  T

0.00000000E+00  0.00000000E+00  0.00000000E+00
0.00000000E+00  0.00000000E+00  0.00000000E+00
0.00000000E+00  0.00000000E+00  0.00000000E+00
0.00000000E+00  0.00000000E+00  0.00000000E+00
0.00000000E+00  0.00000000E+00  0.00000000E+00
