Nb2N  (n=1)
1.00000000000000
3.1123111262703573  -0.0000000000000004  -0.0000000000000001
-1.5561555631351784  2.6953405001143271  0.0000000000000000
-0.0000000000000007  0.0000000000000008  31.4180220702668578
Nb  N  Cl
2  1  2
Selective  dynamics
Direct
0.0000000000000000  0.0000000000000000  0.0575111700658859  T  T  T
0.0000000000000000  0.0000000000000000  0.1462804967209462  T  T  T
0.3333333333333357  0.6666666666666643  0.0995462531957725  T  T  T
0.3333333333333357  0.6666666666666643  0.0000000000000000  T  T  T
0.6666666666666643  0.3333333333333357  0.2042783615057898  T  T  T

0.00000000E+00  0.00000000E+00  0.00000000E+00
0.00000000E+00  0.00000000E+00  0.00000000E+00
0.00000000E+00  0.00000000E+00  0.00000000E+00
0.00000000E+00  0.00000000E+00  0.00000000E+00
0.00000000E+00  0.00000000E+00  0.00000000E+00
