Ta2N  (n=1)
1.00000000000000
3.0753535631039406  -0.0000000000000002  0.0000000000000000
-1.5376767815519705  2.6633343115536441  0.0000000000000000
-0.0000000000000006  -0.0000000000000003  31.4638442344861886
Ta  N  Cl
2  1  2
Selective  dynamics
Direct
0.0000000000000000  -0.0000000000000000  0.0577280085941405  T  T  T
0.0000000000000000  -0.0000000000000000  0.1469308297806238  T  T  T
0.3333333333333357  0.6666666666666643  0.0999302007067270  T  T  T
0.3333333333333357  0.6666666666666643  0.0000000000000000  T  T  T
0.6666666666666643  0.3333333333333357  0.2054372055211690  T  T  T

0.00000000E+00  0.00000000E+00  0.00000000E+00
0.00000000E+00  0.00000000E+00  0.00000000E+00
0.00000000E+00  0.00000000E+00  0.00000000E+00
0.00000000E+00  0.00000000E+00  0.00000000E+00
0.00000000E+00  0.00000000E+00  0.00000000E+00
