Ti2C  (n=1)
1.00000000000000
3.1813719428033340  0.0000000000000000  -0.0000000000000000
-1.5906859714016670  2.7551489216048424  0.0000000000000000
-0.0000000000000005  -0.0000000000000001  30.8918239270055039
Ti  C  Cl
2  1  2
Selective  dynamics
Direct
-0.0000000000000000  -0.0000000000000000  0.0547702656224706  T  T  T
0.0000000000000000  0.0000000000000000  0.1368226313056185  T  T  T
0.3333333333333357  0.6666666666666643  0.0971352130155154  T  T  T
0.3333333333333357  0.6666666666666643  0.0000000000000000  T  T  T
0.6666666666666643  0.3333333333333357  0.1907243787523629  T  T  T

0.00000000E+00  0.00000000E+00  0.00000000E+00
0.00000000E+00  0.00000000E+00  0.00000000E+00
0.00000000E+00  0.00000000E+00  0.00000000E+00
0.00000000E+00  0.00000000E+00  0.00000000E+00
0.00000000E+00  0.00000000E+00  0.00000000E+00
