Sc2N  (n=1)
1.00000000000000
3.3214947030858850  0.0000000000000001  0.0000000000000000
-1.6607473515429425  2.8764987918335221  0.0000000000000000
0.0000000000000000  0.0000000000000001  31.0882154748147528
Sc  N  Cl
2  1  2
Selective  dynamics
Direct
0.0000000000000000  0.0000000000000000  0.0549371289357310  T  T  T
0.0000000000000000  0.0000000000000000  0.1410412402630688  T  T  T
0.3333333333333357  0.6666666666666643  0.1017927921360978  T  T  T
0.3333333333333357  0.6666666666666643  0.0000000000000000  T  T  T
0.6666666666666643  0.3333333333333357  0.1958367626391084  T  T  T

0.00000000E+00  0.00000000E+00  0.00000000E+00
0.00000000E+00  0.00000000E+00  0.00000000E+00
0.00000000E+00  0.00000000E+00  0.00000000E+00
0.00000000E+00  0.00000000E+00  0.00000000E+00
0.00000000E+00  0.00000000E+00  0.00000000E+00
