Ta2C  (n=1)
1.00000000000000
3.1182756561773446  -0.0000000000000019  -0.0000000000000001
-1.5591378280886730  2.7005059345392564  -0.0000000000000000
-0.0000000000000007  0.0000000000000013  31.4319852951874132
Ta  C  Cl
2  1  2
Selective  dynamics
Direct
0.0000000000000000  0.0000000000000000  0.0568237053751525  T  T  T
-0.0000000000000000  -0.0000000000000000  0.1461184211253501  T  T  T
0.3333333333333357  0.6666666666666643  0.1003555659812809  T  T  T
0.3333333333333357  0.6666666666666643  0.0000000000000000  T  T  T
0.6666666666666643  0.3333333333333357  0.2046318498428485  T  T  T

0.00000000E+00  0.00000000E+00  0.00000000E+00
0.00000000E+00  0.00000000E+00  0.00000000E+00
0.00000000E+00  0.00000000E+00  0.00000000E+00
0.00000000E+00  0.00000000E+00  0.00000000E+00
0.00000000E+00  0.00000000E+00  0.00000000E+00
