Hf2C  (n=1)
1.00000000000000
3.3203629463413957  0.0000000000000001  -0.0000000000000000
-1.6601814731706981  2.8755186618859891  0.0000000000000001
-0.0000000000000007  0.0000000000000005  31.3330619799817285
Hf  C  Cl
2  1  2
Selective  dynamics
Direct
-0.0000000000000000  -0.0000000000000000  0.0570964912931169  T  T  T
0.0000000000000000  0.0000000000000000  0.1455247561190968  T  T  T
0.3333333333333357  0.6666666666666643  0.1033115973268572  T  T  T
0.3333333333333357  0.6666666666666643  0.0000000000000000  T  T  T
0.6666666666666643  0.3333333333333357  0.2021207497699342  T  T  T

0.00000000E+00  0.00000000E+00  0.00000000E+00
0.00000000E+00  0.00000000E+00  0.00000000E+00
0.00000000E+00  0.00000000E+00  0.00000000E+00
0.00000000E+00  0.00000000E+00  0.00000000E+00
0.00000000E+00  0.00000000E+00  0.00000000E+00
