Hf2N  (n=1)
1.00000000000000
3.1974797039057519  -0.0000000000000002  0.0000000000000000
-1.5987398519528759  2.7690986520948426  -0.0000000000000001
0.0000000000000002  -0.0000000000000005  31.4877578596758170
Hf  N  Cl
2  1  2
Selective  dynamics
Direct
-0.0000000000000000  -0.0000000000000000  0.0569681416849594  T  T  T
0.0000000000000000  0.0000000000000000  0.1487056082089184  T  T  T
0.3333333333333357  0.6666666666666643  0.1023233465821180  T  T  T
0.3333333333333357  0.6666666666666643  0.0000000000000000  T  T  T
0.6666666666666643  0.3333333333333357  0.2060406424804301  T  T  T

0.00000000E+00  0.00000000E+00  0.00000000E+00
0.00000000E+00  0.00000000E+00  0.00000000E+00
0.00000000E+00  0.00000000E+00  0.00000000E+00
0.00000000E+00  0.00000000E+00  0.00000000E+00
0.00000000E+00  0.00000000E+00  0.00000000E+00
