Nb3N2  (n=2)
1.00000000000000
3.0004882278137099  0.0000000000000000  0.0000000000000000
-1.5002441139068550  2.5984990291101124  0.0000000000000000
0.0000000000000000  0.0000000000000000  35.3171454704092014
Nb  N  H
3  4  2
Selective  dynamics
Direct
0.0000000000000000  0.0000000000000000  0.0639611060165580  T  T  T
0.0000000000000000  0.0000000000000000  0.1455487549398064  T  T  T
0.0000000000000000  0.0000000000000000  0.2278427501117215  T  T  T
0.3333333333333357  0.6666666666666643  0.1055072460320326  T  T  T
0.3333333333333357  0.6666666666666643  0.1852688108404744  T  T  T
0.3333333333333357  0.6666666666666643  0.0289153592637166  T  T  T
0.6666666666666643  0.3333333333333357  0.2631266843472791  T  T  T
0.3333333333333357  0.6666666666666643  0.0000000000000000  T  T  T
0.6666666666666643  0.3333333333333357  0.2921285209489402  T  T  T

0.00000000E+00  0.00000000E+00  0.00000000E+00
0.00000000E+00  0.00000000E+00  0.00000000E+00
0.00000000E+00  0.00000000E+00  0.00000000E+00
0.00000000E+00  0.00000000E+00  0.00000000E+00
0.00000000E+00  0.00000000E+00  0.00000000E+00
0.00000000E+00  0.00000000E+00  0.00000000E+00
0.00000000E+00  0.00000000E+00  0.00000000E+00
0.00000000E+00  0.00000000E+00  0.00000000E+00
0.00000000E+00  0.00000000E+00  0.00000000E+00
