Ta3N2  (n=2)
1.00000000000000
2.9848647652113018  0.0000000000000001  0.0000000000000000
-1.4924323826056507  2.5849687135941601  0.0000000000000000
-0.0000000000000001  -0.0000000000000002  35.3029860934518283
Ta  N  H
3  4  2
Selective  dynamics
Direct
-0.0000000000000000  -0.0000000000000000  0.0637279443244595  T  T  T
-0.0000000000000000  -0.0000000000000000  0.1455117660604119  T  T  T
-0.0000000000000000  -0.0000000000000000  0.2278170457150279  T  T  T
0.3333333333333357  0.6666666666666643  0.1054341455484723  T  T  T
0.3333333333333357  0.6666666666666643  0.1856477011124256  T  T  T
0.3333333333333357  0.6666666666666643  0.0288999420162598  T  T  T
0.6666666666666643  0.3333333333333357  0.2627965878622880  T  T  T
0.3333333333333357  0.6666666666666643  0.0000000000000000  T  T  T
0.6666666666666643  0.3333333333333357  0.2918446067473844  T  T  T

0.00000000E+00  0.00000000E+00  0.00000000E+00
0.00000000E+00  0.00000000E+00  0.00000000E+00
0.00000000E+00  0.00000000E+00  0.00000000E+00
0.00000000E+00  0.00000000E+00  0.00000000E+00
0.00000000E+00  0.00000000E+00  0.00000000E+00
0.00000000E+00  0.00000000E+00  0.00000000E+00
0.00000000E+00  0.00000000E+00  0.00000000E+00
0.00000000E+00  0.00000000E+00  0.00000000E+00
0.00000000E+00  0.00000000E+00  0.00000000E+00
