Ti3N2  (n=2)
1.00000000000000
2.9601318171591116  0.0000000000000000  0.0000000000000000
-1.4800659085795558  2.5635493522486006  0.0000000000000000
0.0000000000000000  0.0000000000000000  34.5801593874646187
Ti  N  H
3  4  2
Selective  dynamics
Direct
-0.0000000000000000  -0.0000000000000000  0.0619092285288290  T  T  T
-0.0000000000000000  -0.0000000000000000  0.1394676386737195  T  T  T
-0.0000000000000000  -0.0000000000000000  0.2163467631585285  T  T  T
0.3333333333333357  0.6666666666666643  0.1013723627647811  T  T  T
0.3333333333333357  0.6666666666666643  0.1783374108534774  T  T  T
0.3333333333333357  0.6666666666666643  0.0297431128778897  T  T  T
0.6666666666666643  0.3333333333333357  0.2474934178769124  T  T  T
0.3333333333333357  0.6666666666666643  0.0000000000000000  T  T  T
0.6666666666666643  0.3333333333333357  0.2770420830083695  T  T  T

0.00000000E+00  0.00000000E+00  0.00000000E+00
0.00000000E+00  0.00000000E+00  0.00000000E+00
0.00000000E+00  0.00000000E+00  0.00000000E+00
0.00000000E+00  0.00000000E+00  0.00000000E+00
0.00000000E+00  0.00000000E+00  0.00000000E+00
0.00000000E+00  0.00000000E+00  0.00000000E+00
0.00000000E+00  0.00000000E+00  0.00000000E+00
0.00000000E+00  0.00000000E+00  0.00000000E+00
0.00000000E+00  0.00000000E+00  0.00000000E+00
