Ti3C2  (n=2)
1.00000000000000
3.0290222773287616  0.0000000000000000  0.0000000000000000
-1.5145111386643808  2.6232102408783251  0.0000000000000000
0.0000000000000000  0.0000000000000000  34.7338576072290977
Ti  C  N  H
3  2  2  2
Selective  dynamics
Direct
0.0000000000000000  0.0000000000000000  0.0601650741694891  T  T  T
0.0000000000000000  0.0000000000000000  0.1408009516678633  T  T  T
0.0000000000000000  0.0000000000000000  0.2206886876873921  T  T  T
0.3333333333333357  0.6666666666666643  0.1018792753350965  T  T  T
0.3333333333333357  0.6666666666666643  0.1810293152094045  T  T  T
0.3333333333333357  0.6666666666666643  0.0297168435708571  T  T  T
0.6666666666666643  0.3333333333333357  0.2507466645791792  T  T  T
0.3333333333333357  0.6666666666666643  0.0000000000000000  T  T  T
0.6666666666666643  0.3333333333333357  0.2802411905207789  T  T  T

0.00000000E+00  0.00000000E+00  0.00000000E+00
0.00000000E+00  0.00000000E+00  0.00000000E+00
0.00000000E+00  0.00000000E+00  0.00000000E+00
0.00000000E+00  0.00000000E+00  0.00000000E+00
0.00000000E+00  0.00000000E+00  0.00000000E+00
0.00000000E+00  0.00000000E+00  0.00000000E+00
0.00000000E+00  0.00000000E+00  0.00000000E+00
0.00000000E+00  0.00000000E+00  0.00000000E+00
0.00000000E+00  0.00000000E+00  0.00000000E+00
