Zr3C2  (n=2)
1.00000000000000
3.2976103502714578  0.0000000000000000  0.0000000000000000
-1.6488051751357289  2.8558143353594021  0.0000000000000000
0.0000000000000000  0.0000000000000000  35.3058083620760854
Zr  C  N  H
3  2  2  2
Selective  dynamics
Direct
0.0000000000000000  -0.0000000000000000  0.0607418868337607  T  T  T
0.0000000000000000  -0.0000000000000000  0.1464592284575273  T  T  T
0.0000000000000000  -0.0000000000000000  0.2319259362840974  T  T  T
0.3333333333333357  0.6666666666666643  0.1050189863809219  T  T  T
0.3333333333333357  0.6666666666666643  0.1898608024240410  T  T  T
0.3333333333333357  0.6666666666666643  0.0292488002056847  T  T  T
0.6666666666666643  0.3333333333333357  0.2628439410898154  T  T  T
0.3333333333333357  0.6666666666666643  0.0000000000000000  T  T  T
0.6666666666666643  0.3333333333333357  0.2919012151311092  T  T  T

0.00000000E+00  0.00000000E+00  0.00000000E+00
0.00000000E+00  0.00000000E+00  0.00000000E+00
0.00000000E+00  0.00000000E+00  0.00000000E+00
0.00000000E+00  0.00000000E+00  0.00000000E+00
0.00000000E+00  0.00000000E+00  0.00000000E+00
0.00000000E+00  0.00000000E+00  0.00000000E+00
0.00000000E+00  0.00000000E+00  0.00000000E+00
0.00000000E+00  0.00000000E+00  0.00000000E+00
0.00000000E+00  0.00000000E+00  0.00000000E+00
