Hf3N2  (n=2)
1.00000000000000
3.1706648788421492  0.0000000000000000  0.0000000000000000
-1.5853324394210746  2.7458763320949644  0.0000000000000000
0.0000000000000000  0.0000000000000000  35.0526282554594886
Hf  N  H
3  4  2
Selective  dynamics
Direct
-0.0000000000000000  -0.0000000000000000  0.0621885420103352  T  T  T
-0.0000000000000000  -0.0000000000000000  0.1445713224146764  T  T  T
-0.0000000000000000  -0.0000000000000000  0.2259796798831936  T  T  T
0.3333333333333357  0.6666666666666643  0.1039613056490350  T  T  T
0.3333333333333357  0.6666666666666643  0.1865874468199806  T  T  T
0.3333333333333357  0.6666666666666643  0.0293147677359342  T  T  T
0.6666666666666643  0.3333333333333357  0.2576076876616585  T  T  T
0.3333333333333357  0.6666666666666643  0.0000000000000000  T  T  T
0.6666666666666643  0.3333333333333357  0.2867867191640267  T  T  T

0.00000000E+00  0.00000000E+00  0.00000000E+00
0.00000000E+00  0.00000000E+00  0.00000000E+00
0.00000000E+00  0.00000000E+00  0.00000000E+00
0.00000000E+00  0.00000000E+00  0.00000000E+00
0.00000000E+00  0.00000000E+00  0.00000000E+00
0.00000000E+00  0.00000000E+00  0.00000000E+00
0.00000000E+00  0.00000000E+00  0.00000000E+00
0.00000000E+00  0.00000000E+00  0.00000000E+00
0.00000000E+00  0.00000000E+00  0.00000000E+00
