Sc3C2N2H2  (n=2)
1.00000000000000
3.5045249052368295  0.0000000000000000  0.0000000000000000
-1.7522624526184147  3.0350075961381551  0.0000000000000000
0.0000000000000000  0.0000000000000000  34.2157334581663193
Sc  C  N  H
3  2  2  2
Selective  dynamics
Direct
0.0000000000000000  0.0000000000000000  0.0534024427567247  T  T  T
0.0000000000000000  0.0000000000000000  0.1355145348695671  T  T  T
0.0000000000000000  0.0000000000000000  0.2170149851619219  T  T  T
0.3333333333333357  0.6666666666666643  0.1136080529311871  T  T  T
0.3333333333333357  0.6666666666666643  0.1590598048339927  T  T  T
0.3333333333333357  0.6666666666666643  0.0302767915985720  T  T  T
0.6666666666666643  0.3333333333333357  0.2390885365500850  T  T  T
0.3333333333333357  0.6666666666666643  0.0000000000000000  T  T  T
0.6666666666666643  0.3333333333333357  0.2693419817942493  T  T  T

0.00000000E+00  0.00000000E+00  0.00000000E+00
0.00000000E+00  0.00000000E+00  0.00000000E+00
0.00000000E+00  0.00000000E+00  0.00000000E+00
0.00000000E+00  0.00000000E+00  0.00000000E+00
0.00000000E+00  0.00000000E+00  0.00000000E+00
0.00000000E+00  0.00000000E+00  0.00000000E+00
0.00000000E+00  0.00000000E+00  0.00000000E+00
0.00000000E+00  0.00000000E+00  0.00000000E+00
0.00000000E+00  0.00000000E+00  0.00000000E+00
