Zr3N2  (n=2)
1.00000000000000
3.2215922425691992  0.0000000000000000  0.0000000000000000
-1.6107961212845996  2.7899807228385418  0.0000000000000000
0.0000000000000000  0.0000000000000000  35.1686526429364577
Zr  N  H
3  4  2
Selective  dynamics
Direct
0.0000000000000000  -0.0000000000000000  0.0625064691351055  T  T  T
0.0000000000000000  -0.0000000000000000  0.1453458356892080  T  T  T
0.0000000000000000  -0.0000000000000000  0.2277975332175751  T  T  T
0.3333333333333357  0.6666666666666643  0.1045292012290979  T  T  T
0.3333333333333357  0.6666666666666643  0.1872675772398721  T  T  T
0.3333333333333357  0.6666666666666643  0.0292347999863745  T  T  T
0.6666666666666643  0.3333333333333357  0.2600259390704661  T  T  T
0.3333333333333357  0.6666666666666643  0.0000000000000000  T  T  T
0.6666666666666643  0.3333333333333357  0.2891396706657401  T  T  T

0.00000000E+00  0.00000000E+00  0.00000000E+00
0.00000000E+00  0.00000000E+00  0.00000000E+00
0.00000000E+00  0.00000000E+00  0.00000000E+00
0.00000000E+00  0.00000000E+00  0.00000000E+00
0.00000000E+00  0.00000000E+00  0.00000000E+00
0.00000000E+00  0.00000000E+00  0.00000000E+00
0.00000000E+00  0.00000000E+00  0.00000000E+00
0.00000000E+00  0.00000000E+00  0.00000000E+00
0.00000000E+00  0.00000000E+00  0.00000000E+00
