Sc3N2  (n=2)
1.00000000000000
3.2478154295119182  -0.0000000000000001  0.0000000000000000
-1.6239077147559591  2.8126906689025510  0.0000000000000000
-0.0000000000000001  0.0000000000000005  34.7114629577141258
Sc  N  H
3  4  2
Selective  dynamics
Direct
0.0000000000000000  -0.0000000000000000  0.0569854691726484  T  T  T
0.0000000000000000  -0.0000000000000000  0.1408228721484114  T  T  T
0.0000000000000000  -0.0000000000000000  0.2236289037015861  T  T  T
0.3333333333333357  0.6666666666666643  0.1048711478876005  T  T  T
0.3333333333333357  0.6666666666666643  0.1774101061185360  T  T  T
0.3333333333333357  0.6666666666666643  0.0297020127035956  T  T  T
0.6666666666666643  0.3333333333333357  0.2501723611635881  T  T  T
0.3333333333333357  0.6666666666666643  0.0000000000000000  T  T  T
0.6666666666666643  0.3333333333333357  0.2797768267371714  T  T  T

0.00000000E+00  0.00000000E+00  0.00000000E+00
0.00000000E+00  0.00000000E+00  0.00000000E+00
0.00000000E+00  0.00000000E+00  0.00000000E+00
0.00000000E+00  0.00000000E+00  0.00000000E+00
0.00000000E+00  0.00000000E+00  0.00000000E+00
0.00000000E+00  0.00000000E+00  0.00000000E+00
0.00000000E+00  0.00000000E+00  0.00000000E+00
0.00000000E+00  0.00000000E+00  0.00000000E+00
0.00000000E+00  0.00000000E+00  0.00000000E+00
