Nb3C2  (n=2)
1.00000000000000
3.0911310530880796  0.0000000000000000  0.0000000000000000
-1.5455655265440398  2.6769980185080122  0.0000000000000000
0.0000000000000000  0.0000000000000000  35.1641092908844470
Nb  C  N  H
3  2  2  2
Selective  dynamics
Direct
-0.0000000000000000  0.0000000000000000  0.0633755325344952  T  T  T
-0.0000000000000000  -0.0000000000000000  0.1447743609953887  T  T  T
-0.0000000000000000  0.0000000000000000  0.2261462474557954  T  T  T
0.3333333333333357  0.6666666666666643  0.1045064750850967  T  T  T
0.3333333333333357  0.6666666666666643  0.1861806065318208  T  T  T
0.3333333333333357  0.6666666666666643  0.0291887651769244  T  T  T
0.6666666666666643  0.3333333333333357  0.2599422055201732  T  T  T
0.3333333333333357  0.6666666666666643  0.0000000000000000  T  T  T
0.6666666666666643  0.3333333333333357  0.2890478244964186  T  T  T

0.00000000E+00  0.00000000E+00  0.00000000E+00
0.00000000E+00  0.00000000E+00  0.00000000E+00
0.00000000E+00  0.00000000E+00  0.00000000E+00
0.00000000E+00  0.00000000E+00  0.00000000E+00
0.00000000E+00  0.00000000E+00  0.00000000E+00
0.00000000E+00  0.00000000E+00  0.00000000E+00
0.00000000E+00  0.00000000E+00  0.00000000E+00
0.00000000E+00  0.00000000E+00  0.00000000E+00
0.00000000E+00  0.00000000E+00  0.00000000E+00
