Cr3N2  (n=2)
1.00000000000000
2.6921625198001364  0.0000000000000002  0.0000000000000000
-1.3460812599000682  2.3314811332581882  0.0000000000000000
-0.0000000000000003  0.0000000000000002  34.5232113677872263
Cr  N  H
3  4  2
Selective  dynamics
Direct
0.0000000000000000  0.0000000000000000  0.0626926860321002  T  T  T
0.0000000000000000  0.0000000000000000  0.1381251084486202  T  T  T
0.0000000000000000  0.0000000000000000  0.2134520167266022  T  T  T
0.3333333333333357  0.6666666666666643  0.0998350480878120  T  T  T
0.3333333333333357  0.6666666666666643  0.1734215495792214  T  T  T
0.3333333333333357  0.6666666666666643  0.0296598193577092  T  T  T
0.6666666666666643  0.3333333333333357  0.2461340035040585  T  T  T
0.3333333333333357  0.6666666666666643  0.0000000000000000  T  T  T
0.6666666666666643  0.3333333333333357  0.2758495224077880  T  T  T

0.00000000E+00  0.00000000E+00  0.00000000E+00
0.00000000E+00  0.00000000E+00  0.00000000E+00
0.00000000E+00  0.00000000E+00  0.00000000E+00
0.00000000E+00  0.00000000E+00  0.00000000E+00
0.00000000E+00  0.00000000E+00  0.00000000E+00
0.00000000E+00  0.00000000E+00  0.00000000E+00
0.00000000E+00  0.00000000E+00  0.00000000E+00
0.00000000E+00  0.00000000E+00  0.00000000E+00
0.00000000E+00  0.00000000E+00  0.00000000E+00
