Mo3C2  (n=2)
1.00000000000000
2.9207468062890047  0.0000000000000000  0.0000000000000000
-1.4603734031445024  2.5294409323069513  0.0000000000000000
0.0000000000000000  0.0000000000000000  35.1939472753302312
Mo  C  N  H
3  2  2  2
Selective  dynamics
Direct
-0.0000000000000000  0.0000000000000000  0.0639868151785785  T  T  T
-0.0000000000000000  0.0000000000000000  0.1444117552594414  T  T  T
-0.0000000000000000  0.0000000000000000  0.2252551019458421  T  T  T
0.3333333333333357  0.6666666666666643  0.1038466995452416  T  T  T
0.3333333333333357  0.6666666666666643  0.1831991413289654  T  T  T
0.3333333333333357  0.6666666666666643  0.0290406470747674  T  T  T
0.6666666666666643  0.3333333333333357  0.2605327720028523  T  T  T
0.3333333333333357  0.6666666666666643  0.0000000000000000  T  T  T
0.6666666666666643  0.3333333333333357  0.2896505809814588  T  T  T

0.00000000E+00  0.00000000E+00  0.00000000E+00
0.00000000E+00  0.00000000E+00  0.00000000E+00
0.00000000E+00  0.00000000E+00  0.00000000E+00
0.00000000E+00  0.00000000E+00  0.00000000E+00
0.00000000E+00  0.00000000E+00  0.00000000E+00
0.00000000E+00  0.00000000E+00  0.00000000E+00
0.00000000E+00  0.00000000E+00  0.00000000E+00
0.00000000E+00  0.00000000E+00  0.00000000E+00
0.00000000E+00  0.00000000E+00  0.00000000E+00
