Mo3N2  (n=2)
1.00000000000000
2.8796847648657891  0.0000000000000000  0.0000000000000000
-1.4398423824328945  2.4938801613056696  0.0000000000000000
0.0000000000000000  0.0000000000000000  35.2987719594426750
Mo  N  H
3  4  2
Selective  dynamics
Direct
-0.0000000000000000  -0.0000000000000000  0.0639503305161895  T  T  T
-0.0000000000000000  -0.0000000000000000  0.1448331077116853  T  T  T
-0.0000000000000000  -0.0000000000000000  0.2276303353382108  T  T  T
0.3333333333333357  0.6666666666666643  0.1035945868801534  T  T  T
0.3333333333333357  0.6666666666666643  0.1813853334002977  T  T  T
0.3333333333333357  0.6666666666666643  0.0289660275383891  T  T  T
0.6666666666666643  0.3333333333333357  0.2626814038126581  T  T  T
0.3333333333333357  0.6666666666666643  0.0000000000000000  T  T  T
0.6666666666666643  0.3333333333333357  0.2917600638139958  T  T  T

0.00000000E+00  0.00000000E+00  0.00000000E+00
0.00000000E+00  0.00000000E+00  0.00000000E+00
0.00000000E+00  0.00000000E+00  0.00000000E+00
0.00000000E+00  0.00000000E+00  0.00000000E+00
0.00000000E+00  0.00000000E+00  0.00000000E+00
0.00000000E+00  0.00000000E+00  0.00000000E+00
0.00000000E+00  0.00000000E+00  0.00000000E+00
0.00000000E+00  0.00000000E+00  0.00000000E+00
0.00000000E+00  0.00000000E+00  0.00000000E+00
