Hf3C2  (n=2)
1.00000000000000
3.2480915574115827  0.0000000000000000  0.0000000000000000
-1.6240457787057914  2.8129298027386280  0.0000000000000000
0.0000000000000000  0.0000000000000000  35.1674988755292972
Hf  C  N  H
3  2  2  2
Selective  dynamics
Direct
0.0000000000000000  0.0000000000000000  0.0608878727422819  T  T  T
0.0000000000000000  0.0000000000000000  0.1455284276628321  T  T  T
0.0000000000000000  0.0000000000000000  0.2295541087764166  T  T  T
0.3333333333333357  0.6666666666666643  0.1042194914591651  T  T  T
0.3333333333333357  0.6666666666666643  0.1880000366254297  T  T  T
0.3333333333333357  0.6666666666666643  0.0293801022414806  T  T  T
0.6666666666666643  0.3333333333333357  0.2599787786815349  T  T  T
0.3333333333333357  0.6666666666666643  0.0000000000000000  T  T  T
0.6666666666666643  0.3333333333333357  0.2891163489196606  T  T  T

0.00000000E+00  0.00000000E+00  0.00000000E+00
0.00000000E+00  0.00000000E+00  0.00000000E+00
0.00000000E+00  0.00000000E+00  0.00000000E+00
0.00000000E+00  0.00000000E+00  0.00000000E+00
0.00000000E+00  0.00000000E+00  0.00000000E+00
0.00000000E+00  0.00000000E+00  0.00000000E+00
0.00000000E+00  0.00000000E+00  0.00000000E+00
0.00000000E+00  0.00000000E+00  0.00000000E+00
0.00000000E+00  0.00000000E+00  0.00000000E+00
