Ta3C2  (n=2)
1.00000000000000
3.0787308144503993  0.0000000000000000  0.0000000000000000
-1.5393654072251997  2.6662590968239912  0.0000000000000000
0.0000000000000000  0.0000000000000000  35.1156621945482073
Ta  C  N  H
3  2  2  2
Selective  dynamics
Direct
-0.0000000000000000  -0.0000000000000000  0.0633661438622806  T  T  T
-0.0000000000000000  -0.0000000000000000  0.1446535729130866  T  T  T
-0.0000000000000000  -0.0000000000000000  0.2254385024802683  T  T  T
0.3333333333333357  0.6666666666666643  0.1041264246906360  T  T  T
0.3333333333333357  0.6666666666666643  0.1861961862647005  T  T  T
0.3333333333333357  0.6666666666666643  0.0292153396118623  T  T  T
0.6666666666666643  0.3333333333333357  0.2589218562936678  T  T  T
0.3333333333333357  0.6666666666666643  0.0000000000000000  T  T  T
0.6666666666666643  0.3333333333333357  0.2880669639235419  T  T  T

0.00000000E+00  0.00000000E+00  0.00000000E+00
0.00000000E+00  0.00000000E+00  0.00000000E+00
0.00000000E+00  0.00000000E+00  0.00000000E+00
0.00000000E+00  0.00000000E+00  0.00000000E+00
0.00000000E+00  0.00000000E+00  0.00000000E+00
0.00000000E+00  0.00000000E+00  0.00000000E+00
0.00000000E+00  0.00000000E+00  0.00000000E+00
0.00000000E+00  0.00000000E+00  0.00000000E+00
0.00000000E+00  0.00000000E+00  0.00000000E+00
