Cr3C2  (n=2)
1.00000000000000
2.7068095452863248  0.0000000000000000  0.0000000000000000
-1.3534047726431624  2.3441658294100565  0.0000000000000000
0.0000000000000000  0.0000000000000000  34.5863910445701066
Cr  C  N  H
3  2  2  2
Selective  dynamics
Direct
0.0000000000000000  0.0000000000000000  0.0626893054583641  T  T  T
0.0000000000000000  0.0000000000000000  0.1385736553945762  T  T  T
0.0000000000000000  0.0000000000000000  0.2145222350575962  T  T  T
0.3333333333333357  0.6666666666666643  0.1005644358020290  T  T  T
0.3333333333333357  0.6666666666666643  0.1750411186996106  T  T  T
0.3333333333333357  0.6666666666666643  0.0296257161585923  T  T  T
0.6666666666666643  0.3333333333333357  0.2475167840268363  T  T  T
0.3333333333333357  0.6666666666666643  0.0000000000000000  T  T  T
0.6666666666666643  0.3333333333333357  0.2771723430818934  T  T  T

0.00000000E+00  0.00000000E+00  0.00000000E+00
0.00000000E+00  0.00000000E+00  0.00000000E+00
0.00000000E+00  0.00000000E+00  0.00000000E+00
0.00000000E+00  0.00000000E+00  0.00000000E+00
0.00000000E+00  0.00000000E+00  0.00000000E+00
0.00000000E+00  0.00000000E+00  0.00000000E+00
0.00000000E+00  0.00000000E+00  0.00000000E+00
0.00000000E+00  0.00000000E+00  0.00000000E+00
0.00000000E+00  0.00000000E+00  0.00000000E+00
