Ta4C3  (n=3)
1.00000000000000
3.1208641448601155  0.0000000000000001  0.0000000000000000
-1.5604320724300578  2.7027476313901548  0.0000000000000000
0.0000000000000000  -0.0000000000000003  35.0048729879963645
Ta  C  O
4  3  2
Selective  dynamics
Direct
0.0000000000000000  0.0000000000000000  0.0326345625991736  T  T  T
0.6666666666666643  0.3333333333333357  0.1057029015553453  T  T  T
0.3333333333333357  0.6666666666666643  0.1828602018908501  T  T  T
0.0000000000000000  0.0000000000000000  0.2547224102136335  T  T  T
0.3333333333333357  0.6666666666666643  0.0706690482489939  T  T  T
0.0000000000000000  0.0000000000000000  0.1440873278662154  T  T  T
0.6666666666666643  0.3333333333333357  0.2193541820362858  T  T  T
0.3333333333333357  0.6666666666666643  0.0000000000000000  T  T  T
0.3333333333333357  0.6666666666666643  0.2858137206047618  T  T  T

0.00000000E+00  0.00000000E+00  0.00000000E+00
0.00000000E+00  0.00000000E+00  0.00000000E+00
0.00000000E+00  0.00000000E+00  0.00000000E+00
0.00000000E+00  0.00000000E+00  0.00000000E+00
0.00000000E+00  0.00000000E+00  0.00000000E+00
0.00000000E+00  0.00000000E+00  0.00000000E+00
0.00000000E+00  0.00000000E+00  0.00000000E+00
0.00000000E+00  0.00000000E+00  0.00000000E+00
0.00000000E+00  0.00000000E+00  0.00000000E+00
