Sc4N3  (n=3)
1.00000000000000
3.1896903001684187  -0.0000000000000001  0.0000000000000000
-1.5948451500842094  2.7623528303075724  -0.0000000000000001
0.0000000000000000  -0.0000000000000014  34.8500298296465516
Sc  N  O
4  3  2
Selective  dynamics
Direct
0.0000000000000000  0.0000000000000000  0.0248080643886814  T  T  T
0.6666666666666643  0.3333333333333357  0.1049843175052073  T  T  T
0.3333333333333357  0.6666666666666643  0.1820343683579269  T  T  T
0.0000000000000000  0.0000000000000000  0.2603030077421806  T  T  T
0.3333333333333357  0.6666666666666643  0.0714578020982508  T  T  T
0.0000000000000000  0.0000000000000000  0.1431007804298308  T  T  T
0.6666666666666643  0.3333333333333357  0.2154528744532986  T  T  T
0.3333333333333357  0.6666666666666643  0.0000000000000000  T  T  T
0.3333333333333357  0.6666666666666643  0.2826404992419040  T  T  T

0.00000000E+00  0.00000000E+00  0.00000000E+00
0.00000000E+00  0.00000000E+00  0.00000000E+00
0.00000000E+00  0.00000000E+00  0.00000000E+00
0.00000000E+00  0.00000000E+00  0.00000000E+00
0.00000000E+00  0.00000000E+00  0.00000000E+00
0.00000000E+00  0.00000000E+00  0.00000000E+00
0.00000000E+00  0.00000000E+00  0.00000000E+00
0.00000000E+00  0.00000000E+00  0.00000000E+00
0.00000000E+00  0.00000000E+00  0.00000000E+00
