Mo4C3  (n=3)
1.00000000000000
3.0155319985061584  0.0000000000000000  0.0000000000000000
-1.5077659992530792  2.6115273167150406  0.0000000000000000
-0.0000000000000002  -0.0000000000000002  35.0847912111949256
Mo  C  O
4  3  2
Selective  dynamics
Direct
0.0000000000000000  0.0000000000000000  0.0339592018447505  T  T  T
0.6666666666666643  0.3333333333333357  0.1109334957160963  T  T  T
0.3333333333333357  0.6666666666666643  0.1815821809897949  T  T  T
0.0000000000000000  0.0000000000000000  0.2549383833666758  T  T  T
0.3333333333333357  0.6666666666666643  0.0703973099642328  T  T  T
0.0000000000000000  0.0000000000000000  0.1447868935354973  T  T  T
0.6666666666666643  0.3333333333333357  0.2179959614363002  T  T  T
0.3333333333333357  0.6666666666666643  0.0000000000000000  T  T  T
0.3333333333333357  0.6666666666666643  0.2874405365700752  T  T  T

0.00000000E+00  0.00000000E+00  0.00000000E+00
0.00000000E+00  0.00000000E+00  0.00000000E+00
0.00000000E+00  0.00000000E+00  0.00000000E+00
0.00000000E+00  0.00000000E+00  0.00000000E+00
0.00000000E+00  0.00000000E+00  0.00000000E+00
0.00000000E+00  0.00000000E+00  0.00000000E+00
0.00000000E+00  0.00000000E+00  0.00000000E+00
0.00000000E+00  0.00000000E+00  0.00000000E+00
0.00000000E+00  0.00000000E+00  0.00000000E+00
