Ta4N3  (n=3)
1.00000000000000
3.0478602311638032  0.0000000000000000  0.0000000000000000
-1.5239301155819016  2.6395243874863756  0.0000000000000000
0.0000000000000001  0.0000000000000000  35.1893240399198532
Ta  N  O
4  3  2
Selective  dynamics
Direct
0.0000000000000000  0.0000000000000000  0.0324834112622775  T  T  T
0.6666666666666643  0.3333333333333357  0.1110593026095925  T  T  T
0.3333333333333357  0.6666666666666643  0.1855211815312904  T  T  T
0.0000000000000000  0.0000000000000000  0.2576751661444103  T  T  T
0.3333333333333357  0.6666666666666643  0.0716237271774906  T  T  T
0.0000000000000000  0.0000000000000000  0.1475516159272725  T  T  T
0.6666666666666643  0.3333333333333357  0.2219506735744038  T  T  T
0.3333333333333357  0.6666666666666643  0.0000000000000000  T  T  T
0.3333333333333357  0.6666666666666643  0.2895572540228613  T  T  T

0.00000000E+00  0.00000000E+00  0.00000000E+00
0.00000000E+00  0.00000000E+00  0.00000000E+00
0.00000000E+00  0.00000000E+00  0.00000000E+00
0.00000000E+00  0.00000000E+00  0.00000000E+00
0.00000000E+00  0.00000000E+00  0.00000000E+00
0.00000000E+00  0.00000000E+00  0.00000000E+00
0.00000000E+00  0.00000000E+00  0.00000000E+00
0.00000000E+00  0.00000000E+00  0.00000000E+00
0.00000000E+00  0.00000000E+00  0.00000000E+00
