Hf4N3  (n=3)
1.00000000000000
3.1747658799947578  0.0000000000000001  0.0000000000000000
-1.5873829399973789  2.7494279033196531  0.0000000000000000
0.0000000000000001  -0.0000000000000005  35.0942788279101094
Hf  N  O
4  3  2
Selective  dynamics
Direct
0.0000000000000000  0.0000000000000000  0.0300140377470955  T  T  T
0.6666666666666643  0.3333333333333357  0.1072165480363054  T  T  T
0.3333333333333357  0.6666666666666643  0.1832688895780523  T  T  T
0.0000000000000000  0.0000000000000000  0.2592148302765272  T  T  T
0.3333333333333357  0.6666666666666643  0.0720101169086184  T  T  T
0.0000000000000000  0.0000000000000000  0.1452622731082364  T  T  T
0.6666666666666643  0.3333333333333357  0.2224692772029851  T  T  T
0.3333333333333357  0.6666666666666643  0.0000000000000000  T  T  T
0.3333333333333357  0.6666666666666643  0.2876331745527205  T  T  T

0.00000000E+00  0.00000000E+00  0.00000000E+00
0.00000000E+00  0.00000000E+00  0.00000000E+00
0.00000000E+00  0.00000000E+00  0.00000000E+00
0.00000000E+00  0.00000000E+00  0.00000000E+00
0.00000000E+00  0.00000000E+00  0.00000000E+00
0.00000000E+00  0.00000000E+00  0.00000000E+00
0.00000000E+00  0.00000000E+00  0.00000000E+00
0.00000000E+00  0.00000000E+00  0.00000000E+00
0.00000000E+00  0.00000000E+00  0.00000000E+00
