Ti4C3  (n=3)
1.00000000000000
3.0241840471618211  0.0000000000000000  0.0000000000000000
-1.5120920235809105  2.6190202106147740  0.0000000000000000
0.0000000000000000  -0.0000000000000011  34.6042413295046387
Ti  C  O
4  3  2
Selective  dynamics
Direct
0.0000000000000000  0.0000000000000000  0.0284715126086722  T  T  T
0.6666666666666643  0.3333333333333357  0.1034564214641426  T  T  T
0.3333333333333357  0.6666666666666643  0.1766244826448225  T  T  T
0.0000000000000000  0.0000000000000000  0.2510465376656099  T  T  T
0.3333333333333357  0.6666666666666643  0.0683041572916506  T  T  T
0.0000000000000000  0.0000000000000000  0.1404363143841114  T  T  T
0.6666666666666643  0.3333333333333357  0.2130379269817259  T  T  T
0.3333333333333357  0.6666666666666643  0.0000000000000000  T  T  T
0.3333333333333357  0.6666666666666643  0.2775452071915754  T  T  T

0.00000000E+00  0.00000000E+00  0.00000000E+00
0.00000000E+00  0.00000000E+00  0.00000000E+00
0.00000000E+00  0.00000000E+00  0.00000000E+00
0.00000000E+00  0.00000000E+00  0.00000000E+00
0.00000000E+00  0.00000000E+00  0.00000000E+00
0.00000000E+00  0.00000000E+00  0.00000000E+00
0.00000000E+00  0.00000000E+00  0.00000000E+00
0.00000000E+00  0.00000000E+00  0.00000000E+00
0.00000000E+00  0.00000000E+00  0.00000000E+00
