Cr4C3  (n=3)
1.00000000000000
2.8079071007811622  0.0000000000000000  0.0000000000000000
-1.4039535503905811  2.4317188807391079  0.0000000000000001
-0.0000000000000001  0.0000000000000003  34.4836409063388061
Cr  C  O
4  3  2
Selective  dynamics
Direct
0.0000000000000000  0.0000000000000000  0.0321563644674580  T  T  T
0.6666666666666643  0.3333333333333357  0.1032700013768458  T  T  T
0.3333333333333357  0.6666666666666643  0.1748525432025370  T  T  T
0.0000000000000000  0.0000000000000000  0.2459533072034047  T  T  T
0.3333333333333357  0.6666666666666643  0.0672373185620908  T  T  T
0.0000000000000000  0.0000000000000000  0.1383810739805185  T  T  T
0.6666666666666643  0.3333333333333357  0.2088507351780994  T  T  T
0.3333333333333357  0.6666666666666643  0.0000000000000000  T  T  T
0.3333333333333357  0.6666666666666643  0.2750185495811586  T  T  T

0.00000000E+00  0.00000000E+00  0.00000000E+00
0.00000000E+00  0.00000000E+00  0.00000000E+00
0.00000000E+00  0.00000000E+00  0.00000000E+00
0.00000000E+00  0.00000000E+00  0.00000000E+00
0.00000000E+00  0.00000000E+00  0.00000000E+00
0.00000000E+00  0.00000000E+00  0.00000000E+00
0.00000000E+00  0.00000000E+00  0.00000000E+00
0.00000000E+00  0.00000000E+00  0.00000000E+00
0.00000000E+00  0.00000000E+00  0.00000000E+00
