Nb4C3  (n=3)
1.00000000000000
3.1386480625464661  0.0000000000000000  0.0000000000000000
-1.5693240312732331  2.7181489559092733  0.0000000000000000
0.0000000000000000  -0.0000000000000001  35.0502828521903993
Nb  C  O
4  3  2
Selective  dynamics
Direct
0.0000000000000000  0.0000000000000000  0.0324864042794781  T  T  T
0.6666666666666643  0.3333333333333357  0.1058392928879670  T  T  T
0.3333333333333357  0.6666666666666643  0.1833348727654334  T  T  T
0.0000000000000000  0.0000000000000000  0.2556640879379166  T  T  T
0.3333333333333357  0.6666666666666643  0.0703685352288705  T  T  T
0.0000000000000000  0.0000000000000000  0.1443715760935144  T  T  T
0.6666666666666643  0.3333333333333357  0.2197821793849965  T  T  T
0.3333333333333357  0.6666666666666643  0.0000000000000000  T  T  T
0.3333333333333357  0.6666666666666643  0.2867389942207649  T  T  T

0.00000000E+00  0.00000000E+00  0.00000000E+00
0.00000000E+00  0.00000000E+00  0.00000000E+00
0.00000000E+00  0.00000000E+00  0.00000000E+00
0.00000000E+00  0.00000000E+00  0.00000000E+00
0.00000000E+00  0.00000000E+00  0.00000000E+00
0.00000000E+00  0.00000000E+00  0.00000000E+00
0.00000000E+00  0.00000000E+00  0.00000000E+00
0.00000000E+00  0.00000000E+00  0.00000000E+00
0.00000000E+00  0.00000000E+00  0.00000000E+00
