Mo4N3  (n=3)
1.00000000000000
2.8276394068497721  0.0000000000000000  0.0000000000000000
-1.4138197034248861  2.4488075591387566  -0.0000000000000001
-0.0000000000000002  0.0000000000000012  36.3081156108648173
Mo  N  O
4  3  2
Selective  dynamics
Direct
0.0000000000000000  0.0000000000000000  0.0339453789819351  T  T  T
0.6666666666666643  0.3333333333333357  0.1159079023858598  T  T  T
0.3333333333333357  0.6666666666666643  0.1957051224133593  T  T  T
0.0000000000000000  0.0000000000000000  0.2770863764286513  T  T  T
0.3333333333333357  0.6666666666666643  0.0709785552726471  T  T  T
0.0000000000000000  0.0000000000000000  0.1544354538084461  T  T  T
0.6666666666666643  0.3333333333333357  0.2351956651102410  T  T  T
0.3333333333333357  0.6666666666666643  0.0000000000000000  T  T  T
0.3333333333333357  0.6666666666666643  0.3114487056299055  T  T  T

0.00000000E+00  0.00000000E+00  0.00000000E+00
0.00000000E+00  0.00000000E+00  0.00000000E+00
0.00000000E+00  0.00000000E+00  0.00000000E+00
0.00000000E+00  0.00000000E+00  0.00000000E+00
0.00000000E+00  0.00000000E+00  0.00000000E+00
0.00000000E+00  0.00000000E+00  0.00000000E+00
0.00000000E+00  0.00000000E+00  0.00000000E+00
0.00000000E+00  0.00000000E+00  0.00000000E+00
0.00000000E+00  0.00000000E+00  0.00000000E+00
