Sc4C3  (n=3)
1.00000000000000
3.3608376678398648  0.0000000000000002  -0.0000000000000001
-1.6804188339199324  2.9105707984708489  0.0000000000000001
-0.0000000000000007  0.0000000000000049  34.3681804413826129
Sc  C  O
4  3  2
Selective  dynamics
Direct
0.0000000000000000  0.0000000000000000  0.0199382876349099  T  T  T
0.6666666666666643  0.3333333333333357  0.0937668033161586  T  T  T
0.3333333333333357  0.6666666666666643  0.1687875260457423  T  T  T
0.0000000000000000  0.0000000000000000  0.2526751920753491  T  T  T
0.3333333333333357  0.6666666666666643  0.0519349841613053  T  T  T
0.0000000000000000  0.0000000000000000  0.1293344707541952  T  T  T
0.6666666666666643  0.3333333333333357  0.2046080342575667  T  T  T
0.3333333333333357  0.6666666666666643  0.0000000000000000  T  T  T
0.3333333333333357  0.6666666666666643  0.2725829625272340  T  T  T

0.00000000E+00  0.00000000E+00  0.00000000E+00
0.00000000E+00  0.00000000E+00  0.00000000E+00
0.00000000E+00  0.00000000E+00  0.00000000E+00
0.00000000E+00  0.00000000E+00  0.00000000E+00
0.00000000E+00  0.00000000E+00  0.00000000E+00
0.00000000E+00  0.00000000E+00  0.00000000E+00
0.00000000E+00  0.00000000E+00  0.00000000E+00
0.00000000E+00  0.00000000E+00  0.00000000E+00
0.00000000E+00  0.00000000E+00  0.00000000E+00
