Cr4N3  (n=3)
1.00000000000000
2.7928379477394416  0.0000000000000000  0.0000000000000000
-1.3964189738697208  2.4186686114047466  0.0000000000000000
0.0000000000000000  0.0000000000000004  34.7376953871073084
Cr  N  O
4  3  2
Selective  dynamics
Direct
0.0000000000000000  0.0000000000000000  0.0316876114553955  T  T  T
0.6666666666666643  0.3333333333333357  0.1068973433736084  T  T  T
0.3333333333333357  0.6666666666666643  0.1782779027689271  T  T  T
0.0000000000000000  0.0000000000000000  0.2525666647672737  T  T  T
0.3333333333333357  0.6666666666666643  0.0674945220111072  T  T  T
0.0000000000000000  0.0000000000000000  0.1400202636484651  T  T  T
0.6666666666666643  0.3333333333333357  0.2127276850349304  T  T  T
0.3333333333333357  0.6666666666666643  0.0000000000000000  T  T  T
0.3333333333333357  0.6666666666666643  0.2803207086305846  T  T  T

0.00000000E+00  0.00000000E+00  0.00000000E+00
0.00000000E+00  0.00000000E+00  0.00000000E+00
0.00000000E+00  0.00000000E+00  0.00000000E+00
0.00000000E+00  0.00000000E+00  0.00000000E+00
0.00000000E+00  0.00000000E+00  0.00000000E+00
0.00000000E+00  0.00000000E+00  0.00000000E+00
0.00000000E+00  0.00000000E+00  0.00000000E+00
0.00000000E+00  0.00000000E+00  0.00000000E+00
0.00000000E+00  0.00000000E+00  0.00000000E+00
