Nb4N3  (n=3)
1.00000000000000
3.0702876969814836  0.0000000000000000  0.0000000000000000
-1.5351438484907418  2.6589471426070133  0.0000000000000000
0.0000000000000000  0.0000000000000000  35.2296042634184801
Nb  N  O
4  3  2
Selective  dynamics
Direct
0.0000000000000000  0.0000000000000000  0.0325278358298629  T  T  T
0.6666666666666643  0.3333333333333357  0.1111261032486868  T  T  T
0.3333333333333357  0.6666666666666643  0.1860048327413979  T  T  T
0.0000000000000000  0.0000000000000000  0.2585318988027382  T  T  T
0.3333333333333357  0.6666666666666643  0.0715528526514008  T  T  T
0.0000000000000000  0.0000000000000000  0.1475925991710026  T  T  T
0.6666666666666643  0.3333333333333357  0.2224211403978311  T  T  T
0.3333333333333357  0.6666666666666643  0.0000000000000000  T  T  T
0.3333333333333357  0.6666666666666643  0.2903695479213953  T  T  T

0.00000000E+00  0.00000000E+00  0.00000000E+00
0.00000000E+00  0.00000000E+00  0.00000000E+00
0.00000000E+00  0.00000000E+00  0.00000000E+00
0.00000000E+00  0.00000000E+00  0.00000000E+00
0.00000000E+00  0.00000000E+00  0.00000000E+00
0.00000000E+00  0.00000000E+00  0.00000000E+00
0.00000000E+00  0.00000000E+00  0.00000000E+00
0.00000000E+00  0.00000000E+00  0.00000000E+00
0.00000000E+00  0.00000000E+00  0.00000000E+00
