Zr4C3  (n=3)
1.00000000000000
3.3021279971317310  -0.0000000000000001  0.0000000000000000
-1.6510639985658655  2.8597267323238720  0.0000000000000000
0.0000000000000000  0.0000000000000013  35.3350089682875534
Zr  C  O
4  3  2
Selective  dynamics
Direct
0.0000000000000000  0.0000000000000000  0.0292161765563268  T  T  T
0.6666666666666643  0.3333333333333357  0.1086885496740404  T  T  T
0.3333333333333357  0.6666666666666643  0.1866986678873296  T  T  T
0.0000000000000000  0.0000000000000000  0.2656424380103770  T  T  T
0.3333333333333357  0.6666666666666643  0.0712610172170530  T  T  T
0.0000000000000000  0.0000000000000000  0.1482370515281866  T  T  T
0.6666666666666643  0.3333333333333357  0.2258012635589300  T  T  T
0.3333333333333357  0.6666666666666643  0.0000000000000000  T  T  T
0.3333333333333357  0.6666666666666643  0.2924863830532209  T  T  T

0.00000000E+00  0.00000000E+00  0.00000000E+00
0.00000000E+00  0.00000000E+00  0.00000000E+00
0.00000000E+00  0.00000000E+00  0.00000000E+00
0.00000000E+00  0.00000000E+00  0.00000000E+00
0.00000000E+00  0.00000000E+00  0.00000000E+00
0.00000000E+00  0.00000000E+00  0.00000000E+00
0.00000000E+00  0.00000000E+00  0.00000000E+00
0.00000000E+00  0.00000000E+00  0.00000000E+00
0.00000000E+00  0.00000000E+00  0.00000000E+00
