Ti4N3  (n=3)
1.00000000000000
2.9636562178502222  0.0000000000000000  0.0000000000000000
-1.4818281089251111  2.5666015727843350  0.0000000000000000
-0.0000000000000001  0.0000000000000002  34.5518468931133498
Ti  N  O
4  3  2
Selective  dynamics
Direct
0.0000000000000000  0.0000000000000000  0.0295266441344538  T  T  T
0.6666666666666643  0.3333333333333357  0.1039710509242004  T  T  T
0.3333333333333357  0.6666666666666643  0.1760737186807283  T  T  T
0.0000000000000000  0.0000000000000000  0.2485899046521101  T  T  T
0.3333333333333357  0.6666666666666643  0.0697512423867884  T  T  T
0.0000000000000000  0.0000000000000000  0.1401671435274123  T  T  T
0.6666666666666643  0.3333333333333357  0.2124285377639066  T  T  T
0.3333333333333357  0.6666666666666643  0.0000000000000000  T  T  T
0.3333333333333357  0.6666666666666643  0.2764496764141764  T  T  T

0.00000000E+00  0.00000000E+00  0.00000000E+00
0.00000000E+00  0.00000000E+00  0.00000000E+00
0.00000000E+00  0.00000000E+00  0.00000000E+00
0.00000000E+00  0.00000000E+00  0.00000000E+00
0.00000000E+00  0.00000000E+00  0.00000000E+00
0.00000000E+00  0.00000000E+00  0.00000000E+00
0.00000000E+00  0.00000000E+00  0.00000000E+00
0.00000000E+00  0.00000000E+00  0.00000000E+00
0.00000000E+00  0.00000000E+00  0.00000000E+00
