Zr4N3  (n=3)
1.00000000000000
3.2314717476665646  0.0000000000000000  0.0000000000000000
-1.6157358738332823  2.7985366253569128  0.0000000000000000
0.0000000000000000  -0.0000000000000003  35.2388080167095836
Zr  N  O
4  3  2
Selective  dynamics
Direct
0.0000000000000000  0.0000000000000000  0.0301369650478677  T  T  T
0.6666666666666643  0.3333333333333357  0.1082993002977466  T  T  T
0.3333333333333357  0.6666666666666643  0.1851618136112835  T  T  T
0.0000000000000000  0.0000000000000000  0.2620861882452243  T  T  T
0.3333333333333357  0.6666666666666643  0.0724115824544578  T  T  T
0.0000000000000000  0.0000000000000000  0.1467168701034435  T  T  T
0.6666666666666643  0.3333333333333357  0.2247468823820540  T  T  T
0.3333333333333357  0.6666666666666643  0.0000000000000000  T  T  T
0.3333333333333357  0.6666666666666643  0.2905548908423501  T  T  T

0.00000000E+00  0.00000000E+00  0.00000000E+00
0.00000000E+00  0.00000000E+00  0.00000000E+00
0.00000000E+00  0.00000000E+00  0.00000000E+00
0.00000000E+00  0.00000000E+00  0.00000000E+00
0.00000000E+00  0.00000000E+00  0.00000000E+00
0.00000000E+00  0.00000000E+00  0.00000000E+00
0.00000000E+00  0.00000000E+00  0.00000000E+00
0.00000000E+00  0.00000000E+00  0.00000000E+00
0.00000000E+00  0.00000000E+00  0.00000000E+00
