Hf4C3  (n=3)
1.00000000000000
3.2477185568529348  0.0000000000000000  0.0000000000000000
-1.6238592784264674  2.8126067748441002  -0.0000000000000001
-0.0000000000000004  0.0000000000000031  35.1857418347587654
Hf  C  O
4  3  2
Selective  dynamics
Direct
0.0000000000000000  0.0000000000000000  0.0293798081452444  T  T  T
0.6666666666666643  0.3333333333333357  0.1078566485043017  T  T  T
0.3333333333333357  0.6666666666666643  0.1848863688546437  T  T  T
0.0000000000000000  0.0000000000000000  0.2627601828078481  T  T  T
0.3333333333333357  0.6666666666666643  0.0708048535406071  T  T  T
0.0000000000000000  0.0000000000000000  0.1468870580104214  T  T  T
0.6666666666666643  0.3333333333333357  0.2235760106447364  T  T  T
0.3333333333333357  0.6666666666666643  0.0000000000000000  T  T  T
0.3333333333333357  0.6666666666666643  0.2894849249617534  T  T  T

0.00000000E+00  0.00000000E+00  0.00000000E+00
0.00000000E+00  0.00000000E+00  0.00000000E+00
0.00000000E+00  0.00000000E+00  0.00000000E+00
0.00000000E+00  0.00000000E+00  0.00000000E+00
0.00000000E+00  0.00000000E+00  0.00000000E+00
0.00000000E+00  0.00000000E+00  0.00000000E+00
0.00000000E+00  0.00000000E+00  0.00000000E+00
0.00000000E+00  0.00000000E+00  0.00000000E+00
0.00000000E+00  0.00000000E+00  0.00000000E+00
