Sc2C  (n=1)
1.00000000000000
3.3913833869599919  0.0000000000000000  0.0000000000000000
-1.6956916934799959  2.9370241671696733  0.0000000000000000
0.0000000000000000  0.0000000000000001  32.2013079095119537
Sc  C  Te
2  1  2
Selective  dynamics
Direct
-0.0000000000000000  -0.0000000000000000  0.0746045057485479  T  T  T
0.6666666666666643  0.3333333333333357  0.1501519161233500  T  T  T
0.3333333333333357  0.6666666666666643  0.1131170835721021  T  T  T
0.3333333333333357  0.6666666666666643  0.0000000000000000  T  T  T
0.0000000000000000  0.0000000000000000  0.2236340191444447  T  T  T

0.00000000E+00  0.00000000E+00  0.00000000E+00
0.00000000E+00  0.00000000E+00  0.00000000E+00
0.00000000E+00  0.00000000E+00  0.00000000E+00
0.00000000E+00  0.00000000E+00  0.00000000E+00
0.00000000E+00  0.00000000E+00  0.00000000E+00
