Mo2N  (n=1)
1.00000000000000
3.3588866348891164  -0.0000000000000001  0.0000000000000001
-1.6794433174445580  2.9088811542909498  -0.0000000000000002
0.0000000000000000  -0.0000000000000017  31.2161131174878790
Mo  N  Te
2  1  2
Selective  dynamics
Direct
0.0000000000000000  -0.0000000000000000  0.0714976836712680  T  T  T
0.6666666666666643  0.3333333333333357  0.1329639425788738  T  T  T
0.3333333333333357  0.6666666666666643  0.1004397871683207  T  T  T
0.3333333333333357  0.6666666666666643  0.0000000000000000  T  T  T
0.0000000000000000  -0.0000000000000000  0.1991315540820965  T  T  T

0.00000000E+00  0.00000000E+00  0.00000000E+00
0.00000000E+00  0.00000000E+00  0.00000000E+00
0.00000000E+00  0.00000000E+00  0.00000000E+00
0.00000000E+00  0.00000000E+00  0.00000000E+00
0.00000000E+00  0.00000000E+00  0.00000000E+00
