Mo2C  (n=1)
1.00000000000000
3.3240036123124499  0.0000000000000000  0.0000000000000000
-1.6620018061562249  2.8786715705734562  0.0000000000000000
0.0000000000000000  0.0000000000000000  31.3451206688815915
Mo  C  Te
2  1  2
Selective  dynamics
Direct
-0.0000000000000000  -0.0000000000000000  0.0710640343109741  T  T  T
0.6666666666666643  0.3333333333333357  0.1365762620690820  T  T  T
0.3333333333333357  0.6666666666666643  0.1011318311549837  T  T  T
0.3333333333333357  0.6666666666666643  0.0000000000000000  T  T  T
-0.0000000000000000  0.0000000000000000  0.2024276995424305  T  T  T

0.00000000E+00  0.00000000E+00  0.00000000E+00
0.00000000E+00  0.00000000E+00  0.00000000E+00
0.00000000E+00  0.00000000E+00  0.00000000E+00
0.00000000E+00  0.00000000E+00  0.00000000E+00
0.00000000E+00  0.00000000E+00  0.00000000E+00
