Nb2C  (n=1)
1.00000000000000
3.4266260063302441  0.0000000000000000  0.0000000000000000
-1.7133130031651220  2.9675451708209235  0.0000000000000000
0.0000000000000000  0.0000000000000000  31.3316892026909137
Nb  C  Te
2  1  2
Selective  dynamics
Direct
-0.0000000000000000  0.0000000000000000  0.0646702636591796  T  T  T
0.6666666666666643  0.3333333333333357  0.1374572521048772  T  T  T
0.3333333333333357  0.6666666666666643  0.1022455122486564  T  T  T
0.3333333333333357  0.6666666666666643  0.0000000000000000  T  T  T
0.0000000000000000  0.0000000000000000  0.2020857912169995  T  T  T

0.00000000E+00  0.00000000E+00  0.00000000E+00
0.00000000E+00  0.00000000E+00  0.00000000E+00
0.00000000E+00  0.00000000E+00  0.00000000E+00
0.00000000E+00  0.00000000E+00  0.00000000E+00
0.00000000E+00  0.00000000E+00  0.00000000E+00
