Nb2N  (n=1)
1.00000000000000
3.3981555563930810  0.0000000000000000  0.0000000000000000
-1.6990777781965405  2.9428890379115087  0.0000000000000000
0.0000000000000000  0.0000000000000000  31.3599324130069732
Nb  N  Te
2  1  2
Selective  dynamics
Direct
-0.0000000000000000  -0.0000000000000000  0.0675422934151987  T  T  T
0.6666666666666643  0.3333333333333357  0.1373840861552453  T  T  T
0.3333333333333357  0.6666666666666643  0.1022441223095625  T  T  T
0.3333333333333357  0.6666666666666643  0.0000000000000000  T  T  T
0.0000000000000000  -0.0000000000000000  0.2028044043350393  T  T  T

0.00000000E+00  0.00000000E+00  0.00000000E+00
0.00000000E+00  0.00000000E+00  0.00000000E+00
0.00000000E+00  0.00000000E+00  0.00000000E+00
0.00000000E+00  0.00000000E+00  0.00000000E+00
0.00000000E+00  0.00000000E+00  0.00000000E+00
