Ta2N  (n=1)
1.00000000000000
3.4030120342164989  0.0000000000000000  0.0000000000000000
-1.7015060171082494  2.9470948710749880  0.0000000000000000
0.0000000000000000  0.0000000000000000  31.2895070233681238
Ta  N  Te
2  1  2
Selective  dynamics
Direct
0.0000000000000000  0.0000000000000000  0.0669129128894055  T  T  T
0.6666666666666643  0.3333333333333357  0.1361470278939937  T  T  T
0.3333333333333357  0.6666666666666643  0.1021268816592967  T  T  T
0.3333333333333357  0.6666666666666643  0.0000000000000000  T  T  T
0.0000000000000000  -0.0000000000000000  0.2010101028012649  T  T  T

0.00000000E+00  0.00000000E+00  0.00000000E+00
0.00000000E+00  0.00000000E+00  0.00000000E+00
0.00000000E+00  0.00000000E+00  0.00000000E+00
0.00000000E+00  0.00000000E+00  0.00000000E+00
0.00000000E+00  0.00000000E+00  0.00000000E+00
