Zr2N  (n=1)
1.00000000000000
3.4842002625536681  0.0000000000000003  -0.0000000000000001
-1.7421001312768341  3.0174059393058936  0.0000000000000002
-0.0000000000000002  0.0000000000000005  31.7064806330706048
Zr  N  Te
2  1  2
Selective  dynamics
Direct
-0.0000000000000000  -0.0000000000000000  0.0681424068042772  T  T  T
0.6666666666666643  0.3333333333333357  0.1426339606741016  T  T  T
0.3333333333333357  0.6666666666666643  0.1080402324185965  T  T  T
0.3333333333333357  0.6666666666666643  0.0000000000000000  T  T  T
-0.0000000000000000  -0.0000000000000000  0.2115176613476170  T  T  T

0.00000000E+00  0.00000000E+00  0.00000000E+00
0.00000000E+00  0.00000000E+00  0.00000000E+00
0.00000000E+00  0.00000000E+00  0.00000000E+00
0.00000000E+00  0.00000000E+00  0.00000000E+00
0.00000000E+00  0.00000000E+00  0.00000000E+00
