Zr2C  (n=1)
1.00000000000000
3.4647214497872847  -0.0000000000000006  0.0000000000000002
-1.7323607248936423  3.0005367926159194  0.0000000000000000
0.0000000000000003  -0.0000000000000016  31.9784028022931821
Zr  C  Te
2  1  2
Selective  dynamics
Direct
-0.0000000000000000  -0.0000000000000000  0.0704815748595924  T  T  T
0.6666666666666643  0.3333333333333357  0.1480887179458995  T  T  T
0.3333333333333357  0.6666666666666643  0.1106987789238003  T  T  T
0.3333333333333357  0.6666666666666643  0.0000000000000000  T  T  T
-0.0000000000000000  -0.0000000000000000  0.2182223685603447  T  T  T

0.00000000E+00  0.00000000E+00  0.00000000E+00
0.00000000E+00  0.00000000E+00  0.00000000E+00
0.00000000E+00  0.00000000E+00  0.00000000E+00
0.00000000E+00  0.00000000E+00  0.00000000E+00
0.00000000E+00  0.00000000E+00  0.00000000E+00
