Ta2C  (n=1)
1.00000000000000
3.4032632184469138  0.0000000000000000  0.0000000000000002
-1.7016316092234569  2.9473124029959621  -0.0000000000000006
0.0000000000000008  -0.0000000000000009  31.3436557798781692
Ta  C  Te
2  1  2
Selective  dynamics
Direct
-0.0000000000000000  -0.0000000000000000  0.0649872137400848  T  T  T
0.6666666666666643  0.3333333333333357  0.1375521314925170  T  T  T
0.3333333333333357  0.6666666666666643  0.1030514133497272  T  T  T
0.3333333333333357  0.6666666666666643  0.0000000000000000  T  T  T
-0.0000000000000000  -0.0000000000000000  0.2023904239004129  T  T  T

0.00000000E+00  0.00000000E+00  0.00000000E+00
0.00000000E+00  0.00000000E+00  0.00000000E+00
0.00000000E+00  0.00000000E+00  0.00000000E+00
0.00000000E+00  0.00000000E+00  0.00000000E+00
0.00000000E+00  0.00000000E+00  0.00000000E+00
