Ti2N  (n=1)
1.00000000000000
3.2999139331917955  0.0000000000000000  0.0000000000000000
-1.6499569665958977  2.8578092964852764  0.0000000000000000
0.0000000000000000  0.0000000000000000  31.2312721834290201
Ti  N  Te
2  1  2
Selective  dynamics
Direct
-0.0000000000000000  0.0000000000000000  0.0661757290017320  T  T  T
0.6666666666666643  0.3333333333333357  0.1322508651991700  T  T  T
0.3333333333333357  0.6666666666666643  0.1018412606766537  T  T  T
0.3333333333333357  0.6666666666666643  0.0000000000000000  T  T  T
-0.0000000000000000  0.0000000000000000  0.1995202804045640  T  T  T

0.00000000E+00  0.00000000E+00  0.00000000E+00
0.00000000E+00  0.00000000E+00  0.00000000E+00
0.00000000E+00  0.00000000E+00  0.00000000E+00
0.00000000E+00  0.00000000E+00  0.00000000E+00
0.00000000E+00  0.00000000E+00  0.00000000E+00
