Ti2C  (n=1)
1.00000000000000
3.2822948926529150  0.0000000000000000  0.0000000000000000
-1.6411474463264575  2.8425507598013802  0.0000000000000000
0.0000000000000000  -0.0000000000000001  31.5089320339347125
Ti  C  Te
2  1  2
Selective  dynamics
Direct
-0.0000000000000000  0.0000000000000000  0.0682251216306513  T  T  T
0.6666666666666643  0.3333333333333357  0.1381679477325341  T  T  T
0.3333333333333357  0.6666666666666643  0.1048880016689023  T  T  T
0.3333333333333357  0.6666666666666643  0.0000000000000000  T  T  T
-0.0000000000000000  0.0000000000000000  0.2065741875010133  T  T  T

0.00000000E+00  0.00000000E+00  0.00000000E+00
0.00000000E+00  0.00000000E+00  0.00000000E+00
0.00000000E+00  0.00000000E+00  0.00000000E+00
0.00000000E+00  0.00000000E+00  0.00000000E+00
0.00000000E+00  0.00000000E+00  0.00000000E+00
