Cr2C  (n=1)
1.00000000000000
3.2054141109713319  0.0000000000000000  0.0000000000000000
-1.6027070554856659  2.7759700497583846  0.0000000000000000
0.0000000000000000  -0.0000000000000001  31.0166876744680096
Cr  C  Te
2  1  2
Selective  dynamics
Direct
-0.0000000000000000  0.0000000000000000  0.0634751229885476  T  T  T
0.6666666666666643  0.3333333333333357  0.1251379087727817  T  T  T
0.3333333333333357  0.6666666666666643  0.0964006819378088  T  T  T
0.3333333333333357  0.6666666666666643  0.0000000000000000  T  T  T
0.0000000000000000  0.0000000000000000  0.1939822761738922  T  T  T

0.00000000E+00  0.00000000E+00  0.00000000E+00
0.00000000E+00  0.00000000E+00  0.00000000E+00
0.00000000E+00  0.00000000E+00  0.00000000E+00
0.00000000E+00  0.00000000E+00  0.00000000E+00
0.00000000E+00  0.00000000E+00  0.00000000E+00
