Cr2N  (n=1)
1.00000000000000
3.2091142012095997  0.0000000000000000  0.0000000000000000
-1.6045571006047998  2.7791744219428578  0.0000000000000000
0.0000000000000000  0.0000000000000000  30.9673425540868230
Cr  N  Te
2  1  2
Selective  dynamics
Direct
0.0000000000000000  0.0000000000000000  0.0641458389118511  T  T  T
0.6666666666666643  0.3333333333333357  0.1262071406239335  T  T  T
0.3333333333333357  0.6666666666666643  0.0984527557738364  T  T  T
0.3333333333333357  0.6666666666666643  0.0000000000000000  T  T  T
0.0000000000000000  0.0000000000000000  0.1926979218079306  T  T  T

0.00000000E+00  0.00000000E+00  0.00000000E+00
0.00000000E+00  0.00000000E+00  0.00000000E+00
0.00000000E+00  0.00000000E+00  0.00000000E+00
0.00000000E+00  0.00000000E+00  0.00000000E+00
0.00000000E+00  0.00000000E+00  0.00000000E+00
