Hf2C  (n=1)
1.00000000000000
3.4297651286764088  0.0000000000000004  0.0000000000000000
-1.7148825643382044  2.9702637305083521  0.0000000000000000
-0.0000000000000001  -0.0000000000000026  31.8873951369509356
Hf  C  Te
2  1  2
Selective  dynamics
Direct
0.0000000000000000  0.0000000000000000  0.0699575879718655  T  T  T
0.6666666666666643  0.3333333333333357  0.1460588990430692  T  T  T
0.3333333333333357  0.6666666666666643  0.1096391591661044  T  T  T
0.3333333333333357  0.6666666666666643  0.0000000000000000  T  T  T
0.0000000000000000  0.0000000000000000  0.2159911497120021  T  T  T

0.00000000E+00  0.00000000E+00  0.00000000E+00
0.00000000E+00  0.00000000E+00  0.00000000E+00
0.00000000E+00  0.00000000E+00  0.00000000E+00
0.00000000E+00  0.00000000E+00  0.00000000E+00
0.00000000E+00  0.00000000E+00  0.00000000E+00
