Sc2N
1.00000000000000
3.3770422562020981  0.0000000000000000  0.0000000000000002
-1.6885211281010493  2.9246043835824689  0.0000000000000000
0.0000000000000004  0.0000000000000005  31.9063195323968785
Sc  N  Te
2  1  2
Selective  dynamics
Direct
0.0000000000000000  0.0000000000000000  0.0706160548151360  T  T  T
0.6666666666666643  0.3333333333333357  0.1466617037199761  T  T  T
0.3333333333333357  0.6666666666666643  0.1100394118613813  T  T  T
0.3333333333333357  0.6666666666666643  0.0000000000000000  T  T  T
0.0000000000000000  0.0000000000000000  0.2164561639704126  T  T  T

0.00000000E+00  0.00000000E+00  0.00000000E+00
0.00000000E+00  0.00000000E+00  0.00000000E+00
0.00000000E+00  0.00000000E+00  0.00000000E+00
0.00000000E+00  0.00000000E+00  0.00000000E+00
0.00000000E+00  0.00000000E+00  0.00000000E+00
