Hf2N  (n=1)
1.00000000000000
3.4545995691045004  -0.0000000000000003  0.0000000000000000
-1.7272997845522504  2.9917709868065825  0.0000000000000000
0.0000000000000000  0.0000000000000000  31.5993499308010257
Hf  N  Te
2  1  2
Selective  dynamics
Direct
0.0000000000000000  0.0000000000000000  0.0671730050109513  T  T  T
0.6666666666666643  0.3333333333333357  0.1407808068582215  T  T  T
0.3333333333333357  0.6666666666666643  0.1071126253550638  T  T  T
0.3333333333333357  0.6666666666666643  0.0000000000000000  T  T  T
0.0000000000000000  0.0000000000000000  0.2088444839926406  T  T  T

0.00000000E+00  0.00000000E+00  0.00000000E+00
0.00000000E+00  0.00000000E+00  0.00000000E+00
0.00000000E+00  0.00000000E+00  0.00000000E+00
0.00000000E+00  0.00000000E+00  0.00000000E+00
0.00000000E+00  0.00000000E+00  0.00000000E+00
