Mo2CO2
1.00000000000000
2.9174370619117718  0.0000000000000010  0.0000000000000010
-1.4587185309558848  2.5265746095919517  -0.0000000000000003
0.0000000000000004  0.0000000000000092  30.1485699875358470
Mo  C  O
2  1  2
Selective  Dynamics
Direct
0.0000000000000001  0.0000000000000001  0.0395923055796407  T  T  T
0.6666666666666643  0.3333333333333357  0.1301823446047350  T  T  T
0.3333333333333357  0.6666666666666643  0.0861323983532658  T  T  T
0.6666666666666643  0.3333333333333358  0.0000000000000000  T  T  T
0.3333333333333357  0.6666666666666644  0.1707732734807784  T  T  T

0.00000000E+00  0.00000000E+00  0.00000000E+00
0.00000000E+00  0.00000000E+00  0.00000000E+00
0.00000000E+00  0.00000000E+00  0.00000000E+00
0.00000000E+00  0.00000000E+00  0.00000000E+00
0.00000000E+00  0.00000000E+00  0.00000000E+00
