Nb2C
1.00000000000000
3.0932591421388702  0.0000000000000000  0.0000000000000000
-1.5466295710694351  2.6788409976601191  0.0000000000000000
0.0000000000000000  0.0000000000000000  29.8631236843909349
Nb  C  O
2  1  2
Selective  dynamics
Direct
0.0000000000000000  0.0000000000000000  0.0376432824004098  T  T  T
0.6666666666666643  0.3333333333333357  0.1238243314167608  T  T  T
0.3333333333333357  0.6666666666666643  0.0791689165220040  T  T  T
0.6666666666666643  0.3333333333333357  0.0000000000000000  T  T  T
0.3333333333333357  0.6666666666666643  0.1628471199391920  T  T  T

0.00000000E+00  0.00000000E+00  0.00000000E+00
0.00000000E+00  0.00000000E+00  0.00000000E+00
0.00000000E+00  0.00000000E+00  0.00000000E+00
0.00000000E+00  0.00000000E+00  0.00000000E+00
0.00000000E+00  0.00000000E+00  0.00000000E+00
