Mo2NO2
1.00000000000000
2.8280675353304181  0.0000000000000008  0.0000000000000073
-1.4140337676652119  2.4491783292522737  -0.0000000000000048
0.0000000000000256  -0.0000000000000156  30.4373490803340765
Mo  N  O
2  1  2
Selective  Dynamics
Direct
0.0000000000000000  0.0000000000000000  0.0410878852278979  T  T  T
0.6666666666666643  0.3333333333333357  0.1382313505878533  T  T  T
0.3333333333333357  0.6666666666666643  0.0942996944678231  T  T  T
0.6666666666666643  0.3333333333333357  0.0000000000000000  T  T  T
0.3333333333333357  0.6666666666666643  0.1786406912764690  T  T  T

0.00000000E+00  0.00000000E+00  0.00000000E+00
0.00000000E+00  0.00000000E+00  0.00000000E+00
0.00000000E+00  0.00000000E+00  0.00000000E+00
0.00000000E+00  0.00000000E+00  0.00000000E+00
0.00000000E+00  0.00000000E+00  0.00000000E+00
