Ta2N
1.00000000000000
2.9969693507722948  0.0000000000000000  0.0000000000000000
-1.4984846753861474  2.5954515921883705  0.0000000000000000
0.0000000000000000  0.0000000000000000  30.0601525604226190
Ta  N  O
2  1  2
Selective  dynamics
Direct
0.0000000000000000  0.0000000000000000  0.0377965444005170  T  T  T
0.6666666666666643  0.3333333333333357  0.1294948813164087  T  T  T
0.3333333333333357  0.6666666666666643  0.0835113839324161  T  T  T
0.6666666666666643  0.3333333333333357  0.0000000000000000  T  T  T
0.3333333333333357  0.6666666666666643  0.1683342275210155  T  T  T

0.00000000E+00  0.00000000E+00  0.00000000E+00
0.00000000E+00  0.00000000E+00  0.00000000E+00
0.00000000E+00  0.00000000E+00  0.00000000E+00
0.00000000E+00  0.00000000E+00  0.00000000E+00
0.00000000E+00  0.00000000E+00  0.00000000E+00
