Cr2C
1.00000000000000
2.7675442928336826  0.0000000000000000  0.0000000000000000
-1.3837721464168413  2.3967636637019729  0.0000000000000000
0.0000000000000000  -0.0000000000000001  29.6457168724510467
Cr  C  O
2  1  2
Selective  dynamics
Direct
0.0000000000000000  0.0000000000000000  0.0343678056711715  T  T  T
0.6666666666666643  0.3333333333333357  0.1185199231482307  T  T  T
0.3333333333333357  0.6666666666666643  0.0782691278009887  T  T  T
0.6666666666666643  0.3333333333333357  0.0000000000000000  T  T  T
0.3333333333333357  0.6666666666666643  0.1567078607826881  T  T  T

0.00000000E+00  0.00000000E+00  0.00000000E+00
0.00000000E+00  0.00000000E+00  0.00000000E+00
0.00000000E+00  0.00000000E+00  0.00000000E+00
0.00000000E+00  0.00000000E+00  0.00000000E+00
0.00000000E+00  0.00000000E+00  0.00000000E+00
