Hf2N
1.00000000000000
3.1628465124668739  -0.0000000000000003  0.0000000000000000
-1.5814232562334372  2.7391054281216296  0.0000000000000000
0.0000000000000000  0.0000000000000000  29.8238778023974511
Hf  N  O
2  1  2
Selective  dynamics
Direct
0.0000000000000000  0.0000000000000000  0.0337757500595977  T  T  T
0.6666666666666643  0.3333333333333357  0.1262758312089600  T  T  T
0.3333333333333357  0.6666666666666643  0.0762401374207410  T  T  T
0.6666666666666643  0.3333333333333357  0.0000000000000000  T  T  T
0.3333333333333357  0.6666666666666643  0.1617454924660962  T  T  T

0.00000000E+00  0.00000000E+00  0.00000000E+00
0.00000000E+00  0.00000000E+00  0.00000000E+00
0.00000000E+00  0.00000000E+00  0.00000000E+00
0.00000000E+00  0.00000000E+00  0.00000000E+00
0.00000000E+00  0.00000000E+00  0.00000000E+00
