Sc2C
1.00000000000000
3.4049184028339101  0.0000000000000000  0.0000000000000000
-1.7024592014169551  2.9487458347465929  0.0000000000000000
0.0000000000000000  0.0000000000000000  28.8924133360103745
Sc  C  O
2  1  2
Selective  dynamics
Direct
0.0000000000000000  0.0000000000000000  0.0229195452777743  T  T  T
0.6666666666666643  0.3333333333333357  0.1111333405686791  T  T  T
0.3333333333333357  0.6666666666666643  0.0772071425792444  T  T  T
0.6666666666666643  0.3333333333333357  0.0000000000000000  T  T  T
0.3333333333333357  0.6666666666666643  0.1347209487398210  T  T  T

0.00000000E+00  0.00000000E+00  0.00000000E+00
0.00000000E+00  0.00000000E+00  0.00000000E+00
0.00000000E+00  0.00000000E+00  0.00000000E+00
0.00000000E+00  0.00000000E+00  0.00000000E+00
0.00000000E+00  0.00000000E+00  0.00000000E+00
