Zr2N
1.00000000000000
3.2214317246116844  0.0000000000000003  -0.0000000000000001
-1.6107158623058422  2.7898417101281638  0.0000000000000002
-0.0000000000000002  0.0000000000000005  29.8797302889092364
Zr  N  O
2  1  2
Selective  dynamics
Direct
0.0000000000000000  0.0000000000000000  0.0339170578379314  T  T  T
0.6666666666666643  0.3333333333333357  0.1278470649695578  T  T  T
0.3333333333333357  0.6666666666666643  0.0769751064054116  T  T  T
0.6666666666666643  0.3333333333333357  0.0000000000000000  T  T  T
0.3333333333333357  0.6666666666666643  0.1633123941122218  T  T  T

0.00000000E+00  0.00000000E+00  0.00000000E+00
0.00000000E+00  0.00000000E+00  0.00000000E+00
0.00000000E+00  0.00000000E+00  0.00000000E+00
0.00000000E+00  0.00000000E+00  0.00000000E+00
0.00000000E+00  0.00000000E+00  0.00000000E+00
