Ti2N
1.00000000000000
2.9379377436209784  0.0000000000000000  0.0000000000000000
-1.4689688718104892  2.5443287207534384  0.0000000000000000
0.0000000000000000  0.0000000000000000  29.6346322440037504
Ti  N  O
2  1  2
Selective  dynamics
Direct
0.0000000000000000  0.0000000000000000  0.0332474769308955  T  T  T
0.6666666666666643  0.3333333333333357  0.1216104127749149  T  T  T
0.3333333333333357  0.6666666666666643  0.0745780186183354  T  T  T
0.6666666666666643  0.3333333333333357  0.0000000000000000  T  T  T
0.3333333333333357  0.6666666666666643  0.1563924332127158  T  T  T

0.00000000E+00  0.00000000E+00  0.00000000E+00
0.00000000E+00  0.00000000E+00  0.00000000E+00
0.00000000E+00  0.00000000E+00  0.00000000E+00
0.00000000E+00  0.00000000E+00  0.00000000E+00
0.00000000E+00  0.00000000E+00  0.00000000E+00
