Ti2C
1.00000000000000
2.9855890592092562  0.0000000000000000  0.0000000000000000
-1.4927945296046281  2.5855959705800462  0.0000000000000000
0.0000000000000000  -0.0000000000000001  29.6163843956023918
Ti  C  O
2  1  2
Selective  dynamics
Direct
0.0000000000000000  0.0000000000000000  0.0318508386504514  T  T  T
0.6666666666666643  0.3333333333333357  0.1222078997839017  T  T  T
0.3333333333333357  0.6666666666666643  0.0754235734369308  T  T  T
0.6666666666666643  0.3333333333333357  0.0000000000000000  T  T  T
0.3333333333333357  0.6666666666666643  0.1558726525810443  T  T  T

0.00000000E+00  0.00000000E+00  0.00000000E+00
0.00000000E+00  0.00000000E+00  0.00000000E+00
0.00000000E+00  0.00000000E+00  0.00000000E+00
0.00000000E+00  0.00000000E+00  0.00000000E+00
0.00000000E+00  0.00000000E+00  0.00000000E+00
