Hf2C
1.00000000000000
3.2118794265880708  0.0000000000000004  0.0000000000000000
-1.6059397132940354  2.7815691773745947  0.0000000000000000
-0.0000000000000001  -0.0000000000000025  29.8283813372567295
Hf  C  O
2  1  2
Selective  dynamics
Direct
0.0000000000000000  0.0000000000000000  0.0322268885540023  T  T  T
0.6666666666666643  0.3333333333333357  0.1268218072286266  T  T  T
0.3333333333333357  0.6666666666666643  0.0777741853117017  T  T  T
0.6666666666666643  0.3333333333333357  0.0000000000000000  T  T  T
0.3333333333333357  0.6666666666666643  0.1618720534200060  T  T  T

0.00000000E+00  0.00000000E+00  0.00000000E+00
0.00000000E+00  0.00000000E+00  0.00000000E+00
0.00000000E+00  0.00000000E+00  0.00000000E+00
0.00000000E+00  0.00000000E+00  0.00000000E+00
0.00000000E+00  0.00000000E+00  0.00000000E+00
