Zr2C
1.00000000000000
3.2678598598668804  -0.0000000000000006  0.0000000000000002
-1.6339299299334402  2.8300496547118592  0.0000000000000000
0.0000000000000003  -0.0000000000000016  29.8835352551138627
Zr  C  O
2  1  2
Selective  dynamics
Direct
0.0000000000000000  0.0000000000000000  0.0324116754782350  T  T  T
0.6666666666666643  0.3333333333333357  0.1284859642819711  T  T  T
0.3333333333333357  0.6666666666666643  0.0786013625346033  T  T  T
0.6666666666666643  0.3333333333333357  0.0000000000000000  T  T  T
0.3333333333333357  0.6666666666666643  0.1634189266237555  T  T  T

0.00000000E+00  0.00000000E+00  0.00000000E+00
0.00000000E+00  0.00000000E+00  0.00000000E+00
0.00000000E+00  0.00000000E+00  0.00000000E+00
0.00000000E+00  0.00000000E+00  0.00000000E+00
0.00000000E+00  0.00000000E+00  0.00000000E+00
