Ta2C
1.00000000000000
3.0766050608229842  0.0000000000000000  0.0000000000000002
-1.5383025304114921  2.6644181401348672  -0.0000000000000006
0.0000000000000008  -0.0000000000000009  29.8346154053251809
Ta  C  O
2  1  2
Selective  dynamics
Direct
0.0000000000000000  0.0000000000000000  0.0376432238488769  T  T  T
0.6666666666666643  0.3333333333333357  0.1230479343672303  T  T  T
0.3333333333333357  0.6666666666666643  0.0782323126434512  T  T  T
0.6666666666666643  0.3333333333333357  0.0000000000000000  T  T  T
0.3333333333333357  0.6666666666666643  0.1620471837710450  T  T  T

0.00000000E+00  0.00000000E+00  0.00000000E+00
0.00000000E+00  0.00000000E+00  0.00000000E+00
0.00000000E+00  0.00000000E+00  0.00000000E+00
0.00000000E+00  0.00000000E+00  0.00000000E+00
0.00000000E+00  0.00000000E+00  0.00000000E+00
