Nb2N
1.00000000000000
3.0251689512202202  0.0000000000000000  0.0000000000000000
-1.5125844756101101  2.6198731625571305  0.0000000000000000
0.0000000000000000  0.0000000000000000  30.0447587873132562
Nb  N  O
2  1  2
Selective  dynamics
Direct
0.0000000000000000  0.0000000000000000  0.0376063611423640  T  T  T
0.6666666666666643  0.3333333333333357  0.1289336839674387  T  T  T
0.3333333333333357  0.6666666666666643  0.0833955348605288  T  T  T
0.6666666666666643  0.3333333333333357  0.0000000000000000  T  T  T
0.3333333333333357  0.6666666666666643  0.1679081141248324  T  T  T

0.00000000E+00  0.00000000E+00  0.00000000E+00
0.00000000E+00  0.00000000E+00  0.00000000E+00
0.00000000E+00  0.00000000E+00  0.00000000E+00
0.00000000E+00  0.00000000E+00  0.00000000E+00
0.00000000E+00  0.00000000E+00  0.00000000E+00
