Sc2N
1.00000000000000
3.2302964567893580  0.0000000000000000  0.0000000000000002
-1.6151482283946792  2.7975187933959722  0.0000000000000000
0.0000000000000004  0.0000000000000006  29.4554239259803623
Sc  N  O
2  1  2
Selective  dynamics
Direct
0.0000000000000000  0.0000000000000000  0.0260236357257801  T  T  T
0.6666666666666643  0.3333333333333357  0.1206905992867291  T  T  T
0.3333333333333357  0.6666666666666643  0.0754154588808911  T  T  T
0.6666666666666643  0.3333333333333357  0.0000000000000000  T  T  T
0.3333333333333357  0.6666666666666643  0.1512598812760789  T  T  T

0.00000000E+00  0.00000000E+00  0.00000000E+00
0.00000000E+00  0.00000000E+00  0.00000000E+00
0.00000000E+00  0.00000000E+00  0.00000000E+00
0.00000000E+00  0.00000000E+00  0.00000000E+00
0.00000000E+00  0.00000000E+00  0.00000000E+00
