Mo4C3  (n=3)
1.00000000000000
3.1322084532798873  0.0000000000000001  -0.0000000000000001
-1.5661042266399434  2.7125720911270097  -0.0000000000000000
-0.0000000000000020  0.0000000000000001  36.0989435207409031
Mo  C  Se
4  3  2
Selective  dynamics
Direct
-0.0000000000000000  -0.0000000000000000  0.0494406445587208  T  T  T
0.6666666666666643  0.3333333333333357  0.1217251061645538  T  T  T
0.3333333333333357  0.6666666666666643  0.1857338507537891  T  T  T
0.0000000000000000  0.0000000000000000  0.2580183123596147  T  T  T
0.3333333333333357  0.6666666666666643  0.0829606197606820  T  T  T
0.0000000000000000  -0.0000000000000000  0.1537294784591677  T  T  T
0.6666666666666643  0.3333333333333357  0.2244983371576536  T  T  T
0.3333333333333357  0.6666666666666643  0.0000000000000000  T  T  T
0.6666666666666643  0.3333333333333357  0.3074589569183355  T  T  T

0.00000000E+00  0.00000000E+00  0.00000000E+00
0.00000000E+00  0.00000000E+00  0.00000000E+00
0.00000000E+00  0.00000000E+00  0.00000000E+00
0.00000000E+00  0.00000000E+00  0.00000000E+00
0.00000000E+00  0.00000000E+00  0.00000000E+00
0.00000000E+00  0.00000000E+00  0.00000000E+00
0.00000000E+00  0.00000000E+00  0.00000000E+00
0.00000000E+00  0.00000000E+00  0.00000000E+00
0.00000000E+00  0.00000000E+00  0.00000000E+00
