Cr4C3  (n=3)
1.00000000000000
2.9708670704162627  0.0000000000000001  -0.0000000000000001
-1.4854335352081312  2.5728463542206526  0.0000000000000004
-0.0000000000000005  0.0000000000000050  35.3359057306546802
Cr  C  Se
4  3  2
Selective  dynamics
Direct
-0.0000000000000000  -0.0000000000000000  0.0488343445167098  T  T  T
0.6666666666666643  0.3333333333333357  0.1129098559474639  T  T  T
0.3333333333333357  0.6666666666666643  0.1795944825415324  T  T  T
0.0000000000000000  0.0000000000000000  0.2436699939722865  T  T  T
0.3333333333333357  0.6666666666666643  0.0788016223640342  T  T  T
0.0000000000000000  -0.0000000000000000  0.1462521692444981  T  T  T
0.6666666666666643  0.3333333333333357  0.2137027161249544  T  T  T
0.3333333333333357  0.6666666666666643  0.0000000000000000  T  T  T
0.6666666666666643  0.3333333333333357  0.2925043384889963  T  T  T

0.00000000E+00  0.00000000E+00  0.00000000E+00
0.00000000E+00  0.00000000E+00  0.00000000E+00
0.00000000E+00  0.00000000E+00  0.00000000E+00
0.00000000E+00  0.00000000E+00  0.00000000E+00
0.00000000E+00  0.00000000E+00  0.00000000E+00
0.00000000E+00  0.00000000E+00  0.00000000E+00
0.00000000E+00  0.00000000E+00  0.00000000E+00
0.00000000E+00  0.00000000E+00  0.00000000E+00
0.00000000E+00  0.00000000E+00  0.00000000E+00
