Zr4C3  (n=3)
1.00000000000000
3.3853802317550428  -0.0000000000000001  -0.0000000000000001
-1.6926901158775216  2.9318252840987147  0.0000000000000002
-0.0000000000000015  0.0000000000000017  36.9042677350735033
Zr  C  Se
4  3  2
Selective  dynamics
Direct
-0.0000000000000000  0.0000000000000000  0.0523449810341384  T  T  T
0.6666666666666643  0.3333333333333357  0.1250809062981431  T  T  T
0.3333333333333357  0.6666666666666643  0.1974906678225321  T  T  T
0.0000000000000000  -0.0000000000000000  0.2702265930865370  T  T  T
0.3333333333333357  0.6666666666666643  0.0874461818476679  T  T  T
0.0000000000000000  -0.0000000000000000  0.1612857870603376  T  T  T
0.6666666666666643  0.3333333333333357  0.2351253922729997  T  T  T
0.3333333333333357  0.6666666666666643  0.0000000000000000  T  T  T
0.6666666666666643  0.3333333333333357  0.3225715741206753  T  T  T

0.00000000E+00  0.00000000E+00  0.00000000E+00
0.00000000E+00  0.00000000E+00  0.00000000E+00
0.00000000E+00  0.00000000E+00  0.00000000E+00
0.00000000E+00  0.00000000E+00  0.00000000E+00
0.00000000E+00  0.00000000E+00  0.00000000E+00
0.00000000E+00  0.00000000E+00  0.00000000E+00
0.00000000E+00  0.00000000E+00  0.00000000E+00
0.00000000E+00  0.00000000E+00  0.00000000E+00
0.00000000E+00  0.00000000E+00  0.00000000E+00
