Hf4N3  (n=3)
1.00000000000000
3.3050859880495387  0.0000000000000004  0.0000000000000000
-1.6525429940247691  2.8622884286391019  -0.0000000000000002
0.0000000000000002  -0.0000000000000021  36.3483962046880080
Hf  N  Se
4  3  2
Selective  dynamics
Direct
-0.0000000000000000  0.0000000000000000  0.0495820059033022  T  T  T
0.6666666666666643  0.3333333333333357  0.1192367014221625  T  T  T
0.3333333333333357  0.6666666666666643  0.1929750435137700  T  T  T
0.0000000000000000  -0.0000000000000000  0.2626297390326303  T  T  T
0.3333333333333357  0.6666666666666643  0.0869889624496635  T  T  T
0.0000000000000000  0.0000000000000000  0.1561058724679663  T  T  T
0.6666666666666643  0.3333333333333357  0.2252227824862547  T  T  T
0.3333333333333357  0.6666666666666643  0.0000000000000000  T  T  T
0.6666666666666643  0.3333333333333357  0.3122117449359254  T  T  T

0.00000000E+00  0.00000000E+00  0.00000000E+00
0.00000000E+00  0.00000000E+00  0.00000000E+00
0.00000000E+00  0.00000000E+00  0.00000000E+00
0.00000000E+00  0.00000000E+00  0.00000000E+00
0.00000000E+00  0.00000000E+00  0.00000000E+00
0.00000000E+00  0.00000000E+00  0.00000000E+00
0.00000000E+00  0.00000000E+00  0.00000000E+00
0.00000000E+00  0.00000000E+00  0.00000000E+00
0.00000000E+00  0.00000000E+00  0.00000000E+00
