Sc4C3  (n=3)
1.00000000000000
3.6888818734785511  0.0000000000000003  0.0000000000000000
-1.8444409367392758  3.1946654157540255  -0.0000000000000004
0.0000000000000003  -0.0000000000000036  34.7777066597261424
Sc  C  Se
4  3  2
Selective  dynamics
Direct
-0.0000000000000000  -0.0000000000000000  0.0416540342458323  T  T  T
0.6666666666666643  0.3333333333333357  0.1069067096207636  T  T  T
0.3333333333333357  0.6666666666666643  0.1742419801244717  T  T  T
0.0000000000000000  0.0000000000000000  0.2394946554993961  T  T  T
0.3333333333333357  0.6666666666666643  0.0641908147894488  T  T  T
-0.0000000000000000  -0.0000000000000000  0.1405743448726176  T  T  T
0.6666666666666643  0.3333333333333357  0.2169578749557796  T  T  T
0.3333333333333357  0.6666666666666643  0.0000000000000000  T  T  T
0.6666666666666643  0.3333333333333357  0.2811486897452351  T  T  T

0.00000000E+00  0.00000000E+00  0.00000000E+00
0.00000000E+00  0.00000000E+00  0.00000000E+00
0.00000000E+00  0.00000000E+00  0.00000000E+00
0.00000000E+00  0.00000000E+00  0.00000000E+00
0.00000000E+00  0.00000000E+00  0.00000000E+00
0.00000000E+00  0.00000000E+00  0.00000000E+00
0.00000000E+00  0.00000000E+00  0.00000000E+00
0.00000000E+00  0.00000000E+00  0.00000000E+00
0.00000000E+00  0.00000000E+00  0.00000000E+00
