Mo4N3  (n=3)
1.00000000000000
3.0278939652402248  -0.0000000000000001  -0.0000000000000001
-1.5139469826201124  2.6222330941162864  0.0000000000000002
-0.0000000000000008  0.0000000000000000  36.6685669196256114
Mo  N  Se
4  3  2
Selective  dynamics
Direct
0.0000000000000000  0.0000000000000000  0.0491897118885681  T  T  T
0.6666666666666643  0.3333333333333357  0.1231188305430835  T  T  T
0.3333333333333357  0.6666666666666643  0.1951289535469995  T  T  T
0.0000000000000000  0.0000000000000000  0.2690426387725075  T  T  T
0.3333333333333357  0.6666666666666643  0.0844614143624316  T  T  T
0.0000000000000000  0.0000000000000000  0.1591187940216194  T  T  T
0.6666666666666643  0.3333333333333357  0.2337619396052308  T  T  T
0.3333333333333357  0.6666666666666643  0.0000000000000000  T  T  T
0.6666666666666643  0.3333333333333357  0.3182171516329537  T  T  T

0.00000000E+00  0.00000000E+00  0.00000000E+00
0.00000000E+00  0.00000000E+00  0.00000000E+00
0.00000000E+00  0.00000000E+00  0.00000000E+00
0.00000000E+00  0.00000000E+00  0.00000000E+00
0.00000000E+00  0.00000000E+00  0.00000000E+00
0.00000000E+00  0.00000000E+00  0.00000000E+00
0.00000000E+00  0.00000000E+00  0.00000000E+00
0.00000000E+00  0.00000000E+00  0.00000000E+00
0.00000000E+00  0.00000000E+00  0.00000000E+00
