Ta4N3  (n=3)
1.00000000000000
3.1768822623624025  0.0000000000000000  0.0000000000000000
-1.5884411311812010  2.7512607446916610  0.0000000000000000
0.0000000000000004  0.0000000000000008  36.2540756953154926
Ta  N  Se
4  3  2
Selective  dynamics
Direct
0.0000000000000000  0.0000000000000000  0.0494841813300865  T  T  T
0.6666666666666643  0.3333333333333357  0.1220417122874941  T  T  T
0.3333333333333357  0.6666666666666643  0.1883806465638703  T  T  T
-0.0000000000000000  -0.0000000000000000  0.2609381775212707  T  T  T
0.3333333333333357  0.6666666666666643  0.0866478768296171  T  T  T
-0.0000000000000000  -0.0000000000000000  0.1552111794256786  T  T  T
0.6666666666666643  0.3333333333333357  0.2237744820217330  T  T  T
0.3333333333333357  0.6666666666666643  0.0000000000000000  T  T  T
0.6666666666666643  0.3333333333333357  0.3104223588513573  T  T  T

0.00000000E+00  0.00000000E+00  0.00000000E+00
0.00000000E+00  0.00000000E+00  0.00000000E+00
0.00000000E+00  0.00000000E+00  0.00000000E+00
0.00000000E+00  0.00000000E+00  0.00000000E+00
0.00000000E+00  0.00000000E+00  0.00000000E+00
0.00000000E+00  0.00000000E+00  0.00000000E+00
0.00000000E+00  0.00000000E+00  0.00000000E+00
0.00000000E+00  0.00000000E+00  0.00000000E+00
0.00000000E+00  0.00000000E+00  0.00000000E+00
