Zr4N3  (n=3)
1.00000000000000
3.3529429170440936  0.0000000000000001  0.0000000000000000
-1.6764714585220468  2.9037337449209093  -0.0000000000000001
-0.0000000000000005  -0.0000000000000020  36.5242179755418022
Zr  N  Se
4  3  2
Selective  dynamics
Direct
-0.0000000000000000  0.0000000000000000  0.0500822943436905  T  T  T
0.6666666666666643  0.3333333333333357  0.1205660824917295  T  T  T
0.3333333333333357  0.6666666666666643  0.1949565656114806  T  T  T
-0.0000000000000000  -0.0000000000000000  0.2654403537595266  T  T  T
0.3333333333333357  0.6666666666666643  0.0873958663227218  T  T  T
-0.0000000000000000  0.0000000000000000  0.1577613240516050  T  T  T
0.6666666666666643  0.3333333333333357  0.2281267817804811  T  T  T
0.3333333333333357  0.6666666666666643  0.0000000000000000  T  T  T
0.6666666666666643  0.3333333333333357  0.3155226481032097  T  T  T

0.00000000E+00  0.00000000E+00  0.00000000E+00
0.00000000E+00  0.00000000E+00  0.00000000E+00
0.00000000E+00  0.00000000E+00  0.00000000E+00
0.00000000E+00  0.00000000E+00  0.00000000E+00
0.00000000E+00  0.00000000E+00  0.00000000E+00
0.00000000E+00  0.00000000E+00  0.00000000E+00
0.00000000E+00  0.00000000E+00  0.00000000E+00
0.00000000E+00  0.00000000E+00  0.00000000E+00
0.00000000E+00  0.00000000E+00  0.00000000E+00
