Ta4C3  (n=3)
1.00000000000000
3.2235481595579834  0.0000000000000000  0.0000000000000000
-1.6117740797789917  2.7916745973343420  -0.0000000000000001
0.0000000000000001  -0.0000000000000012  36.2438659104481786
Ta  C  Se
4  3  2
Selective  dynamics
Direct
0.0000000000000000  0.0000000000000000  0.0507363024421188  T  T  T
0.6666666666666643  0.3333333333333357  0.1180939412975760  T  T  T
0.3333333333333357  0.6666666666666643  0.1921341656662325  T  T  T
0.0000000000000000  0.0000000000000000  0.2594918045216823  T  T  T
0.3333333333333357  0.6666666666666643  0.0848847395488365  T  T  T
0.0000000000000000  0.0000000000000000  0.1551140534819042  T  T  T
0.6666666666666643  0.3333333333333357  0.2253433674149647  T  T  T
0.3333333333333357  0.6666666666666643  0.0000000000000000  T  T  T
0.6666666666666643  0.3333333333333357  0.3102281069638010  T  T  T

0.00000000E+00  0.00000000E+00  0.00000000E+00
0.00000000E+00  0.00000000E+00  0.00000000E+00
0.00000000E+00  0.00000000E+00  0.00000000E+00
0.00000000E+00  0.00000000E+00  0.00000000E+00
0.00000000E+00  0.00000000E+00  0.00000000E+00
0.00000000E+00  0.00000000E+00  0.00000000E+00
0.00000000E+00  0.00000000E+00  0.00000000E+00
0.00000000E+00  0.00000000E+00  0.00000000E+00
0.00000000E+00  0.00000000E+00  0.00000000E+00
