Sc4N3  (n=3)
1.00000000000000
3.2200716158129654  -0.0000000000000004  0.0000000000000000
-1.6100358079064832  2.7886638223060420  -0.0000000000000003
-0.0000000000000018  -0.0000000000000040  36.7777610985674315
Sc  N  Se
4  3  2
Selective  dynamics
Direct
0.0000000000000000  0.0000000000000000  0.0551403823681739  T  T  T
0.6666666666666643  0.3333333333333357  0.1253178036162726  T  T  T
0.3333333333333357  0.6666666666666643  0.1949235799470808  T  T  T
-0.0000000000000000  -0.0000000000000000  0.2651010011951794  T  T  T
0.3333333333333357  0.6666666666666643  0.0888188673040534  T  T  T
-0.0000000000000000  -0.0000000000000000  0.1601206917816766  T  T  T
0.6666666666666643  0.3333333333333357  0.2314225162592924  T  T  T
0.3333333333333357  0.6666666666666643  0.0000000000000000  T  T  T
0.6666666666666643  0.3333333333333357  0.3202413835633457  T  T  T

0.00000000E+00  0.00000000E+00  0.00000000E+00
0.00000000E+00  0.00000000E+00  0.00000000E+00
0.00000000E+00  0.00000000E+00  0.00000000E+00
0.00000000E+00  0.00000000E+00  0.00000000E+00
0.00000000E+00  0.00000000E+00  0.00000000E+00
0.00000000E+00  0.00000000E+00  0.00000000E+00
0.00000000E+00  0.00000000E+00  0.00000000E+00
0.00000000E+00  0.00000000E+00  0.00000000E+00
0.00000000E+00  0.00000000E+00  0.00000000E+00
