Ti4N3  (n=3)
1.00000000000000
3.0961218587180541  0.0000000000000002  0.0000000000000000
-1.5480609293590271  2.6813201830636713  -0.0000000000000001
-0.0000000000000009  0.0000000000000010  35.7682167512253457
Ti  N  Se
4  3  2
Selective  dynamics
Direct
0.0000000000000000  0.0000000000000000  0.0507987165761585  T  T  T
0.6666666666666643  0.3333333333333357  0.1158515714933867  T  T  T
0.3333333333333357  0.6666666666666643  0.1852038830214500  T  T  T
-0.0000000000000000  -0.0000000000000000  0.2502567379386780  T  T  T
0.3333333333333357  0.6666666666666643  0.0838088047969217  T  T  T
0.0000000000000000  -0.0000000000000000  0.1505277272574148  T  T  T
0.6666666666666643  0.3333333333333357  0.2172466497179077  T  T  T
0.3333333333333357  0.6666666666666643  0.0000000000000000  T  T  T
0.6666666666666643  0.3333333333333357  0.3010554545148367  T  T  T

0.00000000E+00  0.00000000E+00  0.00000000E+00
0.00000000E+00  0.00000000E+00  0.00000000E+00
0.00000000E+00  0.00000000E+00  0.00000000E+00
0.00000000E+00  0.00000000E+00  0.00000000E+00
0.00000000E+00  0.00000000E+00  0.00000000E+00
0.00000000E+00  0.00000000E+00  0.00000000E+00
0.00000000E+00  0.00000000E+00  0.00000000E+00
0.00000000E+00  0.00000000E+00  0.00000000E+00
0.00000000E+00  0.00000000E+00  0.00000000E+00
