Ti4C3  (n=3)
1.00000000000000
3.1243272848674808  -0.0000000000000003  0.0000000000000001
-1.5621636424337408  2.7057467988617967  -0.0000000000000003
-0.0000000000000008  0.0000000000000005  36.1263843303738810
Ti  C  Se
4  3  2
Selective  dynamics
Direct
0.0000000000000000  0.0000000000000000  0.0533876727092909  T  T  T
0.6666666666666643  0.3333333333333357  0.1204973850121882  T  T  T
0.3333333333333357  0.6666666666666643  0.1874876109017035  T  T  T
-0.0000000000000000  -0.0000000000000000  0.2545973232046009  T  T  T
0.3333333333333357  0.6666666666666643  0.0848240924597623  T  T  T
-0.0000000000000000  -0.0000000000000000  0.1539924979569459  T  T  T
0.6666666666666643  0.3333333333333357  0.2231609034541220  T  T  T
0.3333333333333357  0.6666666666666643  0.0000000000000000  T  T  T
0.6666666666666643  0.3333333333333357  0.3079849959138918  T  T  T

0.00000000E+00  0.00000000E+00  0.00000000E+00
0.00000000E+00  0.00000000E+00  0.00000000E+00
0.00000000E+00  0.00000000E+00  0.00000000E+00
0.00000000E+00  0.00000000E+00  0.00000000E+00
0.00000000E+00  0.00000000E+00  0.00000000E+00
0.00000000E+00  0.00000000E+00  0.00000000E+00
0.00000000E+00  0.00000000E+00  0.00000000E+00
0.00000000E+00  0.00000000E+00  0.00000000E+00
0.00000000E+00  0.00000000E+00  0.00000000E+00
