Cr4N3  (n=3)
1.00000000000000
2.9721396583052635  -0.0000000000000001  0.0000000000000000
-1.4860698291526317  2.5739484477658530  0.0000000000000001
-0.0000000000000003  0.0000000000000007  35.4713535043680608
Cr  N  Se
4  3  2
Selective  dynamics
Direct
-0.0000000000000000  -0.0000000000000000  0.0486618654302554  T  T  T
0.6666666666666643  0.3333333333333357  0.1131951425204828  T  T  T
0.3333333333333357  0.6666666666666643  0.1820107763368033  T  T  T
0.0000000000000000  0.0000000000000000  0.2465440534270232  T  T  T
0.3333333333333357  0.6666666666666643  0.0801821930544208  T  T  T
-0.0000000000000000  -0.0000000000000000  0.1476029594286468  T  T  T
0.6666666666666643  0.3333333333333357  0.2150237258028579  T  T  T
0.3333333333333357  0.6666666666666643  0.0000000000000000  T  T  T
0.6666666666666643  0.3333333333333357  0.2952059188572712  T  T  T

0.00000000E+00  0.00000000E+00  0.00000000E+00
0.00000000E+00  0.00000000E+00  0.00000000E+00
0.00000000E+00  0.00000000E+00  0.00000000E+00
0.00000000E+00  0.00000000E+00  0.00000000E+00
0.00000000E+00  0.00000000E+00  0.00000000E+00
0.00000000E+00  0.00000000E+00  0.00000000E+00
0.00000000E+00  0.00000000E+00  0.00000000E+00
0.00000000E+00  0.00000000E+00  0.00000000E+00
0.00000000E+00  0.00000000E+00  0.00000000E+00
