Hf4C3  (n=3)
1.00000000000000
3.3386050643758494  0.0000000000000003  0.0000000000000001
-1.6693025321879242  2.8913168009116239  -0.0000000000000001
0.0000000000000030  0.0000000000000029  36.7343823817429040
Hf  C  Se
4  3  2
Selective  dynamics
Direct
-0.0000000000000000  -0.0000000000000000  0.0521091376328110  T  T  T
0.6666666666666643  0.3333333333333357  0.1239793812791175  T  T  T
0.3333333333333357  0.6666666666666643  0.1954592922719839  T  T  T
0.0000000000000000  -0.0000000000000000  0.2673295359182903  T  T  T
0.3333333333333357  0.6666666666666643  0.0868165444096088  T  T  T
0.0000000000000000  -0.0000000000000000  0.1597193367755544  T  T  T
0.6666666666666643  0.3333333333333357  0.2326221291414851  T  T  T
0.3333333333333357  0.6666666666666643  0.0000000000000000  T  T  T
0.6666666666666643  0.3333333333333357  0.3194386735511014  T  T  T

0.00000000E+00  0.00000000E+00  0.00000000E+00
0.00000000E+00  0.00000000E+00  0.00000000E+00
0.00000000E+00  0.00000000E+00  0.00000000E+00
0.00000000E+00  0.00000000E+00  0.00000000E+00
0.00000000E+00  0.00000000E+00  0.00000000E+00
0.00000000E+00  0.00000000E+00  0.00000000E+00
0.00000000E+00  0.00000000E+00  0.00000000E+00
0.00000000E+00  0.00000000E+00  0.00000000E+00
0.00000000E+00  0.00000000E+00  0.00000000E+00
