Nb4C3  (n=3)
1.00000000000000
3.2375109402731441  0.0000000000000002  0.0000000000000000
-1.6187554701365716  2.8037667202834222  0.0000000000000001
-0.0000000000000010  -0.0000000000000002  36.3124079386049416
Nb  C  Se
4  3  2
Selective  dynamics
Direct
-0.0000000000000000  0.0000000000000000  0.0510892096431538  T  T  T
0.6666666666666643  0.3333333333333357  0.1186969757454127  T  T  T
0.3333333333333357  0.6666666666666643  0.1928331204611333  T  T  T
0.0000000000000000  -0.0000000000000000  0.2604408865633922  T  T  T
0.3333333333333357  0.6666666666666643  0.0848279573188901  T  T  T
0.0000000000000000  0.0000000000000000  0.1557650481032766  T  T  T
0.6666666666666643  0.3333333333333357  0.2267021388876486  T  T  T
0.3333333333333357  0.6666666666666643  0.0000000000000000  T  T  T
0.6666666666666643  0.3333333333333357  0.3115300962065459  T  T  T

0.00000000E+00  0.00000000E+00  0.00000000E+00
0.00000000E+00  0.00000000E+00  0.00000000E+00
0.00000000E+00  0.00000000E+00  0.00000000E+00
0.00000000E+00  0.00000000E+00  0.00000000E+00
0.00000000E+00  0.00000000E+00  0.00000000E+00
0.00000000E+00  0.00000000E+00  0.00000000E+00
0.00000000E+00  0.00000000E+00  0.00000000E+00
0.00000000E+00  0.00000000E+00  0.00000000E+00
0.00000000E+00  0.00000000E+00  0.00000000E+00
