Nb4N3  (n=3)
1.00000000000000
3.2018013648452404  -0.0000000000000001  0.0000000000000000
-1.6009006824226206  2.7728413205229674  -0.0000000000000001
0.0000000000000001  0.0000000000000002  36.2444659974894137
Nb  N  Se
4  3  2
Selective  dynamics
Direct
-0.0000000000000000  -0.0000000000000000  0.0498350204074642  T  T  T
0.6666666666666643  0.3333333333333357  0.1219144587593722  T  T  T
0.3333333333333357  0.6666666666666643  0.1883250685182070  T  T  T
0.0000000000000000  0.0000000000000000  0.2604045068701151  T  T  T
0.3333333333333357  0.6666666666666643  0.0857578684408767  T  T  T
0.0000000000000000  0.0000000000000000  0.1551197636387935  T  T  T
0.6666666666666643  0.3333333333333357  0.2244816588367026  T  T  T
0.3333333333333357  0.6666666666666643  0.0000000000000000  T  T  T
0.6666666666666643  0.3333333333333357  0.3102395272775794  T  T  T

0.00000000E+00  0.00000000E+00  0.00000000E+00
0.00000000E+00  0.00000000E+00  0.00000000E+00
0.00000000E+00  0.00000000E+00  0.00000000E+00
0.00000000E+00  0.00000000E+00  0.00000000E+00
0.00000000E+00  0.00000000E+00  0.00000000E+00
0.00000000E+00  0.00000000E+00  0.00000000E+00
0.00000000E+00  0.00000000E+00  0.00000000E+00
0.00000000E+00  0.00000000E+00  0.00000000E+00
0.00000000E+00  0.00000000E+00  0.00000000E+00
