Cr3N2  (n=2)
1.00000000000000
2.6849567020487521  0.0000000000000000  0.0000000000000000
-1.3424783510243761  2.3252407120243581  0.0000000000000000
0.0000000000000000  0.0000000000000000  32.3826826314704590
Cr  N  O
3  2  2
Selective  dynamics
Direct
0.0000000000000000  0.0000000000000000  0.0334260661830424  T  T  T
0.0000000000000000  0.0000000000000000  0.1139912143087207  T  T  T
0.0000000000000000  0.0000000000000000  0.1945563624343988  T  T  T
0.3333333333333357  0.6666666666666643  0.0751965462169472  T  T  T
0.3333333333333357  0.6666666666666643  0.1527858824004942  T  T  T
0.6666666666666643  0.3333333333333357  0.0000000000000000  T  T  T
0.6666666666666643  0.3333333333333357  0.2279824286174410  T  T  T

0.00000000E+00  0.00000000E+00  0.00000000E+00
0.00000000E+00  0.00000000E+00  0.00000000E+00
0.00000000E+00  0.00000000E+00  0.00000000E+00
0.00000000E+00  0.00000000E+00  0.00000000E+00
0.00000000E+00  0.00000000E+00  0.00000000E+00
0.00000000E+00  0.00000000E+00  0.00000000E+00
0.00000000E+00  0.00000000E+00  0.00000000E+00
