Mo3C2  (n=2)
1.00000000000000
2.9059160064950071  0.0000000000000000  0.0000000000000000
-1.4529580032475036  2.5165970829672335  0.0000000000000000
0.0000000000000000  0.0000000000000000  33.0923396484327128
Mo  C  O
3  2  2
Selective  dynamics
Direct
0.0000000000000000  0.0000000000000000  0.0361579930108622  T  T  T
0.0000000000000000  0.0000000000000000  0.1222690769888751  T  T  T
0.0000000000000000  0.0000000000000000  0.2083801609669037  T  T  T
0.3333333333333357  0.6666666666666643  0.0800563973019495  T  T  T
0.3333333333333357  0.6666666666666643  0.1644817566758009  T  T  T
0.6666666666666643  0.3333333333333357  0.0000000000000000  T  T  T
0.6666666666666643  0.3333333333333357  0.2445381539777581  T  T  T

0.00000000E+00  0.00000000E+00  0.00000000E+00
0.00000000E+00  0.00000000E+00  0.00000000E+00
0.00000000E+00  0.00000000E+00  0.00000000E+00
0.00000000E+00  0.00000000E+00  0.00000000E+00
0.00000000E+00  0.00000000E+00  0.00000000E+00
0.00000000E+00  0.00000000E+00  0.00000000E+00
0.00000000E+00  0.00000000E+00  0.00000000E+00
