Zr3C2  (n=2)
1.00000000000000
3.2983098299993445  0.0000000000000000  0.0000000000000000
-1.6491549149996723  2.8564201026506559  0.0000000000000000
0.0000000000000000  0.0000000000000000  32.8007654078343691
Zr  C  O
3  2  2
Selective  dynamics
Direct
0.0000000000000000  0.0000000000000000  0.0278322229583514  T  T  T
0.0000000000000000  0.0000000000000000  0.1189113319589058  T  T  T
0.0000000000000000  0.0000000000000000  0.2099904409594601  T  T  T
0.3333333333333357  0.6666666666666643  0.0733803490107130  T  T  T
0.3333333333333357  0.6666666666666643  0.1644423149070985  T  T  T
0.6666666666666643  0.3333333333333357  0.0000000000000000  T  T  T
0.6666666666666643  0.3333333333333357  0.2378226639178115  T  T  T

0.00000000E+00  0.00000000E+00  0.00000000E+00
0.00000000E+00  0.00000000E+00  0.00000000E+00
0.00000000E+00  0.00000000E+00  0.00000000E+00
0.00000000E+00  0.00000000E+00  0.00000000E+00
0.00000000E+00  0.00000000E+00  0.00000000E+00
0.00000000E+00  0.00000000E+00  0.00000000E+00
0.00000000E+00  0.00000000E+00  0.00000000E+00
