Cr3C2  (n=2)
1.00000000000000
2.6990520545423236  0.0000000000000000  0.0000000000000000
-1.3495260272711618  2.3374476453451405  0.0000000000000000
0.0000000000000000  0.0000000000000000  32.4599000731976801
Cr  C  O
3  2  2
Selective  dynamics
Direct
0.0000000000000000  0.0000000000000000  0.0335637674256123  T  T  T
0.0000000000000000  0.0000000000000000  0.1149094737872723  T  T  T
0.0000000000000000  0.0000000000000000  0.1962551801489478  T  T  T
0.3333333333333357  0.6666666666666643  0.0753576554919291  T  T  T
0.3333333333333357  0.6666666666666643  0.1544612920826155  T  T  T
0.6666666666666643  0.3333333333333357  0.0000000000000000  T  T  T
0.6666666666666643  0.3333333333333357  0.2298189475745601  T  T  T

0.00000000E+00  0.00000000E+00  0.00000000E+00
0.00000000E+00  0.00000000E+00  0.00000000E+00
0.00000000E+00  0.00000000E+00  0.00000000E+00
0.00000000E+00  0.00000000E+00  0.00000000E+00
0.00000000E+00  0.00000000E+00  0.00000000E+00
0.00000000E+00  0.00000000E+00  0.00000000E+00
0.00000000E+00  0.00000000E+00  0.00000000E+00
