Ti3C2  (n=2)
1.00000000000000
3.0250604942490926  0.0000000000000000  0.0000000000000000
-1.5125302471245463  2.6197792360786307  0.0000000000000000
0.0000000000000000  0.0000000000000000  32.2605420895121782
Ti  C  O
3  2  2
Selective  dynamics
Direct
0.0000000000000000  0.0000000000000000  0.0271831780831042  T  T  T
0.0000000000000000  0.0000000000000000  0.1125297595645884  T  T  T
0.0000000000000000  0.0000000000000000  0.1978763410460727  T  T  T
0.3333333333333357  0.6666666666666643  0.0702612848710032  T  T  T
0.3333333333333357  0.6666666666666643  0.1547982342581737  T  T  T
0.6666666666666643  0.3333333333333357  0.0000000000000000  T  T  T
0.6666666666666643  0.3333333333333357  0.2250595191291768  T  T  T

0.00000000E+00  0.00000000E+00  0.00000000E+00
0.00000000E+00  0.00000000E+00  0.00000000E+00
0.00000000E+00  0.00000000E+00  0.00000000E+00
0.00000000E+00  0.00000000E+00  0.00000000E+00
0.00000000E+00  0.00000000E+00  0.00000000E+00
0.00000000E+00  0.00000000E+00  0.00000000E+00
0.00000000E+00  0.00000000E+00  0.00000000E+00
