Nb3C2  (n=2)
1.00000000000000
3.1001990857779433  0.0000000000000000  0.0000000000000000
-1.5500995428889717  2.6848511652891194  0.0000000000000000
0.0000000000000000  0.0000000000000000  32.8181531104412159
Nb  C  O
3  2  2
Selective  dynamics
Direct
0.0000000000000000  0.0000000000000000  0.0327599048710180  T  T  T
0.0000000000000000  0.0000000000000000  0.1191132402260906  T  T  T
0.0000000000000000  0.0000000000000000  0.2054665755811631  T  T  T
0.3333333333333357  0.6666666666666643  0.0749888759352376  T  T  T
0.3333333333333357  0.6666666666666643  0.1632376045169512  T  T  T
0.6666666666666643  0.3333333333333357  0.0000000000000000  T  T  T
0.6666666666666643  0.3333333333333357  0.2382264804521812  T  T  T

0.00000000E+00  0.00000000E+00  0.00000000E+00
0.00000000E+00  0.00000000E+00  0.00000000E+00
0.00000000E+00  0.00000000E+00  0.00000000E+00
0.00000000E+00  0.00000000E+00  0.00000000E+00
0.00000000E+00  0.00000000E+00  0.00000000E+00
0.00000000E+00  0.00000000E+00  0.00000000E+00
0.00000000E+00  0.00000000E+00  0.00000000E+00
