Mo3N2  (n=2)
1.00000000000000
2.8515393686322201  0.0000000000000000  0.0000000000000000
-1.4257696843161101  2.4695055332024149  0.0000000000000000
0.0000000000000000  0.0000000000000000  33.2373548617543122
Mo  N  O
3  2  2
Selective  dynamics
Direct
0.0000000000000000  0.0000000000000000  0.0368923472764808  T  T  T
0.0000000000000000  0.0000000000000000  0.1239171242118482  T  T  T
0.0000000000000000  0.0000000000000000  0.2109419011472156  T  T  T
0.3333333333333357  0.6666666666666643  0.0831274486529151  T  T  T
0.3333333333333357  0.6666666666666643  0.1647067997707735  T  T  T
0.6666666666666643  0.3333333333333357  0.0000000000000000  T  T  T
0.6666666666666643  0.3333333333333357  0.2478342484236886  T  T  T

0.00000000E+00  0.00000000E+00  0.00000000E+00
0.00000000E+00  0.00000000E+00  0.00000000E+00
0.00000000E+00  0.00000000E+00  0.00000000E+00
0.00000000E+00  0.00000000E+00  0.00000000E+00
0.00000000E+00  0.00000000E+00  0.00000000E+00
0.00000000E+00  0.00000000E+00  0.00000000E+00
0.00000000E+00  0.00000000E+00  0.00000000E+00
