Hf3N2  (n=2)
1.00000000000000
3.1816114654690706  0.0000000000000000  0.0000000000000000
-1.5908057327345353  2.7553563542905324  0.0000000000000000
0.0000000000000000  0.0000000000000000  32.5861582191775909
Hf  N  O
3  2  2
Selective  dynamics
Direct
0.0000000000000000  0.0000000000000000  0.0291629843022885  T  T  T
0.0000000000000000  0.0000000000000000  0.1164015433815852  T  T  T
0.0000000000000000  0.0000000000000000  0.2036401024608818  T  T  T
0.3333333333333357  0.6666666666666643  0.0705203332934734  T  T  T
0.3333333333333357  0.6666666666666643  0.1622827534697044  T  T  T
0.6666666666666643  0.3333333333333357  0.0000000000000000  T  T  T
0.6666666666666643  0.3333333333333357  0.2328030867631702  T  T  T

0.00000000E+00  0.00000000E+00  0.00000000E+00
0.00000000E+00  0.00000000E+00  0.00000000E+00
0.00000000E+00  0.00000000E+00  0.00000000E+00
0.00000000E+00  0.00000000E+00  0.00000000E+00
0.00000000E+00  0.00000000E+00  0.00000000E+00
0.00000000E+00  0.00000000E+00  0.00000000E+00
0.00000000E+00  0.00000000E+00  0.00000000E+00
