Sc3C2O2  (n=2)
1.00000000000000
3.4566423259626089  0.0000000000000000  0.0000000000000000
-1.7283211629813044  2.9935400660878511  0.0000000000000000
0.0000000000000000  0.0000000000000000  31.6786651467053559
Sc  C  O
3  2  2
Selective  dynamics
Direct
0.0000000000000000  0.0000000000000000  0.0182689549596708  T  T  T
0.0000000000000000  0.0000000000000000  0.1054126667865649  T  T  T
0.0000000000000000  0.0000000000000000  0.1925563786134500  T  T  T
0.3333333333333357  0.6666666666666643  0.0806271251160548  T  T  T
0.3333333333333357  0.6666666666666643  0.1301982084570660  T  T  T
0.6666666666666643  0.3333333333333357  0.0000000000000000  T  T  T
0.6666666666666643  0.3333333333333357  0.2108253335731209  T  T  T

0.00000000E+00  0.00000000E+00  0.00000000E+00
0.00000000E+00  0.00000000E+00  0.00000000E+00
0.00000000E+00  0.00000000E+00  0.00000000E+00
0.00000000E+00  0.00000000E+00  0.00000000E+00
0.00000000E+00  0.00000000E+00  0.00000000E+00
0.00000000E+00  0.00000000E+00  0.00000000E+00
0.00000000E+00  0.00000000E+00  0.00000000E+00
