Nb3N2  (n=2)
1.00000000000000
2.9855298905730265  0.0000000000000000  0.0000000000000000
-1.4927649452865133  2.5855447291161582  0.0000000000000000
0.0000000000000000  0.0000000000000000  33.1636437784467901
Nb  N  O
3  2  2
Selective  dynamics
Direct
0.0000000000000000  0.0000000000000000  0.0352096557751870  T  T  T
0.0000000000000000  0.0000000000000000  0.1230812246233348  T  T  T
0.0000000000000000  0.0000000000000000  0.2109527934714902  T  T  T
0.3333333333333357  0.6666666666666643  0.0802590693257623  T  T  T
0.3333333333333357  0.6666666666666643  0.1659033799209074  T  T  T
0.6666666666666643  0.3333333333333357  0.0000000000000000  T  T  T
0.6666666666666643  0.3333333333333357  0.2461624492466772  T  T  T

0.00000000E+00  0.00000000E+00  0.00000000E+00
0.00000000E+00  0.00000000E+00  0.00000000E+00
0.00000000E+00  0.00000000E+00  0.00000000E+00
0.00000000E+00  0.00000000E+00  0.00000000E+00
0.00000000E+00  0.00000000E+00  0.00000000E+00
0.00000000E+00  0.00000000E+00  0.00000000E+00
0.00000000E+00  0.00000000E+00  0.00000000E+00
