Ta3N2  (n=2)
1.00000000000000
2.9615755271331619  0.0000000000000000  0.0000000000000000
-1.4807877635665809  2.5647996418553896  0.0000000000000000
0.0000000000000000  0.0000000000000000  33.1593661687141719
Ta  N  O
3  2  2
Selective  dynamics
Direct
0.0000000000000000  0.0000000000000000  0.0352583879627014  T  T  T
0.0000000000000000  0.0000000000000000  0.1230326015159484  T  T  T
0.0000000000000000  0.0000000000000000  0.2108068150692032  T  T  T
0.3333333333333357  0.6666666666666643  0.0799658341939727  T  T  T
0.3333333333333357  0.6666666666666643  0.1660993688379319  T  T  T
0.6666666666666643  0.3333333333333357  0.0000000000000000  T  T  T
0.6666666666666643  0.3333333333333357  0.2460652030319122  T  T  T

0.00000000E+00  0.00000000E+00  0.00000000E+00
0.00000000E+00  0.00000000E+00  0.00000000E+00
0.00000000E+00  0.00000000E+00  0.00000000E+00
0.00000000E+00  0.00000000E+00  0.00000000E+00
0.00000000E+00  0.00000000E+00  0.00000000E+00
0.00000000E+00  0.00000000E+00  0.00000000E+00
0.00000000E+00  0.00000000E+00  0.00000000E+00
