Zr3N2  (n=2)
1.00000000000000
3.2407482795882969  0.0000000000000000  0.0000000000000000
-1.6203741397941485  2.8065703376435245  0.0000000000000000
0.0000000000000000  0.0000000000000000  32.6615231692361760
Zr  N  O
3  2  2
Selective  dynamics
Direct
0.0000000000000000  0.0000000000000000  0.0293586314963271  T  T  T
0.0000000000000000  0.0000000000000000  0.1172866790311285  T  T  T
0.0000000000000000  0.0000000000000000  0.2052147265659374  T  T  T
0.3333333333333357  0.6666666666666643  0.0715194691963132  T  T  T
0.3333333333333357  0.6666666666666643  0.1630538888659512  T  T  T
0.6666666666666643  0.3333333333333357  0.0000000000000000  T  T  T
0.6666666666666643  0.3333333333333357  0.2345733580622643  T  T  T

0.00000000E+00  0.00000000E+00  0.00000000E+00
0.00000000E+00  0.00000000E+00  0.00000000E+00
0.00000000E+00  0.00000000E+00  0.00000000E+00
0.00000000E+00  0.00000000E+00  0.00000000E+00
0.00000000E+00  0.00000000E+00  0.00000000E+00
0.00000000E+00  0.00000000E+00  0.00000000E+00
0.00000000E+00  0.00000000E+00  0.00000000E+00
