Ta3C2  (n=2)
1.00000000000000
3.0741346164110781  0.0000000000000000  0.0000000000000000
-1.5370673082055391  2.6622786726534384  0.0000000000000000
0.0000000000000000  0.0000000000000000  32.8307172738597188
Ta  C  O
3  2  2
Selective  dynamics
Direct
0.0000000000000000  0.0000000000000000  0.0329864705093629  T  T  T
0.0000000000000000  0.0000000000000000  0.1192590038246651  T  T  T
0.0000000000000000  0.0000000000000000  0.2055315371399750  T  T  T
0.3333333333333357  0.6666666666666643  0.0748321170833437  T  T  T
0.3333333333333357  0.6666666666666643  0.1636858905659863  T  T  T
0.6666666666666643  0.3333333333333357  0.0000000000000000  T  T  T
0.6666666666666643  0.3333333333333357  0.2385180076493377  T  T  T

0.00000000E+00  0.00000000E+00  0.00000000E+00
0.00000000E+00  0.00000000E+00  0.00000000E+00
0.00000000E+00  0.00000000E+00  0.00000000E+00
0.00000000E+00  0.00000000E+00  0.00000000E+00
0.00000000E+00  0.00000000E+00  0.00000000E+00
0.00000000E+00  0.00000000E+00  0.00000000E+00
0.00000000E+00  0.00000000E+00  0.00000000E+00
