Ti3N2  (n=2)
1.00000000000000
2.9664606787390344  0.0000000000000000  0.0000000000000000
-1.4832303393695172  2.5690303071699510  0.0000000000000000
0.0000000000000000  0.0000000000000000  32.1400229449510277
Ti  N  O
3  2  2
Selective  dynamics
Direct
0.0000000000000000  0.0000000000000000  0.0286625790905632  T  T  T
0.0000000000000000  0.0000000000000000  0.1110768177916419  T  T  T
0.0000000000000000  0.0000000000000000  0.1934910564927207  T  T  T
0.3333333333333357  0.6666666666666643  0.0691574771649084  T  T  T
0.3333333333333357  0.6666666666666643  0.1529961584183676  T  T  T
0.6666666666666643  0.3333333333333357  0.0000000000000000  T  T  T
0.6666666666666643  0.3333333333333357  0.2221536355832838  T  T  T

0.00000000E+00  0.00000000E+00  0.00000000E+00
0.00000000E+00  0.00000000E+00  0.00000000E+00
0.00000000E+00  0.00000000E+00  0.00000000E+00
0.00000000E+00  0.00000000E+00  0.00000000E+00
0.00000000E+00  0.00000000E+00  0.00000000E+00
0.00000000E+00  0.00000000E+00  0.00000000E+00
0.00000000E+00  0.00000000E+00  0.00000000E+00
