Sc3N2  (n=2)
1.00000000000000
3.2053953504089043  0.0000000000000000  0.0000000000000000
-1.6026976752044522  2.7759538027671256  0.0000000000000000
0.0000000000000000  0.0000000000000000  32.2801880164523354
Sc  N  O
3  2  2
Selective  dynamics
Direct
0.0000000000000000  0.0000000000000000  0.0233886166491571  T  T  T
0.0000000000000000  0.0000000000000000  0.1127655764077577  T  T  T
0.0000000000000000  0.0000000000000000  0.2021425361663582  T  T  T
0.3333333333333357  0.6666666666666643  0.0729676411639935  T  T  T
0.3333333333333357  0.6666666666666643  0.1525635116515219  T  T  T
0.6666666666666643  0.3333333333333357  0.0000000000000000  T  T  T
0.6666666666666643  0.3333333333333357  0.2255311528155232  T  T  T

0.00000000E+00  0.00000000E+00  0.00000000E+00
0.00000000E+00  0.00000000E+00  0.00000000E+00
0.00000000E+00  0.00000000E+00  0.00000000E+00
0.00000000E+00  0.00000000E+00  0.00000000E+00
0.00000000E+00  0.00000000E+00  0.00000000E+00
0.00000000E+00  0.00000000E+00  0.00000000E+00
0.00000000E+00  0.00000000E+00  0.00000000E+00
