Hf3C2  (n=2)
1.00000000000000
3.2462440939666650  0.0000000000000000  0.0000000000000000
-1.6231220469833325  2.8113298525243842  0.0000000000000000
0.0000000000000000  0.0000000000000000  32.6866964377442031
Hf  C  O
3  2  2
Selective  dynamics
Direct
0.0000000000000000  0.0000000000000000  0.0277371585036185  T  T  T
0.0000000000000000  0.0000000000000000  0.1175814211201254  T  T  T
0.0000000000000000  0.0000000000000000  0.2074256837366402  T  T  T
0.3333333333333357  0.6666666666666643  0.0724813231433089  T  T  T
0.3333333333333357  0.6666666666666643  0.1626815190969337  T  T  T
0.6666666666666643  0.3333333333333357  0.0000000000000000  T  T  T
0.6666666666666643  0.3333333333333357  0.2351628422402506  T  T  T

0.00000000E+00  0.00000000E+00  0.00000000E+00
0.00000000E+00  0.00000000E+00  0.00000000E+00
0.00000000E+00  0.00000000E+00  0.00000000E+00
0.00000000E+00  0.00000000E+00  0.00000000E+00
0.00000000E+00  0.00000000E+00  0.00000000E+00
0.00000000E+00  0.00000000E+00  0.00000000E+00
0.00000000E+00  0.00000000E+00  0.00000000E+00
