Ta3N2Br2  (n=2)
1.00000000000000
3.0608121280036098  0.0000000000000000  0.0000000000000000
-1.5304060640018049  2.6507410595996572  0.0000000000000000
0.0000000000000000  0.0000000000000000  34.7749733076151628
Ta  N  Br
3  2  2
Selective  dynamics
Direct
-0.0000000000000000  -0.0000000000000000  0.0576209628667876  T  T  T
-0.0000000000000000  -0.0000000000000000  0.1405460936108735  T  T  T
-0.0000000000000000  -0.0000000000000000  0.2234712243549522  T  T  T
0.3333333333333357  0.6666666666666643  0.1006315046947610  T  T  T
0.3333333333333357  0.6666666666666643  0.1804606825269860  T  T  T
0.6666666666666643  0.3333333333333357  0.0000000000000000  T  T  T
0.6666666666666643  0.3333333333333357  0.2810921872217398  T  T  T

0.00000000E+00  0.00000000E+00  0.00000000E+00
0.00000000E+00  0.00000000E+00  0.00000000E+00
0.00000000E+00  0.00000000E+00  0.00000000E+00
0.00000000E+00  0.00000000E+00  0.00000000E+00
0.00000000E+00  0.00000000E+00  0.00000000E+00
0.00000000E+00  0.00000000E+00  0.00000000E+00
0.00000000E+00  0.00000000E+00  0.00000000E+00
