Nb3C2Br2  (n=2)
1.00000000000000
3.1818556473348143  -0.0000000000000000  0.0000000000000000
-1.5909278236674074  2.7555678223194038  0.0000000000000000
-0.0000000000000000  0.0000000000000000  34.5989345247855695
Nb  C  Br
3  2  2
Selective  dynamics
Direct
-0.0000000000000000  -0.0000000000000000  0.0573821152104980  T  T  T
-0.0000000000000000  -0.0000000000000000  0.1387171983274432  T  T  T
0.0000000000000000  -0.0000000000000000  0.2200522814443817  T  T  T
0.3333333333333357  0.6666666666666643  0.0966170879528858  T  T  T
0.3333333333333357  0.6666666666666643  0.1808173087020006  T  T  T
0.6666666666666643  0.3333333333333357  0.0000000000000000  T  T  T
0.6666666666666643  0.3333333333333357  0.2774343966548797  T  T  T

0.00000000E+00  0.00000000E+00  0.00000000E+00
0.00000000E+00  0.00000000E+00  0.00000000E+00
0.00000000E+00  0.00000000E+00  0.00000000E+00
0.00000000E+00  0.00000000E+00  0.00000000E+00
0.00000000E+00  0.00000000E+00  0.00000000E+00
0.00000000E+00  0.00000000E+00  0.00000000E+00
0.00000000E+00  0.00000000E+00  0.00000000E+00
