Sc3C2Br2  (n=2)
1.00000000000000
3.3783684264954057  -0.0000000000000005  -0.0000000000000000
-1.6891842132477033  2.9257528816641720  0.0000000000000000
-0.0000000000000000  0.0000000000000000  34.5001478852227024
Sc  C  Br
3  2  2
Selective  dynamics
Direct
-0.0000000000000000  0.0000000000000000  0.0549722759436900  T  T  T
-0.0000000000000000  0.0000000000000000  0.1376827125035610  T  T  T
0.0000000000000000  -0.0000000000000000  0.2203931490634262  T  T  T
0.3333333333333357  0.6666666666666643  0.0921950925067325  T  T  T
0.3333333333333357  0.6666666666666643  0.1831703325003895  T  T  T
0.6666666666666643  0.3333333333333357  0.0000000000000000  T  T  T
0.6666666666666643  0.3333333333333357  0.2753654250071161  T  T  T

0.00000000E+00  0.00000000E+00  0.00000000E+00
0.00000000E+00  0.00000000E+00  0.00000000E+00
0.00000000E+00  0.00000000E+00  0.00000000E+00
0.00000000E+00  0.00000000E+00  0.00000000E+00
0.00000000E+00  0.00000000E+00  0.00000000E+00
0.00000000E+00  0.00000000E+00  0.00000000E+00
0.00000000E+00  0.00000000E+00  0.00000000E+00
