Zr3C2Br2  (n=2)
1.00000000000000
3.4161523408769963  0.0000000000000000  0.0000000000000000
-1.7080761704384981  2.9584747104503162  0.0000000000000000
0.0000000000000000  0.0000000000000000  34.6056414556685326
Zr  C  Br
3  2  2
Selective  dynamics
Direct
-0.0000000000000000  -0.0000000000000000  0.0577393817603439  T  T  T
-0.0000000000000000  -0.0000000000000000  0.1387872186674262  T  T  T
-0.0000000000000000  -0.0000000000000000  0.2198350555744999  T  T  T
0.3333333333333357  0.6666666666666643  0.0930628188523651  T  T  T
0.3333333333333357  0.6666666666666643  0.1845116184824873  T  T  T
0.6666666666666643  0.3333333333333357  0.0000000000000000  T  T  T
0.6666666666666643  0.3333333333333357  0.2775744373348437  T  T  T

0.00000000E+00  0.00000000E+00  0.00000000E+00
0.00000000E+00  0.00000000E+00  0.00000000E+00
0.00000000E+00  0.00000000E+00  0.00000000E+00
0.00000000E+00  0.00000000E+00  0.00000000E+00
0.00000000E+00  0.00000000E+00  0.00000000E+00
0.00000000E+00  0.00000000E+00  0.00000000E+00
0.00000000E+00  0.00000000E+00  0.00000000E+00
