Ti3N2Br2  (n=2)
1.00000000000000
3.1182929932250287  -0.0000000000000001  0.0000000000000000
-1.5591464966125141  2.7005209489652673  0.0000000000000000
0.0000000000000000  0.0000000000000000  33.9235068285760164
Ti  N  Br
3  2  2
Selective  dynamics
Direct
-0.0000000000000000  -0.0000000000000000  0.0547355135522606  T  T  T
-0.0000000000000000  -0.0000000000000000  0.1315239440555037  T  T  T
-0.0000000000000000  -0.0000000000000000  0.2083123745587396  T  T  T
0.3333333333333357  0.6666666666666643  0.0906843532970125  T  T  T
0.3333333333333357  0.6666666666666643  0.1723635348139948  T  T  T
0.6666666666666643  0.3333333333333357  0.0000000000000000  T  T  T
0.6666666666666643  0.3333333333333357  0.2630478881110002  T  T  T

0.00000000E+00  0.00000000E+00  0.00000000E+00
0.00000000E+00  0.00000000E+00  0.00000000E+00
0.00000000E+00  0.00000000E+00  0.00000000E+00
0.00000000E+00  0.00000000E+00  0.00000000E+00
0.00000000E+00  0.00000000E+00  0.00000000E+00
0.00000000E+00  0.00000000E+00  0.00000000E+00
0.00000000E+00  0.00000000E+00  0.00000000E+00
