Ta3C2Br2  (n=2)
1.00000000000000
3.1586477305427958  0.0000000000000001  0.0000000000000000
-1.5793238652713981  2.7354691765387735  -0.0000000000000000
-0.0000000000000000  0.0000000000000000  34.5996656291918967
Ta  C  Br
3  2  2
Selective  dynamics
Direct
-0.0000000000000000  0.0000000000000000  0.0574581468472847  T  T  T
-0.0000000000000000  -0.0000000000000000  0.1387248323737101  T  T  T
-0.0000000000000000  -0.0000000000000000  0.2199915179001286  T  T  T
0.3333333333333357  0.6666666666666643  0.0964040690398081  T  T  T
0.3333333333333357  0.6666666666666643  0.1810455957076122  T  T  T
0.6666666666666643  0.3333333333333357  0.0000000000000000  T  T  T
0.6666666666666643  0.3333333333333357  0.2774496647474134  T  T  T

0.00000000E+00  0.00000000E+00  0.00000000E+00
0.00000000E+00  0.00000000E+00  0.00000000E+00
0.00000000E+00  0.00000000E+00  0.00000000E+00
0.00000000E+00  0.00000000E+00  0.00000000E+00
0.00000000E+00  0.00000000E+00  0.00000000E+00
0.00000000E+00  0.00000000E+00  0.00000000E+00
0.00000000E+00  0.00000000E+00  0.00000000E+00
