Cr3C2Br2  (n=2)
1.00000000000000
3.1139121871206767  0.0000000000000003  0.0000000000000000
-1.5569560935603384  2.6967270593624830  0.0000000000000000
0.0000000000000000  0.0000000000000000  33.4017117753535544
Cr  C  Br
3  2  2
Selective  dynamics
Direct
0.0000000000000000  -0.0000000000000000  0.0548842294283369  T  T  T
0.0000000000000000  0.0000000000000000  0.1257676826843536  T  T  T
0.0000000000000000  0.0000000000000000  0.1966511359403630  T  T  T
0.3333333333333357  0.6666666666666643  0.0877306813828298  T  T  T
0.3333333333333357  0.6666666666666643  0.1638046839858775  T  T  T
0.6666666666666643  0.3333333333333357  0.0000000000000000  T  T  T
0.6666666666666643  0.3333333333333357  0.2515353653686996  T  T  T

0.00000000E+00  0.00000000E+00  0.00000000E+00
0.00000000E+00  0.00000000E+00  0.00000000E+00
0.00000000E+00  0.00000000E+00  0.00000000E+00
0.00000000E+00  0.00000000E+00  0.00000000E+00
0.00000000E+00  0.00000000E+00  0.00000000E+00
0.00000000E+00  0.00000000E+00  0.00000000E+00
0.00000000E+00  0.00000000E+00  0.00000000E+00
