Hf3N2Br2  (n=2)
1.00000000000000
3.2096305682690658  -0.0000000000000003  0.0000000000000000
-1.6048152841345333  2.7796216094751429  0.0000000000000000
0.0000000000000000  0.0000000000000000  34.7333632655907323
Hf  N  Br
3  2  2
Selective  dynamics
Direct
-0.0000000000000000  -0.0000000000000000  0.0569643279867915  T  T  T
-0.0000000000000000  0.0000000000000000  0.1401154732866526  T  T  T
-0.0000000000000000  0.0000000000000000  0.2232666185865071  T  T  T
0.3333333333333357  0.6666666666666643  0.0979053085586221  T  T  T
0.3333333333333357  0.6666666666666643  0.1823256380146831  T  T  T
0.6666666666666643  0.3333333333333357  0.0000000000000000  T  T  T
0.6666666666666643  0.3333333333333357  0.2802309465732987  T  T  T

0.00000000E+00  0.00000000E+00  0.00000000E+00
0.00000000E+00  0.00000000E+00  0.00000000E+00
0.00000000E+00  0.00000000E+00  0.00000000E+00
0.00000000E+00  0.00000000E+00  0.00000000E+00
0.00000000E+00  0.00000000E+00  0.00000000E+00
0.00000000E+00  0.00000000E+00  0.00000000E+00
0.00000000E+00  0.00000000E+00  0.00000000E+00
