Mo3C2Br2  (n=2)
1.00000000000000
3.0616324557547698  -0.0000000000000001  0.0000000000000000
-1.5308162278773851  2.6514514842006056  0.0000000000000000
0.0000000000000000  0.0000000000000000  34.4493662470256368
Mo  C  Br
3  2  2
Selective  dynamics
Direct
-0.0000000000000000  0.0000000000000000  0.0576877356023805  T  T  T
-0.0000000000000000  0.0000000000000000  0.1371486224052344  T  T  T
-0.0000000000000000  0.0000000000000000  0.2166095092080810  T  T  T
0.3333333333333357  0.6666666666666643  0.0967343365209667  T  T  T
0.3333333333333357  0.6666666666666643  0.1775629082895021  T  T  T
0.6666666666666643  0.3333333333333357  0.0000000000000000  T  T  T
0.6666666666666643  0.3333333333333357  0.2742972448104615  T  T  T

0.00000000E+00  0.00000000E+00  0.00000000E+00
0.00000000E+00  0.00000000E+00  0.00000000E+00
0.00000000E+00  0.00000000E+00  0.00000000E+00
0.00000000E+00  0.00000000E+00  0.00000000E+00
0.00000000E+00  0.00000000E+00  0.00000000E+00
0.00000000E+00  0.00000000E+00  0.00000000E+00
0.00000000E+00  0.00000000E+00  0.00000000E+00
