Sc3N2Br2  (n=2)
1.00000000000000
3.3147530404250678  -0.0000000000000003  0.0000000000000000
-1.6573765202125339  2.8706603409969724  0.0000000000000000
0.0000000000000000  0.0000000000000000  34.1839879330347785
Sc  N  Br
3  2  2
Selective  dynamics
Direct
0.0000000000000000  -0.0000000000000000  0.0556913509163330  T  T  T
0.0000000000000000  -0.0000000000000000  0.1343317220773963  T  T  T
0.0000000000000000  -0.0000000000000000  0.2129720932384534  T  T  T
0.3333333333333357  0.6666666666666643  0.0903631590030795  T  T  T
0.3333333333333357  0.6666666666666643  0.1783002851517130  T  T  T
0.6666666666666643  0.3333333333333357  0.0000000000000000  T  T  T
0.6666666666666643  0.3333333333333357  0.2686634441547863  T  T  T

0.00000000E+00  0.00000000E+00  0.00000000E+00
0.00000000E+00  0.00000000E+00  0.00000000E+00
0.00000000E+00  0.00000000E+00  0.00000000E+00
0.00000000E+00  0.00000000E+00  0.00000000E+00
0.00000000E+00  0.00000000E+00  0.00000000E+00
0.00000000E+00  0.00000000E+00  0.00000000E+00
0.00000000E+00  0.00000000E+00  0.00000000E+00
