Mo3N2Br2  (n=2)
1.00000000000000
3.0142687689919372  -0.0000000000000001  0.0000000000000000
-1.5071343844959686  2.6104333281329728  0.0000000000000000
0.0000000000000000  0.0000000000000000  34.5127549792506727
Mo  N  Br
3  2  2
Selective  dynamics
Direct
-0.0000000000000000  0.0000000000000000  0.0580731483819484  T  T  T
0.0000000000000000  0.0000000000000000  0.1378150626481436  T  T  T
0.0000000000000000  0.0000000000000000  0.2175569769143314  T  T  T
0.3333333333333357  0.6666666666666643  0.0980484566777020  T  T  T
0.3333333333333357  0.6666666666666643  0.1775816686185854  T  T  T
0.6666666666666643  0.3333333333333357  0.0000000000000000  T  T  T
0.6666666666666643  0.3333333333333357  0.2756301252962799  T  T  T

0.00000000E+00  0.00000000E+00  0.00000000E+00
0.00000000E+00  0.00000000E+00  0.00000000E+00
0.00000000E+00  0.00000000E+00  0.00000000E+00
0.00000000E+00  0.00000000E+00  0.00000000E+00
0.00000000E+00  0.00000000E+00  0.00000000E+00
0.00000000E+00  0.00000000E+00  0.00000000E+00
0.00000000E+00  0.00000000E+00  0.00000000E+00
