Zr3N2Br2  (n=2)
1.00000000000000
3.2604558868778604  0.0000000000000000  0.0000000000000000
-1.6302279434389302  2.8236376271815025  0.0000000000000000
0.0000000000000000  0.0000000000000000  34.8279780678529249
Zr  N  Br
3  2  2
Selective  dynamics
Direct
0.0000000000000000  0.0000000000000000  0.0573399424942822  T  T  T
0.0000000000000000  0.0000000000000000  0.1410931471345536  T  T  T
0.0000000000000000  0.0000000000000000  0.2248463517748185  T  T  T
0.3333333333333357  0.6666666666666643  0.0985540531433237  T  T  T
0.3333333333333357  0.6666666666666643  0.1836322411257835  T  T  T
0.6666666666666643  0.3333333333333357  0.0000000000000000  T  T  T
0.6666666666666643  0.3333333333333357  0.2821862942691006  T  T  T

0.00000000E+00  0.00000000E+00  0.00000000E+00
0.00000000E+00  0.00000000E+00  0.00000000E+00
0.00000000E+00  0.00000000E+00  0.00000000E+00
0.00000000E+00  0.00000000E+00  0.00000000E+00
0.00000000E+00  0.00000000E+00  0.00000000E+00
0.00000000E+00  0.00000000E+00  0.00000000E+00
0.00000000E+00  0.00000000E+00  0.00000000E+00
