Ti3C2Br2  (n=2)
1.00000000000000
3.2399148187771334  0.0000000000000004  -0.0000000000000000
-1.6199574093885667  2.8058485396991522  0.0000000000000000
-0.0000000000000000  0.0000000000000000  33.7257385534972371
Ti  C  Br
3  2  2
Selective  dynamics
Direct
0.0000000000000000  0.0000000000000000  0.0549631509788420  T  T  T
0.0000000000000000  0.0000000000000000  0.1293631945176874  T  T  T
0.0000000000000000  0.0000000000000000  0.2037632380565260  T  T  T
0.3333333333333357  0.6666666666666643  0.0877533122206544  T  T  T
0.3333333333333357  0.6666666666666643  0.1709730768147202  T  T  T
0.6666666666666643  0.3333333333333357  0.0000000000000000  T  T  T
0.6666666666666643  0.3333333333333357  0.2587263890353680  T  T  T

0.00000000E+00  0.00000000E+00  0.00000000E+00
0.00000000E+00  0.00000000E+00  0.00000000E+00
0.00000000E+00  0.00000000E+00  0.00000000E+00
0.00000000E+00  0.00000000E+00  0.00000000E+00
0.00000000E+00  0.00000000E+00  0.00000000E+00
0.00000000E+00  0.00000000E+00  0.00000000E+00
0.00000000E+00  0.00000000E+00  0.00000000E+00
