Nb3N2Br2  (n=2)
1.00000000000000
3.0945137058387515  0.0000000000000005  0.0000000000000000
-1.5472568529193753  2.6799274822069798  0.0000000000000000
0.0000000000000000  0.0000000000000000  34.7107166014990156
Nb  N  Br
3  2  2
Selective  dynamics
Direct
0.0000000000000000  -0.0000000000000000  0.0571902498102487  T  T  T
0.0000000000000000  -0.0000000000000000  0.1398806701829933  T  T  T
0.0000000000000000  -0.0000000000000000  0.2225710905557309  T  T  T
0.3333333333333357  0.6666666666666643  0.0999876927666722  T  T  T
0.3333333333333357  0.6666666666666643  0.1797736475993144  T  T  T
0.6666666666666643  0.3333333333333357  0.0000000000000000  T  T  T
0.6666666666666643  0.3333333333333357  0.2797613403659794  T  T  T

0.00000000E+00  0.00000000E+00  0.00000000E+00
0.00000000E+00  0.00000000E+00  0.00000000E+00
0.00000000E+00  0.00000000E+00  0.00000000E+00
0.00000000E+00  0.00000000E+00  0.00000000E+00
0.00000000E+00  0.00000000E+00  0.00000000E+00
0.00000000E+00  0.00000000E+00  0.00000000E+00
0.00000000E+00  0.00000000E+00  0.00000000E+00
