Hf3C2Br2  (n=2)
1.00000000000000
3.3689003462838465  0.0000000000000004  -0.0000000000000000
-1.6844501731419224  2.9175532839355287  0.0000000000000000
-0.0000000000000000  0.0000000000000000  34.4788597227704798
Hf  C  Br
3  2  2
Selective  dynamics
Direct
0.0000000000000000  -0.0000000000000000  0.0574806714736522  T  T  T
-0.0000000000000000  -0.0000000000000000  0.1374590082007653  T  T  T
-0.0000000000000000  -0.0000000000000000  0.2174373449278723  T  T  T
0.3333333333333357  0.6666666666666643  0.0920801635318514  T  T  T
0.3333333333333357  0.6666666666666643  0.1828378528696792  T  T  T
0.6666666666666643  0.3333333333333357  0.0000000000000000  T  T  T
0.6666666666666643  0.3333333333333357  0.2749180164015245  T  T  T

0.00000000E+00  0.00000000E+00  0.00000000E+00
0.00000000E+00  0.00000000E+00  0.00000000E+00
0.00000000E+00  0.00000000E+00  0.00000000E+00
0.00000000E+00  0.00000000E+00  0.00000000E+00
0.00000000E+00  0.00000000E+00  0.00000000E+00
0.00000000E+00  0.00000000E+00  0.00000000E+00
0.00000000E+00  0.00000000E+00  0.00000000E+00
