Sc4N3  (n=3)
1.00000000000000
3.1644467019626719  0.0000000000000000  0.0000000000000000
-1.5822233509813359  2.7404912331108919  0.0000000000000000
0.0000000000000000  0.0000000000000000  35.3663397782763695
Sc  N  O
4  3  2
Selective  dynamics
Direct
0.0000000000000000  0.0000000000000000  0.0239399077467593  T  T  T
0.0000000000000000  0.0000000000000000  0.1061730200804234  T  T  T
0.0000000000000000  0.0000000000000000  0.1869401446764183  T  T  T
0.0000000000000000  0.0000000000000000  0.2691732570100825  T  T  T
0.3333333333333357  0.6666666666666643  0.0718425087037909  T  T  T
0.3333333333333357  0.6666666666666643  0.1465565823784170  T  T  T
0.3333333333333357  0.6666666666666643  0.2212706560530509  T  T  T
0.3333333333333357  0.6666666666666643  0.0000000000000000  T  T  T
0.3333333333333357  0.6666666666666643  0.2931131647568417  T  T  T

0.00000000E+00  0.00000000E+00  0.00000000E+00
0.00000000E+00  0.00000000E+00  0.00000000E+00
0.00000000E+00  0.00000000E+00  0.00000000E+00
0.00000000E+00  0.00000000E+00  0.00000000E+00
0.00000000E+00  0.00000000E+00  0.00000000E+00
0.00000000E+00  0.00000000E+00  0.00000000E+00
0.00000000E+00  0.00000000E+00  0.00000000E+00
0.00000000E+00  0.00000000E+00  0.00000000E+00
0.00000000E+00  0.00000000E+00  0.00000000E+00
