Cr4N3  (n=3)
1.00000000000000
2.6543194464827025  0.0000000000000000  0.0000000000000000
-1.3271597232413512  2.2987080704138450  0.0000000000000000
0.0000000000000000  0.0000000000000000  35.0827118592718179
Cr  N  O
4  3  2
Selective  dynamics
Direct
0.0000000000000000  0.0000000000000000  0.0322727522649419  T  T  T
0.0000000000000000  0.0000000000000000  0.1064947011209007  T  T  T
0.0000000000000000  0.0000000000000000  0.1809036020580800  T  T  T
0.0000000000000000  0.0000000000000000  0.2551255509140387  T  T  T
0.3333333333333357  0.6666666666666643  0.0698264864149700  T  T  T
0.3333333333333357  0.6666666666666643  0.1436991515894903  T  T  T
0.3333333333333357  0.6666666666666643  0.2175718167640030  T  T  T
0.3333333333333357  0.6666666666666643  0.0000000000000000  T  T  T
0.3333333333333357  0.6666666666666643  0.2873983031789805  T  T  T

0.00000000E+00  0.00000000E+00  0.00000000E+00
0.00000000E+00  0.00000000E+00  0.00000000E+00
0.00000000E+00  0.00000000E+00  0.00000000E+00
0.00000000E+00  0.00000000E+00  0.00000000E+00
0.00000000E+00  0.00000000E+00  0.00000000E+00
0.00000000E+00  0.00000000E+00  0.00000000E+00
0.00000000E+00  0.00000000E+00  0.00000000E+00
0.00000000E+00  0.00000000E+00  0.00000000E+00
0.00000000E+00  0.00000000E+00  0.00000000E+00
