Ti4N3  (n=3)
1.00000000000000
2.8925378226452567  0.0000000000000000  0.0000000000000000
-1.4462689113226284  2.5050112358701488  0.0000000000000000
0.0000000000000000  0.0000000000000000  35.3132995306234747
Ti  N  O
4  3  2
Selective  dynamics
Direct
0.0000000000000000  0.0000000000000000  0.0291405912832210  T  T  T
0.0000000000000000  0.0000000000000000  0.1078485617078504  T  T  T
0.0000000000000000  0.0000000000000000  0.1842028655930771  T  T  T
0.0000000000000000  0.0000000000000000  0.2629108360177065  T  T  T
0.3333333333333357  0.6666666666666643  0.0696850141570962  T  T  T
0.3333333333333357  0.6666666666666643  0.1460257136504636  T  T  T
0.3333333333333357  0.6666666666666643  0.2223664131438155  T  T  T
0.3333333333333357  0.6666666666666643  0.0000000000000000  T  T  T
0.3333333333333357  0.6666666666666643  0.2920514273009194  T  T  T

0.00000000E+00  0.00000000E+00  0.00000000E+00
0.00000000E+00  0.00000000E+00  0.00000000E+00
0.00000000E+00  0.00000000E+00  0.00000000E+00
0.00000000E+00  0.00000000E+00  0.00000000E+00
0.00000000E+00  0.00000000E+00  0.00000000E+00
0.00000000E+00  0.00000000E+00  0.00000000E+00
0.00000000E+00  0.00000000E+00  0.00000000E+00
0.00000000E+00  0.00000000E+00  0.00000000E+00
0.00000000E+00  0.00000000E+00  0.00000000E+00
