Cr4C3  (n=3)
1.00000000000000
2.6690287003309163  0.0000000000000000  0.0000000000000000
-1.3345143501654582  2.3114466579106603  0.0000000000000000
0.0000000000000000  0.0000000000000000  35.2024803997720639
Cr  C  O
4  3  2
Selective  dynamics
Direct
0.0000000000000000  0.0000000000000000  0.0325035755323776  T  T  T
0.0000000000000000  0.0000000000000000  0.1074269075668495  T  T  T
0.0000000000000000  0.0000000000000000  0.1823958629853520  T  T  T
0.0000000000000000  0.0000000000000000  0.2573191950198395  T  T  T
0.3333333333333357  0.6666666666666643  0.0701951368150540  T  T  T
0.3333333333333357  0.6666666666666643  0.1449113852761086  T  T  T
0.3333333333333357  0.6666666666666643  0.2196276337371553  T  T  T
0.3333333333333357  0.6666666666666643  0.0000000000000000  T  T  T
0.3333333333333357  0.6666666666666643  0.2898227705522172  T  T  T

0.00000000E+00  0.00000000E+00  0.00000000E+00
0.00000000E+00  0.00000000E+00  0.00000000E+00
0.00000000E+00  0.00000000E+00  0.00000000E+00
0.00000000E+00  0.00000000E+00  0.00000000E+00
0.00000000E+00  0.00000000E+00  0.00000000E+00
0.00000000E+00  0.00000000E+00  0.00000000E+00
0.00000000E+00  0.00000000E+00  0.00000000E+00
0.00000000E+00  0.00000000E+00  0.00000000E+00
0.00000000E+00  0.00000000E+00  0.00000000E+00
