Hf4N3  (n=3)
1.00000000000000
3.0980904302138126  -0.0000000000000001  0.0000000000000000
-1.5490452151069063  2.6830250160888038  0.0000000000000000
0.0000000000000000  0.0000000000000000  35.9485319413592990
Hf  N  O
4  3  2
Selective  dynamics
Direct
0.0000000000000000  0.0000000000000000  0.0299117353231652  T  T  T
0.0000000000000000  0.0000000000000000  0.1122135950127503  T  T  T
0.0000000000000000  0.0000000000000000  0.1923477138946419  T  T  T
0.0000000000000000  0.0000000000000000  0.2746495735842269  T  T  T
0.3333333333333357  0.6666666666666643  0.0715650622326851  T  T  T
0.3333333333333357  0.6666666666666643  0.1522806544536923  T  T  T
0.3333333333333357  0.6666666666666643  0.2329962466746993  T  T  T
0.3333333333333357  0.6666666666666643  0.0000000000000000  T  T  T
0.3333333333333357  0.6666666666666643  0.3045613089073843  T  T  T

0.00000000E+00  0.00000000E+00  0.00000000E+00
0.00000000E+00  0.00000000E+00  0.00000000E+00
0.00000000E+00  0.00000000E+00  0.00000000E+00
0.00000000E+00  0.00000000E+00  0.00000000E+00
0.00000000E+00  0.00000000E+00  0.00000000E+00
0.00000000E+00  0.00000000E+00  0.00000000E+00
0.00000000E+00  0.00000000E+00  0.00000000E+00
0.00000000E+00  0.00000000E+00  0.00000000E+00
0.00000000E+00  0.00000000E+00  0.00000000E+00
