Sc4C3  (n=3)
1.00000000000000
3.3741693196643165  0.0000000000000000  0.0000000000000000
-1.6870846598321583  2.9221163476133731  0.0000000000000000
0.0000000000000000  0.0000000000000000  34.5633681924711382
Sc  C  O
4  3  2
Selective  dynamics
Direct
0.0000000000000000  0.0000000000000000  0.0192885664597975  T  T  T
0.0000000000000000  0.0000000000000000  0.1001654693546881  T  T  T
0.0000000000000000  0.0000000000000000  0.1765253941981962  T  T  T
0.0000000000000000  0.0000000000000000  0.2574022970930869  T  T  T
0.3333333333333357  0.6666666666666643  0.0652315782160038  T  T  T
0.3333333333333357  0.6666666666666643  0.1383454317764382  T  T  T
0.3333333333333357  0.6666666666666643  0.2114592853368648  T  T  T
0.3333333333333357  0.6666666666666643  0.0000000000000000  T  T  T
0.3333333333333357  0.6666666666666643  0.2766908635528845  T  T  T

0.00000000E+00  0.00000000E+00  0.00000000E+00
0.00000000E+00  0.00000000E+00  0.00000000E+00
0.00000000E+00  0.00000000E+00  0.00000000E+00
0.00000000E+00  0.00000000E+00  0.00000000E+00
0.00000000E+00  0.00000000E+00  0.00000000E+00
0.00000000E+00  0.00000000E+00  0.00000000E+00
0.00000000E+00  0.00000000E+00  0.00000000E+00
0.00000000E+00  0.00000000E+00  0.00000000E+00
0.00000000E+00  0.00000000E+00  0.00000000E+00
