Mo4C3  (n=3)
1.00000000000000
2.8959937630500581  0.0000000000000000  0.0000000000000000
-1.4479968815250290  2.5080041681049670  0.0000000000000000
0.0000000000000000  0.0000000000000000  35.9222628302974343
Mo  C  O
4  3  2
Selective  dynamics
Direct
0.0000000000000000  0.0000000000000000  0.0337875544780745  T  T  T
0.0000000000000000  0.0000000000000000  0.1124838154445730  T  T  T
0.0000000000000000  0.0000000000000000  0.1915689354051149  T  T  T
0.0000000000000000  0.0000000000000000  0.2702651963716136  T  T  T
0.3333333333333357  0.6666666666666643  0.0729106273691618  T  T  T
0.3333333333333357  0.6666666666666643  0.1520263754248401  T  T  T
0.3333333333333357  0.6666666666666643  0.2311421234805184  T  T  T
0.3333333333333357  0.6666666666666643  0.0000000000000000  T  T  T
0.3333333333333357  0.6666666666666643  0.3040527508496881  T  T  T

0.00000000E+00  0.00000000E+00  0.00000000E+00
0.00000000E+00  0.00000000E+00  0.00000000E+00
0.00000000E+00  0.00000000E+00  0.00000000E+00
0.00000000E+00  0.00000000E+00  0.00000000E+00
0.00000000E+00  0.00000000E+00  0.00000000E+00
0.00000000E+00  0.00000000E+00  0.00000000E+00
0.00000000E+00  0.00000000E+00  0.00000000E+00
0.00000000E+00  0.00000000E+00  0.00000000E+00
0.00000000E+00  0.00000000E+00  0.00000000E+00
