Ti4C3  (n=3)
1.00000000000000
2.9923917251326451  0.0000000000000000  0.0000000000000000
-1.4961958625663225  2.5914872521215768  0.0000000000000000
0.0000000000000000  0.0000000000000000  35.2849484894707928
Ti  C  O
4  3  2
Selective  dynamics
Direct
0.0000000000000000  0.0000000000000000  0.0273702321631939  T  T  T
0.0000000000000000  0.0000000000000000  0.1067704929350964  T  T  T
0.0000000000000000  0.0000000000000000  0.1847121060132875  T  T  T
0.0000000000000000  0.0000000000000000  0.2641123667851900  T  T  T
0.3333333333333357  0.6666666666666643  0.0684611955893946  T  T  T
0.3333333333333357  0.6666666666666643  0.1457412994741920  T  T  T
0.3333333333333357  0.6666666666666643  0.2230214033589809  T  T  T
0.3333333333333357  0.6666666666666643  0.0000000000000000  T  T  T
0.3333333333333357  0.6666666666666643  0.2914825989483838  T  T  T

0.00000000E+00  0.00000000E+00  0.00000000E+00
0.00000000E+00  0.00000000E+00  0.00000000E+00
0.00000000E+00  0.00000000E+00  0.00000000E+00
0.00000000E+00  0.00000000E+00  0.00000000E+00
0.00000000E+00  0.00000000E+00  0.00000000E+00
0.00000000E+00  0.00000000E+00  0.00000000E+00
0.00000000E+00  0.00000000E+00  0.00000000E+00
0.00000000E+00  0.00000000E+00  0.00000000E+00
0.00000000E+00  0.00000000E+00  0.00000000E+00
