Mo4N3  (n=3)
1.00000000000000
2.8732835105298107  -0.0000000000000001  0.0000000000000000
-1.4366417552649053  2.4883365124410664  0.0000000000000000
0.0000000000000000  0.0000000000000000  35.9500242600135920
Mo  N  O
4  3  2
Selective  dynamics
Direct
0.0000000000000000  0.0000000000000000  0.0336409514457670  T  T  T
0.0000000000000000  0.0000000000000000  0.1125293545677283  T  T  T
0.0000000000000000  0.0000000000000000  0.1920608226409511  T  T  T
0.0000000000000000  0.0000000000000000  0.2709492257629125  T  T  T
0.3333333333333357  0.6666666666666643  0.0728078917247564  T  T  T
0.3333333333333357  0.6666666666666643  0.1522950886043359  T  T  T
0.3333333333333357  0.6666666666666643  0.2317822854839076  T  T  T
0.3333333333333357  0.6666666666666643  0.0000000000000000  T  T  T
0.3333333333333357  0.6666666666666643  0.3045901772086718  T  T  T

0.00000000E+00  0.00000000E+00  0.00000000E+00
0.00000000E+00  0.00000000E+00  0.00000000E+00
0.00000000E+00  0.00000000E+00  0.00000000E+00
0.00000000E+00  0.00000000E+00  0.00000000E+00
0.00000000E+00  0.00000000E+00  0.00000000E+00
0.00000000E+00  0.00000000E+00  0.00000000E+00
0.00000000E+00  0.00000000E+00  0.00000000E+00
0.00000000E+00  0.00000000E+00  0.00000000E+00
0.00000000E+00  0.00000000E+00  0.00000000E+00
