Zr4N3  (n=3)
1.00000000000000
3.1524382644259150  0.0000000000000004  0.0000000000000000
-1.5762191322129575  2.7300916212335915  0.0000000000000000
0.0000000000000000  0.0000000000000000  36.0681379604803141
Zr  N  O
4  3  2
Selective  dynamics
Direct
0.0000000000000000  0.0000000000000000  0.0301212339087926  T  T  T
0.0000000000000000  0.0000000000000000  0.1129034595959041  T  T  T
0.0000000000000000  0.0000000000000000  0.1939640025560744  T  T  T
0.0000000000000000  0.0000000000000000  0.2767462282431860  T  T  T
0.3333333333333357  0.6666666666666643  0.0723171670789472  T  T  T
0.3333333333333357  0.6666666666666643  0.1534337310759893  T  T  T
0.3333333333333357  0.6666666666666643  0.2345502950730313  T  T  T
0.3333333333333357  0.6666666666666643  0.0000000000000000  T  T  T
0.3333333333333357  0.6666666666666643  0.3068674621519864  T  T  T

0.00000000E+00  0.00000000E+00  0.00000000E+00
0.00000000E+00  0.00000000E+00  0.00000000E+00
0.00000000E+00  0.00000000E+00  0.00000000E+00
0.00000000E+00  0.00000000E+00  0.00000000E+00
0.00000000E+00  0.00000000E+00  0.00000000E+00
0.00000000E+00  0.00000000E+00  0.00000000E+00
0.00000000E+00  0.00000000E+00  0.00000000E+00
0.00000000E+00  0.00000000E+00  0.00000000E+00
0.00000000E+00  0.00000000E+00  0.00000000E+00
