Nb4C3  (n=3)
1.00000000000000
3.0441161423785563  0.0000000000000000  0.0000000000000000
-1.5220580711892782  2.6362819115987310  0.0000000000000000
0.0000000000000000  0.0000000000000000  36.0433666532264709
Nb  C  O
4  3  2
Selective  dynamics
Direct
0.0000000000000000  0.0000000000000000  0.0320365613570807  T  T  T
0.0000000000000000  0.0000000000000000  0.1132245787875072  T  T  T
0.0000000000000000  0.0000000000000000  0.1931665183448663  T  T  T
0.0000000000000000  0.0000000000000000  0.2743545357752929  T  T  T
0.3333333333333357  0.6666666666666643  0.0722699422546261  T  T  T
0.3333333333333357  0.6666666666666643  0.1531955485661829  T  T  T
0.3333333333333357  0.6666666666666643  0.2341211548777397  T  T  T
0.3333333333333357  0.6666666666666643  0.0000000000000000  T  T  T
0.3333333333333357  0.6666666666666643  0.3063910971323738  T  T  T

0.00000000E+00  0.00000000E+00  0.00000000E+00
0.00000000E+00  0.00000000E+00  0.00000000E+00
0.00000000E+00  0.00000000E+00  0.00000000E+00
0.00000000E+00  0.00000000E+00  0.00000000E+00
0.00000000E+00  0.00000000E+00  0.00000000E+00
0.00000000E+00  0.00000000E+00  0.00000000E+00
0.00000000E+00  0.00000000E+00  0.00000000E+00
0.00000000E+00  0.00000000E+00  0.00000000E+00
0.00000000E+00  0.00000000E+00  0.00000000E+00
