Ta4C3  (n=3)
1.00000000000000
3.0278071962989426  -0.0000000000000001  0.0000000000000000
-1.5139035981494713  2.6221579500690764  0.0000000000000000
0.0000000000000000  0.0000000000000000  36.0063686090350572
Ta  C  O
4  3  2
Selective  dynamics
Direct
0.0000000000000000  0.0000000000000000  0.0320846413489682  T  T  T
0.0000000000000000  0.0000000000000000  0.1129699947992038  T  T  T
0.0000000000000000  0.0000000000000000  0.1927083902816299  T  T  T
0.0000000000000000  0.0000000000000000  0.2735937437318654  T  T  T
0.3333333333333357  0.6666666666666643  0.0719930390541304  T  T  T
0.3333333333333357  0.6666666666666643  0.1528391925404168  T  T  T
0.3333333333333357  0.6666666666666643  0.2336853460266954  T  T  T
0.3333333333333357  0.6666666666666643  0.0000000000000000  T  T  T
0.3333333333333357  0.6666666666666643  0.3056783850808336  T  T  T

0.00000000E+00  0.00000000E+00  0.00000000E+00
0.00000000E+00  0.00000000E+00  0.00000000E+00
0.00000000E+00  0.00000000E+00  0.00000000E+00
0.00000000E+00  0.00000000E+00  0.00000000E+00
0.00000000E+00  0.00000000E+00  0.00000000E+00
0.00000000E+00  0.00000000E+00  0.00000000E+00
0.00000000E+00  0.00000000E+00  0.00000000E+00
0.00000000E+00  0.00000000E+00  0.00000000E+00
0.00000000E+00  0.00000000E+00  0.00000000E+00
