Ta4N3  (n=3)
1.00000000000000
2.9502445130055341  0.0000000000000000  0.0000000000000000
-1.4751222565027671  2.5549866957555452  0.0000000000000000
0.0000000000000000  0.0000000000000000  36.0742862468980618
Ta  N  O
4  3  2
Selective  dynamics
Direct
0.0000000000000000  0.0000000000000000  0.0325330340237389  T  T  T
0.0000000000000000  0.0000000000000000  0.1132534617740190  T  T  T
0.0000000000000000  0.0000000000000000  0.1937321337580351  T  T  T
0.0000000000000000  0.0000000000000000  0.2744525615083151  T  T  T
0.3333333333333357  0.6666666666666643  0.0736870106017726  T  T  T
0.3333333333333357  0.6666666666666643  0.1534927977660270  T  T  T
0.3333333333333357  0.6666666666666643  0.2332985849302814  T  T  T
0.3333333333333357  0.6666666666666643  0.0000000000000000  T  T  T
0.3333333333333357  0.6666666666666643  0.3069855955320617  T  T  T

0.00000000E+00  0.00000000E+00  0.00000000E+00
0.00000000E+00  0.00000000E+00  0.00000000E+00
0.00000000E+00  0.00000000E+00  0.00000000E+00
0.00000000E+00  0.00000000E+00  0.00000000E+00
0.00000000E+00  0.00000000E+00  0.00000000E+00
0.00000000E+00  0.00000000E+00  0.00000000E+00
0.00000000E+00  0.00000000E+00  0.00000000E+00
0.00000000E+00  0.00000000E+00  0.00000000E+00
0.00000000E+00  0.00000000E+00  0.00000000E+00
