Nb4N3  (n=3)
1.00000000000000
2.9702707019367445  0.0000000000000000  0.0000000000000000
-1.4851353509683722  2.5723298841930626  0.0000000000000000
0.0000000000000000  0.0000000000000000  36.0697086371785929
Nb  N  O
4  3  2
Selective  dynamics
Direct
0.0000000000000000  0.0000000000000000  0.0325475638446053  T  T  T
0.0000000000000000  0.0000000000000000  0.1132337070267558  T  T  T
0.0000000000000000  0.0000000000000000  0.1936639379896656  T  T  T
0.0000000000000000  0.0000000000000000  0.2743500811718163  T  T  T
0.3333333333333357  0.6666666666666643  0.0739716747413197  T  T  T
0.3333333333333357  0.6666666666666643  0.1534488225082069  T  T  T
0.3333333333333357  0.6666666666666643  0.2329259702750941  T  T  T
0.3333333333333357  0.6666666666666643  0.0000000000000000  T  T  T
0.3333333333333357  0.6666666666666643  0.3068976450164215  T  T  T

0.00000000E+00  0.00000000E+00  0.00000000E+00
0.00000000E+00  0.00000000E+00  0.00000000E+00
0.00000000E+00  0.00000000E+00  0.00000000E+00
0.00000000E+00  0.00000000E+00  0.00000000E+00
0.00000000E+00  0.00000000E+00  0.00000000E+00
0.00000000E+00  0.00000000E+00  0.00000000E+00
0.00000000E+00  0.00000000E+00  0.00000000E+00
0.00000000E+00  0.00000000E+00  0.00000000E+00
0.00000000E+00  0.00000000E+00  0.00000000E+00
