Hf4C3  (n=3)
1.00000000000000
3.1962535720551237  0.0000000000000000  0.0000000000000000
-1.5981267860275619  2.7680367909095498  0.0000000000000000
0.0000000000000000  0.0000000000000000  35.9571972847835184
Hf  C  O
4  3  2
Selective  dynamics
Direct
0.0000000000000000  0.0000000000000000  0.0286001626954855  T  T  T
0.0000000000000000  0.0000000000000000  0.1114008194288247  T  T  T
0.0000000000000000  0.0000000000000000  0.1933280836055732  T  T  T
0.0000000000000000  0.0000000000000000  0.2761287403389205  T  T  T
0.3333333333333357  0.6666666666666643  0.0709473973338652  T  T  T
0.3333333333333357  0.6666666666666643  0.1523644515171991  T  T  T
0.3333333333333357  0.6666666666666643  0.2337815057005247  T  T  T
0.3333333333333357  0.6666666666666643  0.0000000000000000  T  T  T
0.3333333333333357  0.6666666666666643  0.3047289030343981  T  T  T

0.00000000E+00  0.00000000E+00  0.00000000E+00
0.00000000E+00  0.00000000E+00  0.00000000E+00
0.00000000E+00  0.00000000E+00  0.00000000E+00
0.00000000E+00  0.00000000E+00  0.00000000E+00
0.00000000E+00  0.00000000E+00  0.00000000E+00
0.00000000E+00  0.00000000E+00  0.00000000E+00
0.00000000E+00  0.00000000E+00  0.00000000E+00
0.00000000E+00  0.00000000E+00  0.00000000E+00
0.00000000E+00  0.00000000E+00  0.00000000E+00
