Zr4C3  (n=3)
1.00000000000000
3.2487791847217511  0.0000000000000000  0.0000000000000000
-1.6243895923608755  2.8135253060841787  0.0000000000000000
0.0000000000000000  0.0000000000000000  36.0858998996633886
Zr  C  O
4  3  2
Selective  dynamics
Direct
0.0000000000000000  0.0000000000000000  0.0283921441895273  T  T  T
0.0000000000000000  0.0000000000000000  0.1121833630742506  T  T  T
0.0000000000000000  0.0000000000000000  0.1950252677341168  T  T  T
0.0000000000000000  0.0000000000000000  0.2788164866188401  T  T  T
0.3333333333333357  0.6666666666666643  0.0714313407112968  T  T  T
0.3333333333333357  0.6666666666666643  0.1536043154041797  T  T  T
0.3333333333333357  0.6666666666666643  0.2357772900970707  T  T  T
0.3333333333333357  0.6666666666666643  0.0000000000000000  T  T  T
0.3333333333333357  0.6666666666666643  0.3072086308083674  T  T  T

0.00000000E+00  0.00000000E+00  0.00000000E+00
0.00000000E+00  0.00000000E+00  0.00000000E+00
0.00000000E+00  0.00000000E+00  0.00000000E+00
0.00000000E+00  0.00000000E+00  0.00000000E+00
0.00000000E+00  0.00000000E+00  0.00000000E+00
0.00000000E+00  0.00000000E+00  0.00000000E+00
0.00000000E+00  0.00000000E+00  0.00000000E+00
0.00000000E+00  0.00000000E+00  0.00000000E+00
0.00000000E+00  0.00000000E+00  0.00000000E+00
