Cr4N3  (n=3)
1.00000000000000
2.8110428473214157  0.0000000000000000  0.0000000000000000
-1.4055214236607081  2.4344345169257995  0.0000000000000000
-0.0000000000000004  0.0000000000000008  35.1192326689152878
Cr  N  F
4  3  2
Selective  dynamics
Direct
0.0000000000000000  -0.0000000000000000  0.0388768622867825  T  T  T
0.6666666666666643  0.3333333333333357  0.1085429375109812  T  T  T
0.3333333333333357  0.6666666666666643  0.1795964066573293  T  T  T
0.0000000000000000  0.0000000000000000  0.2492624818815202  T  T  T
0.3333333333333357  0.6666666666666643  0.0711665279649076  T  T  T
0.0000000000000000  0.0000000000000000  0.1440696720841591  T  T  T
0.6666666666666643  0.3333333333333357  0.2169728162033953  T  T  T
0.3333333333333357  0.6666666666666643  0.0000000000000000  T  T  T
0.6666666666666643  0.3333333333333357  0.2881393441683028  T  T  T

0.00000000E+00  0.00000000E+00  0.00000000E+00
0.00000000E+00  0.00000000E+00  0.00000000E+00
0.00000000E+00  0.00000000E+00  0.00000000E+00
0.00000000E+00  0.00000000E+00  0.00000000E+00
0.00000000E+00  0.00000000E+00  0.00000000E+00
0.00000000E+00  0.00000000E+00  0.00000000E+00
0.00000000E+00  0.00000000E+00  0.00000000E+00
0.00000000E+00  0.00000000E+00  0.00000000E+00
0.00000000E+00  0.00000000E+00  0.00000000E+00
