Zr4N3  (n=3)
1.00000000000000
3.1744210208792274  0.0000000000000000  0.0000000000000000
-1.5872105104396137  2.7491292466124757  0.0000000000000000
-0.0000000000000002  -0.0000000000000005  35.9386574916097175
Zr  N  F
4  3  2
Selective  dynamics
Direct
-0.0000000000000000  0.0000000000000000  0.0389516085805950  T  T  T
0.6666666666666643  0.3333333333333357  0.1139780282739956  T  T  T
0.3333333333333357  0.6666666666666643  0.1903922029780611  T  T  T
-0.0000000000000000  -0.0000000000000000  0.2654186226714695  T  T  T
0.3333333333333357  0.6666666666666643  0.0757579436983973  T  T  T
-0.0000000000000000  -0.0000000000000000  0.1521851156260284  T  T  T
0.6666666666666643  0.3333333333333357  0.2286122875536515  T  T  T
0.3333333333333357  0.6666666666666643  0.0000000000000000  T  T  T
0.6666666666666643  0.3333333333333357  0.3043702312520568  T  T  T

0.00000000E+00  0.00000000E+00  0.00000000E+00
0.00000000E+00  0.00000000E+00  0.00000000E+00
0.00000000E+00  0.00000000E+00  0.00000000E+00
0.00000000E+00  0.00000000E+00  0.00000000E+00
0.00000000E+00  0.00000000E+00  0.00000000E+00
0.00000000E+00  0.00000000E+00  0.00000000E+00
0.00000000E+00  0.00000000E+00  0.00000000E+00
0.00000000E+00  0.00000000E+00  0.00000000E+00
0.00000000E+00  0.00000000E+00  0.00000000E+00
