Sc4C3  (n=3)
1.00000000000000
3.2128333614129767  0.0000000000000001  0.0000000000000000
-1.6064166807064884  2.7823953093313829  -0.0000000000000001
0.0000000000000005  -0.0000000000000003  35.7774935603252970
Sc  C  F
4  3  2
Selective  dynamics
Direct
0.0000000000000000  0.0000000000000000  0.0357217938130915  T  T  T
0.6666666666666643  0.3333333333333357  0.1106606955252031  T  T  T
0.3333333333333357  0.6666666666666643  0.1905759895475818  T  T  T
0.0000000000000000  0.0000000000000000  0.2655148912596852  T  T  T
0.3333333333333357  0.6666666666666643  0.0730658977452427  T  T  T
0.0000000000000000  0.0000000000000000  0.1506183425363923  T  T  T
0.6666666666666643  0.3333333333333357  0.2281707873275338  T  T  T
0.3333333333333357  0.6666666666666643  0.0000000000000000  T  T  T
0.6666666666666643  0.3333333333333357  0.3012366850727847  T  T  T

0.00000000E+00  0.00000000E+00  0.00000000E+00
0.00000000E+00  0.00000000E+00  0.00000000E+00
0.00000000E+00  0.00000000E+00  0.00000000E+00
0.00000000E+00  0.00000000E+00  0.00000000E+00
0.00000000E+00  0.00000000E+00  0.00000000E+00
0.00000000E+00  0.00000000E+00  0.00000000E+00
0.00000000E+00  0.00000000E+00  0.00000000E+00
0.00000000E+00  0.00000000E+00  0.00000000E+00
0.00000000E+00  0.00000000E+00  0.00000000E+00
