Sc4N3  (n=3)
1.00000000000000
3.1237620038449174  0.0000000000000001  0.0000000000000000
-1.5618810019224587  2.7052572508330801  -0.0000000000000001
-0.0000000000000008  0.0000000000000003  35.4143065094666838
Sc  N  F
4  3  2
Selective  dynamics
Direct
0.0000000000000000  -0.0000000000000000  0.0369037002346050  T  T  T
0.6666666666666643  0.3333333333333357  0.1107032447993663  T  T  T
0.3333333333333357  0.6666666666666643  0.1833673593132143  T  T  T
-0.0000000000000000  0.0000000000000000  0.2571669038779757  T  T  T
0.3333333333333357  0.6666666666666643  0.0717384589576021  T  T  T
0.0000000000000000  0.0000000000000000  0.1470353020562904  T  T  T
0.6666666666666643  0.3333333333333357  0.2223321451549706  T  T  T
0.3333333333333357  0.6666666666666643  0.0000000000000000  T  T  T
0.6666666666666643  0.3333333333333357  0.2940706041125727  T  T  T

0.00000000E+00  0.00000000E+00  0.00000000E+00
0.00000000E+00  0.00000000E+00  0.00000000E+00
0.00000000E+00  0.00000000E+00  0.00000000E+00
0.00000000E+00  0.00000000E+00  0.00000000E+00
0.00000000E+00  0.00000000E+00  0.00000000E+00
0.00000000E+00  0.00000000E+00  0.00000000E+00
0.00000000E+00  0.00000000E+00  0.00000000E+00
0.00000000E+00  0.00000000E+00  0.00000000E+00
0.00000000E+00  0.00000000E+00  0.00000000E+00
