Mo4N3  (n=3)
1.00000000000000
2.8048293259816499  0.0000000000000000  0.0000000000000001
-1.4024146629908247  2.4290534496492002  -0.0000000000000002
0.0000000000000016  -0.0000000000000033  36.9719502848942767
Mo  N  F
4  3  2
Selective  dynamics
Direct
0.0000000000000000  0.0000000000000000  0.0423659206422138  T  T  T
0.6666666666666643  0.3333333333333357  0.1227359952982747  T  T  T
0.3333333333333357  0.6666666666666643  0.2010757104040801  T  T  T
0.0000000000000000  0.0000000000000000  0.2814457850601408  T  T  T
0.3333333333333357  0.6666666666666643  0.0785351102408315  T  T  T
0.0000000000000000  0.0000000000000000  0.1619058528511774  T  T  T
0.6666666666666643  0.3333333333333357  0.2452765954615080  T  T  T
0.3333333333333357  0.6666666666666643  0.0000000000000000  T  T  T
0.6666666666666643  0.3333333333333357  0.3238117057023548  T  T  T

0.00000000E+00  0.00000000E+00  0.00000000E+00
0.00000000E+00  0.00000000E+00  0.00000000E+00
0.00000000E+00  0.00000000E+00  0.00000000E+00
0.00000000E+00  0.00000000E+00  0.00000000E+00
0.00000000E+00  0.00000000E+00  0.00000000E+00
0.00000000E+00  0.00000000E+00  0.00000000E+00
0.00000000E+00  0.00000000E+00  0.00000000E+00
0.00000000E+00  0.00000000E+00  0.00000000E+00
0.00000000E+00  0.00000000E+00  0.00000000E+00
