Nb4N3  (n=3)
1.00000000000000
2.9701809348510091  0.0000000000000000  0.0000000000000000
-1.4850904674255045  2.5722521435087389  0.0000000000000000
-0.0000000000000002  0.0000000000000002  36.3413370420782229
Nb  N  F
4  3  2
Selective  dynamics
Direct
-0.0000000000000000  -0.0000000000000000  0.0399719532147264  T  T  T
0.6666666666666643  0.3333333333333357  0.1170390371996363  T  T  T
0.3333333333333357  0.6666666666666643  0.1950391075572981  T  T  T
-0.0000000000000000  0.0000000000000000  0.2721061915422079  T  T  T
0.3333333333333357  0.6666666666666643  0.0757495270162599  T  T  T
-0.0000000000000000  0.0000000000000000  0.1560390723784711  T  T  T
0.6666666666666643  0.3333333333333357  0.2363286177406744  T  T  T
0.3333333333333357  0.6666666666666643  0.0000000000000000  T  T  T
0.6666666666666643  0.3333333333333357  0.3120781447569341  T  T  T

0.00000000E+00  0.00000000E+00  0.00000000E+00
0.00000000E+00  0.00000000E+00  0.00000000E+00
0.00000000E+00  0.00000000E+00  0.00000000E+00
0.00000000E+00  0.00000000E+00  0.00000000E+00
0.00000000E+00  0.00000000E+00  0.00000000E+00
0.00000000E+00  0.00000000E+00  0.00000000E+00
0.00000000E+00  0.00000000E+00  0.00000000E+00
0.00000000E+00  0.00000000E+00  0.00000000E+00
0.00000000E+00  0.00000000E+00  0.00000000E+00
