Hf4N3  (n=3)
1.00000000000000
3.1138480188376874  0.0000000000000000  0.0000000000000000
-1.5569240094188437  2.6966714880738123  0.0000000000000000
-0.0000000000000001  -0.0000000000000004  35.8421114975348445
Hf  N  F
4  3  2
Selective  dynamics
Direct
-0.0000000000000000  -0.0000000000000000  0.0389808495716725  T  T  T
0.6666666666666643  0.3333333333333357  0.1134814894388111  T  T  T
0.3333333333333357  0.6666666666666643  0.1890149608130335  T  T  T
-0.0000000000000000  0.0000000000000000  0.2635156006801720  T  T  T
0.3333333333333357  0.6666666666666643  0.0759719840127428  T  T  T
-0.0000000000000000  -0.0000000000000000  0.1512482251259224  T  T  T
0.6666666666666643  0.3333333333333357  0.2265244662390863  T  T  T
0.3333333333333357  0.6666666666666643  0.0000000000000000  T  T  T
0.6666666666666643  0.3333333333333357  0.3024964502518370  T  T  T

0.00000000E+00  0.00000000E+00  0.00000000E+00
0.00000000E+00  0.00000000E+00  0.00000000E+00
0.00000000E+00  0.00000000E+00  0.00000000E+00
0.00000000E+00  0.00000000E+00  0.00000000E+00
0.00000000E+00  0.00000000E+00  0.00000000E+00
0.00000000E+00  0.00000000E+00  0.00000000E+00
0.00000000E+00  0.00000000E+00  0.00000000E+00
0.00000000E+00  0.00000000E+00  0.00000000E+00
0.00000000E+00  0.00000000E+00  0.00000000E+00
