Zr4C3  (n=3)
1.00000000000000
3.2741373814892634  -0.0000000000000001  0.0000000000000001
-1.6370686907446315  2.8354861480927505  0.0000000000000000
0.0000000000000004  -0.0000000000000001  35.9141528691261200
Zr  C  F
4  3  2
Selective  dynamics
Direct
0.0000000000000000  -0.0000000000000000  0.0393395811446999  T  T  T
0.6666666666666643  0.3333333333333357  0.1145780215470902  T  T  T
0.3333333333333357  0.6666666666666643  0.1893175738438999  T  T  T
0.0000000000000000  0.0000000000000000  0.2645560142462903  T  T  T
0.3333333333333357  0.6666666666666643  0.0741667489645538  T  T  T
0.0000000000000000  -0.0000000000000000  0.1519477976954950  T  T  T
0.6666666666666643  0.3333333333333357  0.2297288464264283  T  T  T
0.3333333333333357  0.6666666666666643  0.0000000000000000  T  T  T
0.6666666666666643  0.3333333333333357  0.3038955953909901  T  T  T

0.00000000E+00  0.00000000E+00  0.00000000E+00
0.00000000E+00  0.00000000E+00  0.00000000E+00
0.00000000E+00  0.00000000E+00  0.00000000E+00
0.00000000E+00  0.00000000E+00  0.00000000E+00
0.00000000E+00  0.00000000E+00  0.00000000E+00
0.00000000E+00  0.00000000E+00  0.00000000E+00
0.00000000E+00  0.00000000E+00  0.00000000E+00
0.00000000E+00  0.00000000E+00  0.00000000E+00
0.00000000E+00  0.00000000E+00  0.00000000E+00
