Ta4C3  (n=3)
1.00000000000000
3.0719677279919626  0.0000000000000001  0.0000000000000000
-1.5359838639959815  2.6604020922107705  0.0000000000000000
-0.0000000000000001  -0.0000000000000007  35.7660297405971264
Ta  C  F
4  3  2
Selective  dynamics
Direct
0.0000000000000000  0.0000000000000000  0.0404917265954369  T  T  T
0.6666666666666643  0.3333333333333357  0.1143301320936883  T  T  T
0.3333333333333357  0.6666666666666643  0.1866825835664220  T  T  T
-0.0000000000000000  -0.0000000000000000  0.2605209890646654  T  T  T
0.3333333333333357  0.6666666666666643  0.0752798257126218  T  T  T
-0.0000000000000000  0.0000000000000000  0.1505063578300552  T  T  T
0.6666666666666643  0.3333333333333357  0.2257328899474806  T  T  T
0.3333333333333357  0.6666666666666643  0.0000000000000000  T  T  T
0.6666666666666643  0.3333333333333357  0.3010127156601024  T  T  T

0.00000000E+00  0.00000000E+00  0.00000000E+00
0.00000000E+00  0.00000000E+00  0.00000000E+00
0.00000000E+00  0.00000000E+00  0.00000000E+00
0.00000000E+00  0.00000000E+00  0.00000000E+00
0.00000000E+00  0.00000000E+00  0.00000000E+00
0.00000000E+00  0.00000000E+00  0.00000000E+00
0.00000000E+00  0.00000000E+00  0.00000000E+00
0.00000000E+00  0.00000000E+00  0.00000000E+00
0.00000000E+00  0.00000000E+00  0.00000000E+00
