Mo4C3  (n=3)
1.00000000000000
3.0363802617835418  0.0000000000000000  0.0000000000000000
-1.5181901308917711  2.6295824424035010  0.0000000000000000
-0.0000000000000003  -0.0000000000000003  35.4798091634484152
Mo  C  F
4  3  2
Selective  dynamics
Direct
0.0000000000000000  -0.0000000000000000  0.0425597682005021  T  T  T
0.6666666666666643  0.3333333333333357  0.1110786893097359  T  T  T
0.3333333333333357  0.6666666666666643  0.1842951982771533  T  T  T
0.0000000000000000  -0.0000000000000000  0.2528141193863791  T  T  T
0.3333333333333357  0.6666666666666643  0.0732142382926472  T  T  T
0.0000000000000000  -0.0000000000000000  0.1476869437934405  T  T  T
0.6666666666666643  0.3333333333333357  0.2221596492942339  T  T  T
0.3333333333333357  0.6666666666666643  0.0000000000000000  T  T  T
0.6666666666666643  0.3333333333333357  0.2953738875868814  T  T  T

0.00000000E+00  0.00000000E+00  0.00000000E+00
0.00000000E+00  0.00000000E+00  0.00000000E+00
0.00000000E+00  0.00000000E+00  0.00000000E+00
0.00000000E+00  0.00000000E+00  0.00000000E+00
0.00000000E+00  0.00000000E+00  0.00000000E+00
0.00000000E+00  0.00000000E+00  0.00000000E+00
0.00000000E+00  0.00000000E+00  0.00000000E+00
0.00000000E+00  0.00000000E+00  0.00000000E+00
0.00000000E+00  0.00000000E+00  0.00000000E+00
