Ti4N3  (n=3)
1.00000000000000
2.9208613484486832  0.0000000000000001  0.0000000000000000
-1.4604306742243416  2.5295401287374770  0.0000000000000000
-0.0000000000000001  -0.0000000000000003  35.1105092892329509
Ti  N  F
4  3  2
Selective  dynamics
Direct
-0.0000000000000000  -0.0000000000000000  0.0375893162215488  T  T  T
0.6666666666666643  0.3333333333333357  0.1079432859415529  T  T  T
0.3333333333333357  0.6666666666666643  0.1800191929260907  T  T  T
-0.0000000000000000  -0.0000000000000000  0.2503731626460949  T  T  T
0.3333333333333357  0.6666666666666643  0.0721200694215163  T  T  T
-0.0000000000000000  -0.0000000000000000  0.1439812394338179  T  T  T
0.6666666666666643  0.3333333333333357  0.2158424094461195  T  T  T
0.3333333333333357  0.6666666666666643  0.0000000000000000  T  T  T
0.6666666666666643  0.3333333333333357  0.2879624788676438  T  T  T

0.00000000E+00  0.00000000E+00  0.00000000E+00
0.00000000E+00  0.00000000E+00  0.00000000E+00
0.00000000E+00  0.00000000E+00  0.00000000E+00
0.00000000E+00  0.00000000E+00  0.00000000E+00
0.00000000E+00  0.00000000E+00  0.00000000E+00
0.00000000E+00  0.00000000E+00  0.00000000E+00
0.00000000E+00  0.00000000E+00  0.00000000E+00
0.00000000E+00  0.00000000E+00  0.00000000E+00
0.00000000E+00  0.00000000E+00  0.00000000E+00
