Ti4C3  (n=3)
1.00000000000000
3.0046055723829936  0.0000000000000000  -0.0000000000000001
-1.5023027861914968  2.6020647540936968  0.0000000000000000
-0.0000000000000007  -0.0000000000000016  35.1072974261039477
Ti  C  F
4  3  2
Selective  dynamics
Direct
0.0000000000000000  0.0000000000000000  0.0380646957123402  T  T  T
0.6666666666666643  0.3333333333333357  0.1089302721006348  T  T  T
0.3333333333333357  0.6666666666666643  0.1789670645536157  T  T  T
-0.0000000000000000  -0.0000000000000000  0.2498326409419102  T  T  T
0.3333333333333357  0.6666666666666643  0.0713985009517484  T  T  T
0.0000000000000000  0.0000000000000000  0.1439486683271252  T  T  T
0.6666666666666643  0.3333333333333357  0.2164988357024939  T  T  T
0.3333333333333357  0.6666666666666643  0.0000000000000000  T  T  T
0.6666666666666643  0.3333333333333357  0.2878973366542505  T  T  T

0.00000000E+00  0.00000000E+00  0.00000000E+00
0.00000000E+00  0.00000000E+00  0.00000000E+00
0.00000000E+00  0.00000000E+00  0.00000000E+00
0.00000000E+00  0.00000000E+00  0.00000000E+00
0.00000000E+00  0.00000000E+00  0.00000000E+00
0.00000000E+00  0.00000000E+00  0.00000000E+00
0.00000000E+00  0.00000000E+00  0.00000000E+00
0.00000000E+00  0.00000000E+00  0.00000000E+00
0.00000000E+00  0.00000000E+00  0.00000000E+00
