Hf4C3  (n=3)
1.00000000000000
3.2209699593411516  0.0000000000000002  0.0000000000000000
-1.6104849796705758  2.7894418098843108  0.0000000000000000
-0.0000000000000006  0.0000000000000020  35.7854365622446906
Hf  C  F
4  3  2
Selective  dynamics
Direct
0.0000000000000000  -0.0000000000000000  0.0395251491065228  T  T  T
0.6666666666666643  0.3333333333333357  0.1137812476339007  T  T  T
0.3333333333333357  0.6666666666666643  0.1876105362412145  T  T  T
-0.0000000000000000  -0.0000000000000000  0.2618666347685925  T  T  T
0.3333333333333357  0.6666666666666643  0.0738625383739555  T  T  T
-0.0000000000000000  -0.0000000000000000  0.1506958919375616  T  T  T
0.6666666666666643  0.3333333333333357  0.2275292455011516  T  T  T
0.3333333333333357  0.6666666666666643  0.0000000000000000  T  T  T
0.6666666666666643  0.3333333333333357  0.3013917838751151  T  T  T

0.00000000E+00  0.00000000E+00  0.00000000E+00
0.00000000E+00  0.00000000E+00  0.00000000E+00
0.00000000E+00  0.00000000E+00  0.00000000E+00
0.00000000E+00  0.00000000E+00  0.00000000E+00
0.00000000E+00  0.00000000E+00  0.00000000E+00
0.00000000E+00  0.00000000E+00  0.00000000E+00
0.00000000E+00  0.00000000E+00  0.00000000E+00
0.00000000E+00  0.00000000E+00  0.00000000E+00
0.00000000E+00  0.00000000E+00  0.00000000E+00
