Ta4N3  (n=3)
1.00000000000000
2.9395230791150126  0.0000000000000000  0.0000000000000000
-1.4697615395575063  2.5457016616460413  0.0000000000000000
0.0000000000000002  -0.0000000000000003  36.4357573313547576
Ta  N  F
4  3  2
Selective  dynamics
Direct
-0.0000000000000000  0.0000000000000000  0.0404448830082838  T  T  T
0.6666666666666643  0.3333333333333357  0.1180180914703598  T  T  T
0.3333333333333357  0.6666666666666643  0.1958427465892355  T  T  T
0.0000000000000000  0.0000000000000000  0.2734159550513036  T  T  T
0.3333333333333357  0.6666666666666643  0.0761874368064172  T  T  T
0.0000000000000000  0.0000000000000000  0.1569304190297937  T  T  T
0.6666666666666643  0.3333333333333357  0.2376734012531700  T  T  T
0.3333333333333357  0.6666666666666643  0.0000000000000000  T  T  T
0.6666666666666643  0.3333333333333357  0.3138608380595873  T  T  T

0.00000000E+00  0.00000000E+00  0.00000000E+00
0.00000000E+00  0.00000000E+00  0.00000000E+00
0.00000000E+00  0.00000000E+00  0.00000000E+00
0.00000000E+00  0.00000000E+00  0.00000000E+00
0.00000000E+00  0.00000000E+00  0.00000000E+00
0.00000000E+00  0.00000000E+00  0.00000000E+00
0.00000000E+00  0.00000000E+00  0.00000000E+00
0.00000000E+00  0.00000000E+00  0.00000000E+00
0.00000000E+00  0.00000000E+00  0.00000000E+00
