Nb4C3  (n=3)
1.00000000000000
3.0878166129346680  -0.0000000000000001  0.0000000000000000
-1.5439083064673340  2.6741276292110765  0.0000000000000000
0.0000000000000000  0.0000000000000000  35.7840023737007655
Nb  C  F
4  3  2
Selective  dynamics
Direct
-0.0000000000000000  -0.0000000000000000  0.0399096168035626  T  T  T
0.6666666666666643  0.3333333333333357  0.1142488085497376  T  T  T
0.3333333333333357  0.6666666666666643  0.1871149757771493  T  T  T
0.0000000000000000  -0.0000000000000000  0.2614541675233244  T  T  T
0.3333333333333357  0.6666666666666643  0.0749447217488347  T  T  T
0.0000000000000000  -0.0000000000000000  0.1506818921634474  T  T  T
0.6666666666666643  0.3333333333333357  0.2264190625780442  T  T  T
0.3333333333333357  0.6666666666666643  0.0000000000000000  T  T  T
0.6666666666666643  0.3333333333333357  0.3013637843268869  T  T  T

0.00000000E+00  0.00000000E+00  0.00000000E+00
0.00000000E+00  0.00000000E+00  0.00000000E+00
0.00000000E+00  0.00000000E+00  0.00000000E+00
0.00000000E+00  0.00000000E+00  0.00000000E+00
0.00000000E+00  0.00000000E+00  0.00000000E+00
0.00000000E+00  0.00000000E+00  0.00000000E+00
0.00000000E+00  0.00000000E+00  0.00000000E+00
0.00000000E+00  0.00000000E+00  0.00000000E+00
0.00000000E+00  0.00000000E+00  0.00000000E+00
