Cr4C3  (n=3)
1.00000000000000
2.7841035636037765  0.0000000000000001  0.0000000000000000
-1.3920517818018883  2.4111044128438444  0.0000000000000001
-0.0000000000000002  0.0000000000000010  34.9896277339256869
Cr  C  F
4  3  2
Selective  dynamics
Direct
-0.0000000000000000  0.0000000000000000  0.0387401502041554  T  T  T
0.6666666666666643  0.3333333333333357  0.1080463599236579  T  T  T
0.3333333333333357  0.6666666666666643  0.1774561841414170  T  T  T
0.0000000000000000  0.0000000000000000  0.2467623938609115  T  T  T
0.3333333333333357  0.6666666666666643  0.0711923434600504  T  T  T
0.0000000000000000  0.0000000000000000  0.1427512720325373  T  T  T
0.6666666666666643  0.3333333333333357  0.2143102006050166  T  T  T
0.3333333333333357  0.6666666666666643  0.0000000000000000  T  T  T
0.6666666666666643  0.3333333333333357  0.2855025440650750  T  T  T

0.00000000E+00  0.00000000E+00  0.00000000E+00
0.00000000E+00  0.00000000E+00  0.00000000E+00
0.00000000E+00  0.00000000E+00  0.00000000E+00
0.00000000E+00  0.00000000E+00  0.00000000E+00
0.00000000E+00  0.00000000E+00  0.00000000E+00
0.00000000E+00  0.00000000E+00  0.00000000E+00
0.00000000E+00  0.00000000E+00  0.00000000E+00
0.00000000E+00  0.00000000E+00  0.00000000E+00
0.00000000E+00  0.00000000E+00  0.00000000E+00
