Ti4N3  (n=3)
1.00000000000000
2.9583886208070691  0.0000000000000000  0.0000000000000000
-1.4791943104035346  2.5620396999235284  0.0000000000000000
0.0000000000000000  0.0000000000000000  37.1918707053331019
Ti  N  H
4  5  2
Selective  dynamics
Direct
0.0000000000000000  0.0000000000000000  0.0564172086440167  T  T  T
0.0000000000000000  0.0000000000000000  0.1278014772282954  T  T  T
0.0000000000000000  0.0000000000000000  0.2000086187447622  T  T  T
0.0000000000000000  0.0000000000000000  0.2713928873290328  T  T  T
0.3333333333333357  0.6666666666666643  0.0916336629647674  T  T  T
0.3333333333333357  0.6666666666666643  0.1639050479865329  T  T  T
0.3333333333333357  0.6666666666666643  0.2361764330082902  T  T  T
0.6666666666666643  0.3333333333333357  0.0274797576311152  T  T  T
0.6666666666666643  0.3333333333333357  0.3003303383419507  T  T  T
0.6666666666666643  0.3333333333333357  0.0000000000000000  T  T  T
0.6666666666666643  0.3333333333333357  0.3278100959730659  T  T  T

0.00000000E+00  0.00000000E+00  0.00000000E+00
0.00000000E+00  0.00000000E+00  0.00000000E+00
0.00000000E+00  0.00000000E+00  0.00000000E+00
0.00000000E+00  0.00000000E+00  0.00000000E+00
0.00000000E+00  0.00000000E+00  0.00000000E+00
0.00000000E+00  0.00000000E+00  0.00000000E+00
0.00000000E+00  0.00000000E+00  0.00000000E+00
0.00000000E+00  0.00000000E+00  0.00000000E+00
0.00000000E+00  0.00000000E+00  0.00000000E+00
0.00000000E+00  0.00000000E+00  0.00000000E+00
0.00000000E+00  0.00000000E+00  0.00000000E+00
