Cr4N3  (n=3)
1.00000000000000
2.6872824961538018  0.0000000000000000  0.0000000000000000
-1.3436412480769009  2.3272549088151364  0.0000000000000000
0.0000000000000000  0.0000000000000000  37.1391097564386570
Cr  N  H
4  5  2
Selective  dynamics
Direct
-0.0000000000000000  -0.0000000000000000  0.0580937461952140  T  T  T
-0.0000000000000000  -0.0000000000000000  0.1282219509587395  T  T  T
-0.0000000000000000  -0.0000000000000000  0.1986332115922191  T  T  T
-0.0000000000000000  -0.0000000000000000  0.2687614163557366  T  T  T
0.3333333333333357  0.6666666666666643  0.0952431443196079  T  T  T
0.3333333333333357  0.6666666666666643  0.1634275812754753  T  T  T
0.3333333333333357  0.6666666666666643  0.2316120182313428  T  T  T
0.6666666666666643  0.3333333333333357  0.0276313218700516  T  T  T
0.6666666666666643  0.3333333333333357  0.2992238406809071  T  T  T
0.6666666666666643  0.3333333333333357  0.0000000000000000  T  T  T
0.6666666666666643  0.3333333333333357  0.3268551625509587  T  T  T

0.00000000E+00  0.00000000E+00  0.00000000E+00
0.00000000E+00  0.00000000E+00  0.00000000E+00
0.00000000E+00  0.00000000E+00  0.00000000E+00
0.00000000E+00  0.00000000E+00  0.00000000E+00
0.00000000E+00  0.00000000E+00  0.00000000E+00
0.00000000E+00  0.00000000E+00  0.00000000E+00
0.00000000E+00  0.00000000E+00  0.00000000E+00
0.00000000E+00  0.00000000E+00  0.00000000E+00
0.00000000E+00  0.00000000E+00  0.00000000E+00
0.00000000E+00  0.00000000E+00  0.00000000E+00
0.00000000E+00  0.00000000E+00  0.00000000E+00
