Mo4C3  (n=3)
1.00000000000000
2.9207819196582205  0.0000000000000000  0.0000000000000000
-1.4603909598291103  2.5294713413983829  0.0000000000000000
0.0000000000000000  0.0000000000000000  38.0745762315445546
Mo  C  N  H
4  3  2  2
Selective  dynamics
Direct
0.0000000000000000  0.0000000000000000  0.0595833136648607  T  T  T
0.0000000000000000  0.0000000000000000  0.1341842236043005  T  T  T
0.0000000000000000  0.0000000000000000  0.2092096503559390  T  T  T
0.0000000000000000  -0.0000000000000000  0.2838105602953789  T  T  T
0.3333333333333357  0.6666666666666643  0.0983818915697808  T  T  T
0.3333333333333357  0.6666666666666643  0.1716969369801198  T  T  T
0.3333333333333357  0.6666666666666643  0.2450119823904588  T  T  T
0.6666666666666643  0.3333333333333357  0.0269172471734126  T  T  T
0.6666666666666643  0.3333333333333357  0.3164766267868350  T  T  T
0.6666666666666643  0.3333333333333357  0.0000000000000000  T  T  T
0.6666666666666643  0.3333333333333357  0.3433938739602397  T  T  T

0.00000000E+00  0.00000000E+00  0.00000000E+00
0.00000000E+00  0.00000000E+00  0.00000000E+00
0.00000000E+00  0.00000000E+00  0.00000000E+00
0.00000000E+00  0.00000000E+00  0.00000000E+00
0.00000000E+00  0.00000000E+00  0.00000000E+00
0.00000000E+00  0.00000000E+00  0.00000000E+00
0.00000000E+00  0.00000000E+00  0.00000000E+00
0.00000000E+00  0.00000000E+00  0.00000000E+00
0.00000000E+00  0.00000000E+00  0.00000000E+00
0.00000000E+00  0.00000000E+00  0.00000000E+00
0.00000000E+00  0.00000000E+00  0.00000000E+00
