Ta4C3  (n=3)
1.00000000000000
3.0818639560508214  0.0000000000000000  0.0000000000000000
-1.5409319780254107  2.6689724771406627  0.0000000000000000
0.0000000000000000  0.0000000000000000  37.9399012483682156
Ta  C  N  H
4  3  2  2
Selective  dynamics
Direct
0.0000000000000000  -0.0000000000000000  0.0579345903586771  T  T  T
0.0000000000000000  -0.0000000000000000  0.1328930172864662  T  T  T
0.0000000000000000  -0.0000000000000000  0.2081701068281425  T  T  T
-0.0000000000000000  -0.0000000000000000  0.2831285337559317  T  T  T
0.3333333333333357  0.6666666666666643  0.0942873567036330  T  T  T
0.3333333333333357  0.6666666666666643  0.1705315620573044  T  T  T
0.3333333333333357  0.6666666666666643  0.2467757674109678  T  T  T
0.6666666666666643  0.3333333333333357  0.0269771807177795  T  T  T
0.6666666666666643  0.3333333333333357  0.3140859433968293  T  T  T
0.6666666666666643  0.3333333333333357  0.0000000000000000  T  T  T
0.6666666666666643  0.3333333333333357  0.3410631241146089  T  T  T

0.00000000E+00  0.00000000E+00  0.00000000E+00
0.00000000E+00  0.00000000E+00  0.00000000E+00
0.00000000E+00  0.00000000E+00  0.00000000E+00
0.00000000E+00  0.00000000E+00  0.00000000E+00
0.00000000E+00  0.00000000E+00  0.00000000E+00
0.00000000E+00  0.00000000E+00  0.00000000E+00
0.00000000E+00  0.00000000E+00  0.00000000E+00
0.00000000E+00  0.00000000E+00  0.00000000E+00
0.00000000E+00  0.00000000E+00  0.00000000E+00
0.00000000E+00  0.00000000E+00  0.00000000E+00
0.00000000E+00  0.00000000E+00  0.00000000E+00
