Sc4C3  (n=3)
1.00000000000000
3.3274522055012321  0.0000000000000000  0.0000000000000000
-1.6637261027506161  2.8816581403890438  0.0000000000000000
0.0000000000000000  0.0000000000000000  37.6251660010257893
Sc  C  N  H
4  3  2  2
Selective  dynamics
Direct
0.0000000000000000  0.0000000000000000  0.0507498328767139  T  T  T
0.0000000000000000  0.0000000000000000  0.1310052318032362  T  T  T
0.0000000000000000  0.0000000000000000  0.2045458724944003  T  T  T
0.0000000000000000  0.0000000000000000  0.2848012714209227  T  T  T
0.3333333333333357  0.6666666666666643  0.0964401943303283  T  T  T
0.3333333333333357  0.6666666666666643  0.1677755521488224  T  T  T
0.3333333333333357  0.6666666666666643  0.2391109099673082  T  T  T
0.6666666666666643  0.3333333333333357  0.0273789882187004  T  T  T
0.6666666666666643  0.3333333333333357  0.3081721160789362  T  T  T
0.6666666666666643  0.3333333333333357  0.0000000000000000  T  T  T
0.6666666666666643  0.3333333333333357  0.3355511042976285  T  T  T

0.00000000E+00  0.00000000E+00  0.00000000E+00
0.00000000E+00  0.00000000E+00  0.00000000E+00
0.00000000E+00  0.00000000E+00  0.00000000E+00
0.00000000E+00  0.00000000E+00  0.00000000E+00
0.00000000E+00  0.00000000E+00  0.00000000E+00
0.00000000E+00  0.00000000E+00  0.00000000E+00
0.00000000E+00  0.00000000E+00  0.00000000E+00
0.00000000E+00  0.00000000E+00  0.00000000E+00
0.00000000E+00  0.00000000E+00  0.00000000E+00
0.00000000E+00  0.00000000E+00  0.00000000E+00
0.00000000E+00  0.00000000E+00  0.00000000E+00
