Nb4N3  (n=3)
1.00000000000000
2.9897266208079762  0.0000000000000000  0.0000000000000000
-1.4948633104039881  2.5891792040910011  0.0000000000000000
0.0000000000000000  0.0000000000000000  38.2723392399135278
Nb  N  H
4  5  2
Selective  dynamics
Direct
-0.0000000000000000  0.0000000000000000  0.0595092075995648  T  T  T
-0.0000000000000000  0.0000000000000000  0.1352464690393457  T  T  T
-0.0000000000000000  0.0000000000000000  0.2115402574451367  T  T  T
-0.0000000000000000  0.0000000000000000  0.2872775188849258  T  T  T
0.3333333333333357  0.6666666666666643  0.0987229067558252  T  T  T
0.3333333333333357  0.6666666666666643  0.1733933632422412  T  T  T
0.3333333333333357  0.6666666666666643  0.2480638197286492  T  T  T
0.6666666666666643  0.3333333333333357  0.0267582295510070  T  T  T
0.6666666666666643  0.3333333333333357  0.3200284969334836  T  T  T
0.6666666666666643  0.3333333333333357  0.0000000000000000  T  T  T
0.6666666666666643  0.3333333333333357  0.3467867264844906  T  T  T

0.00000000E+00  0.00000000E+00  0.00000000E+00
0.00000000E+00  0.00000000E+00  0.00000000E+00
0.00000000E+00  0.00000000E+00  0.00000000E+00
0.00000000E+00  0.00000000E+00  0.00000000E+00
0.00000000E+00  0.00000000E+00  0.00000000E+00
0.00000000E+00  0.00000000E+00  0.00000000E+00
0.00000000E+00  0.00000000E+00  0.00000000E+00
0.00000000E+00  0.00000000E+00  0.00000000E+00
0.00000000E+00  0.00000000E+00  0.00000000E+00
0.00000000E+00  0.00000000E+00  0.00000000E+00
0.00000000E+00  0.00000000E+00  0.00000000E+00
