Ta4N3  (n=3)
1.00000000000000
2.9690930480784337  0.0000000000000000  0.0000000000000000
-1.4845465240392168  2.5713100059167808  0.0000000000000000
0.0000000000000000  0.0000000000000000  38.2484756702064246
Ta  N  H
4  5  2
Selective  dynamics
Direct
-0.0000000000000000  -0.0000000000000000  0.0593356103692103  T  T  T
-0.0000000000000000  -0.0000000000000000  0.1350580974082849  T  T  T
-0.0000000000000000  -0.0000000000000000  0.2113210834103193  T  T  T
-0.0000000000000000  -0.0000000000000000  0.2870435704493939  T  T  T
0.3333333333333357  0.6666666666666643  0.0982421881520424  T  T  T
0.3333333333333357  0.6666666666666643  0.1731895904093022  T  T  T
0.3333333333333357  0.6666666666666643  0.2481369926665538  T  T  T
0.6666666666666643  0.3333333333333357  0.0268026598417416  T  T  T
0.6666666666666643  0.3333333333333357  0.3195765209768706  T  T  T
0.6666666666666643  0.3333333333333357  0.0000000000000000  T  T  T
0.6666666666666643  0.3333333333333357  0.3463791808186045  T  T  T

0.00000000E+00  0.00000000E+00  0.00000000E+00
0.00000000E+00  0.00000000E+00  0.00000000E+00
0.00000000E+00  0.00000000E+00  0.00000000E+00
0.00000000E+00  0.00000000E+00  0.00000000E+00
0.00000000E+00  0.00000000E+00  0.00000000E+00
0.00000000E+00  0.00000000E+00  0.00000000E+00
0.00000000E+00  0.00000000E+00  0.00000000E+00
0.00000000E+00  0.00000000E+00  0.00000000E+00
0.00000000E+00  0.00000000E+00  0.00000000E+00
0.00000000E+00  0.00000000E+00  0.00000000E+00
0.00000000E+00  0.00000000E+00  0.00000000E+00
