Nb4C3  (n=3)
1.00000000000000
3.0990495878421056  0.0000000000000000  0.0000000000000000
-1.5495247939210528  2.6838556708293511  0.0000000000000000
0.0000000000000000  0.0000000000000000  37.9714173973681781
Nb  C  N  H
4  3  2  2
Selective  dynamics
Direct
0.0000000000000000  0.0000000000000000  0.0581144323997531  T  T  T
0.0000000000000000  0.0000000000000000  0.1328766246869783  T  T  T
0.0000000000000000  0.0000000000000000  0.2087334148230884  T  T  T
0.0000000000000000  0.0000000000000000  0.2834956071103138  T  T  T
0.3333333333333357  0.6666666666666643  0.0948977005606748  T  T  T
0.3333333333333357  0.6666666666666643  0.1708050197550334  T  T  T
0.3333333333333357  0.6666666666666643  0.2467123389493839  T  T  T
0.6666666666666643  0.3333333333333357  0.0269597990195325  T  T  T
0.6666666666666643  0.3333333333333357  0.3146502404905342  T  T  T
0.6666666666666643  0.3333333333333357  0.0000000000000000  T  T  T
0.6666666666666643  0.3333333333333357  0.3416100395100667  T  T  T

0.00000000E+00  0.00000000E+00  0.00000000E+00
0.00000000E+00  0.00000000E+00  0.00000000E+00
0.00000000E+00  0.00000000E+00  0.00000000E+00
0.00000000E+00  0.00000000E+00  0.00000000E+00
0.00000000E+00  0.00000000E+00  0.00000000E+00
0.00000000E+00  0.00000000E+00  0.00000000E+00
0.00000000E+00  0.00000000E+00  0.00000000E+00
0.00000000E+00  0.00000000E+00  0.00000000E+00
0.00000000E+00  0.00000000E+00  0.00000000E+00
0.00000000E+00  0.00000000E+00  0.00000000E+00
0.00000000E+00  0.00000000E+00  0.00000000E+00
