Ti4C3  (n=3)
1.00000000000000
3.0487704047128443  0.0000000000000000  0.0000000000000000
-1.5243852023564222  2.6403126209227219  0.0000000000000000
0.0000000000000000  0.0000000000000000  37.3007140376119324
Ti  C  N  H
4  3  2  2
Selective  dynamics
Direct
-0.0000000000000000  0.0000000000000000  0.0547227896295988  T  T  T
-0.0000000000000000  0.0000000000000000  0.1282198150304595  T  T  T
-0.0000000000000000  0.0000000000000000  0.2015517283563128  T  T  T
-0.0000000000000000  0.0000000000000000  0.2750487537571737  T  T  T
0.3333333333333357  0.6666666666666643  0.0919025386884307  T  T  T
0.3333333333333357  0.6666666666666643  0.1648857716933862  T  T  T
0.3333333333333357  0.6666666666666643  0.2378690046983337  T  T  T
0.6666666666666643  0.3333333333333357  0.0274350415649079  T  T  T
0.6666666666666643  0.3333333333333357  0.3023365018218647  T  T  T
0.6666666666666643  0.3333333333333357  0.0000000000000000  T  T  T
0.6666666666666643  0.3333333333333357  0.3297715433867723  T  T  T

0.00000000E+00  0.00000000E+00  0.00000000E+00
0.00000000E+00  0.00000000E+00  0.00000000E+00
0.00000000E+00  0.00000000E+00  0.00000000E+00
0.00000000E+00  0.00000000E+00  0.00000000E+00
0.00000000E+00  0.00000000E+00  0.00000000E+00
0.00000000E+00  0.00000000E+00  0.00000000E+00
0.00000000E+00  0.00000000E+00  0.00000000E+00
0.00000000E+00  0.00000000E+00  0.00000000E+00
0.00000000E+00  0.00000000E+00  0.00000000E+00
0.00000000E+00  0.00000000E+00  0.00000000E+00
0.00000000E+00  0.00000000E+00  0.00000000E+00
