Zr4N3  (n=3)
1.00000000000000
3.2188624539313966  0.0000000000000001  0.0000000000000000
-1.6094312269656983  2.7876166566081704  0.0000000000000000
0.0000000000000000  0.0000000000000000  38.0381229482482297
Zr  N  H
4  5  2
Selective  dynamics
Direct
-0.0000000000000000  -0.0000000000000000  0.0566753670401074  T  T  T
-0.0000000000000000  -0.0000000000000000  0.1329578802848585  T  T  T
-0.0000000000000000  -0.0000000000000000  0.2098067447200930  T  T  T
-0.0000000000000000  -0.0000000000000000  0.2860892579648442  T  T  T
0.3333333333333357  0.6666666666666643  0.0938839045992120  T  T  T
0.3333333333333357  0.6666666666666643  0.1713823125024716  T  T  T
0.3333333333333357  0.6666666666666643  0.2488807204057312  T  T  T
0.6666666666666643  0.3333333333333357  0.0269069537424303  T  T  T
0.6666666666666643  0.3333333333333357  0.3158576712625130  T  T  T
0.6666666666666643  0.3333333333333357  0.0000000000000000  T  T  T
0.6666666666666643  0.3333333333333357  0.3427646250049433  T  T  T

0.00000000E+00  0.00000000E+00  0.00000000E+00
0.00000000E+00  0.00000000E+00  0.00000000E+00
0.00000000E+00  0.00000000E+00  0.00000000E+00
0.00000000E+00  0.00000000E+00  0.00000000E+00
0.00000000E+00  0.00000000E+00  0.00000000E+00
0.00000000E+00  0.00000000E+00  0.00000000E+00
0.00000000E+00  0.00000000E+00  0.00000000E+00
0.00000000E+00  0.00000000E+00  0.00000000E+00
0.00000000E+00  0.00000000E+00  0.00000000E+00
0.00000000E+00  0.00000000E+00  0.00000000E+00
0.00000000E+00  0.00000000E+00  0.00000000E+00
