Sc4N3  (n=3)
1.00000000000000
3.2104548299857329  0.0000000000000000  0.0000000000000000
-1.6052274149928665  2.7803354406934497  0.0000000000000000
0.0000000000000000  0.0000000000000000  37.4997074200981544
Sc  N  H
4  5  2
Selective  dynamics
Direct
-0.0000000000000000  0.0000000000000000  0.0524721127244968  T  T  T
-0.0000000000000000  0.0000000000000000  0.1287235963532374  T  T  T
-0.0000000000000000  0.0000000000000000  0.2046045355190363  T  T  T
-0.0000000000000000  0.0000000000000000  0.2808560191477850  T  T  T
0.3333333333333357  0.6666666666666643  0.0959090160710203  T  T  T
0.3333333333333357  0.6666666666666643  0.1666640659361410  T  T  T
0.3333333333333357  0.6666666666666643  0.2374191158012453  T  T  T
0.6666666666666643  0.3333333333333357  0.0273783392267346  T  T  T
0.6666666666666643  0.3333333333333357  0.3059497926455393  T  T  T
0.6666666666666643  0.3333333333333357  0.0000000000000000  T  T  T
0.6666666666666643  0.3333333333333357  0.3333281318722737  T  T  T

0.00000000E+00  0.00000000E+00  0.00000000E+00
0.00000000E+00  0.00000000E+00  0.00000000E+00
0.00000000E+00  0.00000000E+00  0.00000000E+00
0.00000000E+00  0.00000000E+00  0.00000000E+00
0.00000000E+00  0.00000000E+00  0.00000000E+00
0.00000000E+00  0.00000000E+00  0.00000000E+00
0.00000000E+00  0.00000000E+00  0.00000000E+00
0.00000000E+00  0.00000000E+00  0.00000000E+00
0.00000000E+00  0.00000000E+00  0.00000000E+00
0.00000000E+00  0.00000000E+00  0.00000000E+00
0.00000000E+00  0.00000000E+00  0.00000000E+00
