Mo4N3  (n=3)
1.00000000000000
2.8662717945422425  0.0000000000000000  0.0000000000000000
-1.4331358972711212  2.4822641882599248  0.0000000000000000
0.0000000000000000  0.0000000000000000  38.2691630358040058
Mo  N  H
4  5  2
Selective  dynamics
Direct
-0.0000000000000000  -0.0000000000000000  0.0592775334518433  T  T  T
-0.0000000000000000  -0.0000000000000000  0.1358670314720856  T  T  T
-0.0000000000000000  -0.0000000000000000  0.2108654806392793  T  T  T
-0.0000000000000000  -0.0000000000000000  0.2874549786595216  T  T  T
0.3333333333333357  0.6666666666666643  0.1017126764742454  T  T  T
0.3333333333333357  0.6666666666666643  0.1733662560556824  T  T  T
0.3333333333333357  0.6666666666666643  0.2450198356371195  T  T  T
0.6666666666666643  0.3333333333333357  0.0268092765145623  T  T  T
0.6666666666666643  0.3333333333333357  0.3199232355968026  T  T  T
0.6666666666666643  0.3333333333333357  0.0000000000000000  T  T  T
0.6666666666666643  0.3333333333333357  0.3467325121113727  T  T  T

0.00000000E+00  0.00000000E+00  0.00000000E+00
0.00000000E+00  0.00000000E+00  0.00000000E+00
0.00000000E+00  0.00000000E+00  0.00000000E+00
0.00000000E+00  0.00000000E+00  0.00000000E+00
0.00000000E+00  0.00000000E+00  0.00000000E+00
0.00000000E+00  0.00000000E+00  0.00000000E+00
0.00000000E+00  0.00000000E+00  0.00000000E+00
0.00000000E+00  0.00000000E+00  0.00000000E+00
0.00000000E+00  0.00000000E+00  0.00000000E+00
0.00000000E+00  0.00000000E+00  0.00000000E+00
0.00000000E+00  0.00000000E+00  0.00000000E+00
