Cr4C3  (n=3)
1.00000000000000
2.7048254738243851  0.0000000000000000  0.0000000000000000
-1.3524127369121925  2.3424475731296828  0.0000000000000000
0.0000000000000000  0.0000000000000000  37.2462511403166374
Cr  C  N  H
4  3  2  2
Selective  dynamics
Direct
0.0000000000000000  0.0000000000000000  0.0581569382065828  T  T  T
0.0000000000000000  0.0000000000000000  0.1288203702746464  T  T  T
0.0000000000000000  0.0000000000000000  0.1999711393508840  T  T  T
0.0000000000000000  0.0000000000000000  0.2706345714189557  T  T  T
0.3333333333333357  0.6666666666666643  0.0949145897580184  T  T  T
0.3333333333333357  0.6666666666666643  0.1643957548127692  T  T  T
0.3333333333333357  0.6666666666666643  0.2338769198675120  T  T  T
0.6666666666666643  0.3333333333333357  0.0275366412279090  T  T  T
0.6666666666666643  0.3333333333333357  0.3012548683976214  T  T  T
0.6666666666666643  0.3333333333333357  0.0000000000000000  T  T  T
0.6666666666666643  0.3333333333333357  0.3287915096255383  T  T  T

0.00000000E+00  0.00000000E+00  0.00000000E+00
0.00000000E+00  0.00000000E+00  0.00000000E+00
0.00000000E+00  0.00000000E+00  0.00000000E+00
0.00000000E+00  0.00000000E+00  0.00000000E+00
0.00000000E+00  0.00000000E+00  0.00000000E+00
0.00000000E+00  0.00000000E+00  0.00000000E+00
0.00000000E+00  0.00000000E+00  0.00000000E+00
0.00000000E+00  0.00000000E+00  0.00000000E+00
0.00000000E+00  0.00000000E+00  0.00000000E+00
0.00000000E+00  0.00000000E+00  0.00000000E+00
0.00000000E+00  0.00000000E+00  0.00000000E+00
