Zr4C3  (n=3)
1.00000000000000
3.3039778999769767  0.0000000000000000  0.0000000000000000
-1.6519889499884883  2.8613287958116973  0.0000000000000000
0.0000000000000000  0.0000000000000000  38.1700173534103797
Zr  C  N  H
4  3  2  2
Selective  dynamics
Direct
0.0000000000000000  0.0000000000000000  0.0551162489914640  T  T  T
0.0000000000000000  0.0000000000000000  0.1335679825649300  T  T  T
0.0000000000000000  0.0000000000000000  0.2114676832947733  T  T  T
0.0000000000000000  0.0000000000000000  0.2899194168682391  T  T  T
0.3333333333333357  0.6666666666666643  0.0942766322679951  T  T  T
0.3333333333333357  0.6666666666666643  0.1725178329298556  T  T  T
0.3333333333333357  0.6666666666666643  0.2507590335917081  T  T  T
0.6666666666666643  0.3333333333333357  0.0268643402672398  T  T  T
0.6666666666666643  0.3333333333333357  0.3181713255924634  T  T  T
0.6666666666666643  0.3333333333333357  0.0000000000000000  T  T  T
0.6666666666666643  0.3333333333333357  0.3450356658597033  T  T  T

0.00000000E+00  0.00000000E+00  0.00000000E+00
0.00000000E+00  0.00000000E+00  0.00000000E+00
0.00000000E+00  0.00000000E+00  0.00000000E+00
0.00000000E+00  0.00000000E+00  0.00000000E+00
0.00000000E+00  0.00000000E+00  0.00000000E+00
0.00000000E+00  0.00000000E+00  0.00000000E+00
0.00000000E+00  0.00000000E+00  0.00000000E+00
0.00000000E+00  0.00000000E+00  0.00000000E+00
0.00000000E+00  0.00000000E+00  0.00000000E+00
0.00000000E+00  0.00000000E+00  0.00000000E+00
0.00000000E+00  0.00000000E+00  0.00000000E+00
