Hf4C3  (n=3)
1.00000000000000
3.2522133847704149  0.0000000000000000  0.0000000000000000
-1.6261066923852074  2.8164994103471352  0.0000000000000000
0.0000000000000000  0.0000000000000000  38.0243798357154859
Hf  C  N  H
4  3  2  2
Selective  dynamics
Direct
-0.0000000000000000  0.0000000000000000  0.0550478047838323  T  T  T
-0.0000000000000000  0.0000000000000000  0.1325756851994756  T  T  T
0.0000000000000000  0.0000000000000000  0.2099513958992141  T  T  T
0.0000000000000000  0.0000000000000000  0.2874792763148493  T  T  T
0.3333333333333357  0.6666666666666643  0.0935594674972946  T  T  T
0.3333333333333357  0.6666666666666643  0.1712635405493448  T  T  T
0.3333333333333357  0.6666666666666643  0.2489676136013871  T  T  T
0.6666666666666643  0.3333333333333357  0.0269533124501067  T  T  T
0.6666666666666643  0.3333333333333357  0.3155737686485829  T  T  T
0.6666666666666643  0.3333333333333357  0.0000000000000000  T  T  T
0.6666666666666643  0.3333333333333357  0.3425270810986894  T  T  T

0.00000000E+00  0.00000000E+00  0.00000000E+00
0.00000000E+00  0.00000000E+00  0.00000000E+00
0.00000000E+00  0.00000000E+00  0.00000000E+00
0.00000000E+00  0.00000000E+00  0.00000000E+00
0.00000000E+00  0.00000000E+00  0.00000000E+00
0.00000000E+00  0.00000000E+00  0.00000000E+00
0.00000000E+00  0.00000000E+00  0.00000000E+00
0.00000000E+00  0.00000000E+00  0.00000000E+00
0.00000000E+00  0.00000000E+00  0.00000000E+00
0.00000000E+00  0.00000000E+00  0.00000000E+00
0.00000000E+00  0.00000000E+00  0.00000000E+00
