Hf4N3  (n=3)
1.00000000000000
3.1668259542417894  -0.0000000000000001  0.0000000000000000
-1.5834129771208947  2.7425517259171728  0.0000000000000000
0.0000000000000000  0.0000000000000000  37.8861647671393911
Hf  N  H
4  5  2
Selective  dynamics
Direct
-0.0000000000000000  -0.0000000000000000  0.0562646250357530  T  T  T
-0.0000000000000000  -0.0000000000000000  0.1320383879862631  T  T  T
-0.0000000000000000  -0.0000000000000000  0.2080901218890943  T  T  T
-0.0000000000000000  -0.0000000000000000  0.2838638848395962  T  T  T
0.3333333333333357  0.6666666666666643  0.0925893122943301  T  T  T
0.3333333333333357  0.6666666666666643  0.1700642549376746  T  T  T
0.3333333333333357  0.6666666666666643  0.2475391975810108  T  T  T
0.6666666666666643  0.3333333333333357  0.0269839199505695  T  T  T
0.6666666666666643  0.3333333333333357  0.3131445899247796  T  T  T
0.6666666666666643  0.3333333333333357  0.0000000000000000  T  T  T
0.6666666666666643  0.3333333333333357  0.3401285098753574  T  T  T

0.00000000E+00  0.00000000E+00  0.00000000E+00
0.00000000E+00  0.00000000E+00  0.00000000E+00
0.00000000E+00  0.00000000E+00  0.00000000E+00
0.00000000E+00  0.00000000E+00  0.00000000E+00
0.00000000E+00  0.00000000E+00  0.00000000E+00
0.00000000E+00  0.00000000E+00  0.00000000E+00
0.00000000E+00  0.00000000E+00  0.00000000E+00
0.00000000E+00  0.00000000E+00  0.00000000E+00
0.00000000E+00  0.00000000E+00  0.00000000E+00
0.00000000E+00  0.00000000E+00  0.00000000E+00
0.00000000E+00  0.00000000E+00  0.00000000E+00
