Hf3C2  (n=2)
1.00000000000000
3.2598941349696466  0.0000000000000000  0.0000000000000000
-1.6299470674848233  2.8231511346686529  0.0000000000000000
0.0000000000000000  -0.0000000000000010  34.8476949344049061
Hf  C  N  H
3  2  2  2
Selective  dynamics
Direct
-0.0000000000000000  -0.0000000000000000  0.0620635739805990  T  T  T
0.6666666666666643  0.3333333333333357  0.1412962170516775  T  T  T
0.3333333333333357  0.6666666666666643  0.2205288601227637  T  T  T
0.3333333333333357  0.6666666666666643  0.1031074388310287  T  T  T
0.0000000000000000  -0.0000000000000000  0.1794849952723261  T  T  T
0.3333333333333357  0.6666666666666643  0.0296070395158847  T  T  T
0.0000000000000000  0.0000000000000000  0.2529853945874780  T  T  T
0.3333333333333357  0.6666666666666643  0.0000000000000000  T  T  T
0.0000000000000000  -0.0000000000000000  0.2825924341033628  T  T  T

0.00000000E+00  0.00000000E+00  0.00000000E+00
0.00000000E+00  0.00000000E+00  0.00000000E+00
0.00000000E+00  0.00000000E+00  0.00000000E+00
0.00000000E+00  0.00000000E+00  0.00000000E+00
0.00000000E+00  0.00000000E+00  0.00000000E+00
0.00000000E+00  0.00000000E+00  0.00000000E+00
0.00000000E+00  0.00000000E+00  0.00000000E+00
0.00000000E+00  0.00000000E+00  0.00000000E+00
0.00000000E+00  0.00000000E+00  0.00000000E+00
