Mo3C2  (n=2)
1.00000000000000
2.9685289518088971  0.0000000000000000  0.0000000000000000
-1.4842644759044485  2.5708214841774897  0.0000000000000000
-0.0000000000000001  0.0000000000000002  34.8501505918774228
Mo  C  N  H
3  2  2  2
Selective  dynamics
Direct
0.0000000000000000  0.0000000000000000  0.0645493376918789  T  T  T
0.6666666666666643  0.3333333333333357  0.1413214925127564  T  T  T
0.3333333333333357  0.6666666666666643  0.2180936473336499  T  T  T
0.3333333333333357  0.6666666666666643  0.1022171382803987  T  T  T
-0.0000000000000000  0.0000000000000000  0.1804258467451142  T  T  T
0.3333333333333357  0.6666666666666643  0.0293679072980620  T  T  T
-0.0000000000000000  -0.0000000000000000  0.2532750777274668  T  T  T
0.3333333333333357  0.6666666666666643  0.0000000000000000  T  T  T
0.0000000000000000  0.0000000000000000  0.2826429850255286  T  T  T

0.00000000E+00  0.00000000E+00  0.00000000E+00
0.00000000E+00  0.00000000E+00  0.00000000E+00
0.00000000E+00  0.00000000E+00  0.00000000E+00
0.00000000E+00  0.00000000E+00  0.00000000E+00
0.00000000E+00  0.00000000E+00  0.00000000E+00
0.00000000E+00  0.00000000E+00  0.00000000E+00
0.00000000E+00  0.00000000E+00  0.00000000E+00
0.00000000E+00  0.00000000E+00  0.00000000E+00
0.00000000E+00  0.00000000E+00  0.00000000E+00
