Nb3N2  (n=2)
1.00000000000000
3.0620587306099183  0.0000000000000000  0.0000000000000000
-1.5310293653049591  2.6518206486652103  0.0000000000000000
0.0000000000000000  0.0000000000000001  34.8611532825853487
Nb  N  H
3  4  2
Selective  dynamics
Direct
-0.0000000000000000  -0.0000000000000000  0.0647586629502421  T  T  T
0.6666666666666643  0.3333333333333357  0.1414346967045284  T  T  T
0.3333333333333357  0.6666666666666643  0.2181107304588227  T  T  T
0.3333333333333357  0.6666666666666643  0.1030419507938761  T  T  T
-0.0000000000000000  -0.0000000000000000  0.1798274426151808  T  T  T
0.3333333333333357  0.6666666666666643  0.0293459697824949  T  T  T
0.0000000000000000  0.0000000000000000  0.2535234236265698  T  T  T
0.3333333333333357  0.6666666666666643  0.0000000000000000  T  T  T
-0.0000000000000000  -0.0000000000000000  0.2828693934090648  T  T  T

0.00000000E+00  0.00000000E+00  0.00000000E+00
0.00000000E+00  0.00000000E+00  0.00000000E+00
0.00000000E+00  0.00000000E+00  0.00000000E+00
0.00000000E+00  0.00000000E+00  0.00000000E+00
0.00000000E+00  0.00000000E+00  0.00000000E+00
0.00000000E+00  0.00000000E+00  0.00000000E+00
0.00000000E+00  0.00000000E+00  0.00000000E+00
0.00000000E+00  0.00000000E+00  0.00000000E+00
0.00000000E+00  0.00000000E+00  0.00000000E+00
