Cr3N2  (n=2)
1.00000000000000
2.7068093708146557  0.0000000000000000  0.0000000000000000
-1.3534046854073278  2.3441656783331193  0.0000000000000000
0.0000000000000000  0.0000000000000000  34.4565375187474316
Cr  N  H
3  4  2
Selective  dynamics
Direct
0.0000000000000000  0.0000000000000000  0.0627155210892049  T  T  T
0.6666666666666643  0.3333333333333357  0.1372241408992739  T  T  T
0.3333333333333357  0.6666666666666643  0.2117327607093625  T  T  T
0.3333333333333357  0.6666666666666643  0.0997482803563489  T  T  T
0.0000000000000000  0.0000000000000000  0.1747000014422088  T  T  T
0.3333333333333357  0.6666666666666643  0.0297445761565387  T  T  T
0.0000000000000000  0.0000000000000000  0.2447037056420288  T  T  T
0.3333333333333357  0.6666666666666643  0.0000000000000000  T  T  T
0.0000000000000000  0.0000000000000000  0.2744482817985479  T  T  T

0.00000000E+00  0.00000000E+00  0.00000000E+00
0.00000000E+00  0.00000000E+00  0.00000000E+00
0.00000000E+00  0.00000000E+00  0.00000000E+00
0.00000000E+00  0.00000000E+00  0.00000000E+00
0.00000000E+00  0.00000000E+00  0.00000000E+00
0.00000000E+00  0.00000000E+00  0.00000000E+00
0.00000000E+00  0.00000000E+00  0.00000000E+00
0.00000000E+00  0.00000000E+00  0.00000000E+00
0.00000000E+00  0.00000000E+00  0.00000000E+00
