Zr3C2  (n=2)
1.00000000000000
3.3169009343588498  0.0000000000000000  0.0000000000000000
-1.6584504671794249  2.8725204711516570  0.0000000000000000
-0.0000000000000001  -0.0000000000000012  34.9396195533399307
Zr  C  N  H
3  2  2  2
Selective  dynamics
Direct
-0.0000000000000000  -0.0000000000000000  0.0620572794548216  T  T  T
0.6666666666666643  0.3333333333333357  0.1422399510985733  T  T  T
0.3333333333333357  0.6666666666666643  0.2224226227423330  T  T  T
0.3333333333333357  0.6666666666666643  0.1036099307160165  T  T  T
-0.0000000000000000  -0.0000000000000000  0.1808699714811382  T  T  T
0.3333333333333357  0.6666666666666643  0.0295502412310382  T  T  T
-0.0000000000000000  -0.0000000000000000  0.2549296609661164  T  T  T
0.3333333333333357  0.6666666666666643  0.0000000000000000  T  T  T
-0.0000000000000000  0.0000000000000000  0.2844799021971546  T  T  T

0.00000000E+00  0.00000000E+00  0.00000000E+00
0.00000000E+00  0.00000000E+00  0.00000000E+00
0.00000000E+00  0.00000000E+00  0.00000000E+00
0.00000000E+00  0.00000000E+00  0.00000000E+00
0.00000000E+00  0.00000000E+00  0.00000000E+00
0.00000000E+00  0.00000000E+00  0.00000000E+00
0.00000000E+00  0.00000000E+00  0.00000000E+00
0.00000000E+00  0.00000000E+00  0.00000000E+00
0.00000000E+00  0.00000000E+00  0.00000000E+00
