Zr3N2  (n=2)
1.00000000000000
3.2514404934903780  0.0000000000000000  0.0000000000000000
-1.6257202467451890  2.8158300664012601  0.0000000000000000
0.0000000000000000  -0.0000000000000001  34.8444546601103866
Zr  N  H
3  4  2
Selective  dynamics
Direct
0.0000000000000000  0.0000000000000000  0.0632519891967449  T  T  T
0.6666666666666643  0.3333333333333357  0.1412628602763003  T  T  T
0.3333333333333357  0.6666666666666643  0.2192737313558636  T  T  T
0.3333333333333357  0.6666666666666643  0.1036065732984802  T  T  T
-0.0000000000000000  -0.0000000000000000  0.1789191472541284  T  T  T
0.3333333333333357  0.6666666666666643  0.0294486871933654  T  T  T
-0.0000000000000000  -0.0000000000000000  0.2530770333592431  T  T  T
0.3333333333333357  0.6666666666666643  0.0000000000000000  T  T  T
-0.0000000000000000  -0.0000000000000000  0.2825257205526086  T  T  T

0.00000000E+00  0.00000000E+00  0.00000000E+00
0.00000000E+00  0.00000000E+00  0.00000000E+00
0.00000000E+00  0.00000000E+00  0.00000000E+00
0.00000000E+00  0.00000000E+00  0.00000000E+00
0.00000000E+00  0.00000000E+00  0.00000000E+00
0.00000000E+00  0.00000000E+00  0.00000000E+00
0.00000000E+00  0.00000000E+00  0.00000000E+00
0.00000000E+00  0.00000000E+00  0.00000000E+00
0.00000000E+00  0.00000000E+00  0.00000000E+00
