Nb3C2  (n=2)
1.00000000000000
3.1109816123027754  0.0000000000000000  0.0000000000000000
-1.5554908061513877  2.6941891070735937  -0.0000000000000001
0.0000000000000001  0.0000000000000002  34.8405453122875599
Nb  C  N  H
3  2  2  2
Selective  dynamics
Direct
0.0000000000000000  0.0000000000000000  0.0650296123790909  T  T  T
0.6666666666666643  0.3333333333333357  0.1412226075120730  T  T  T
0.3333333333333357  0.6666666666666643  0.2174156026450552  T  T  T
0.3333333333333357  0.6666666666666643  0.1031651771260587  T  T  T
0.0000000000000000  0.0000000000000000  0.1792800378980796  T  T  T
0.3333333333333357  0.6666666666666643  0.0293932749565795  T  T  T
-0.0000000000000000  -0.0000000000000000  0.2530519400675665  T  T  T
0.3333333333333357  0.6666666666666643  0.0000000000000000  T  T  T
0.0000000000000000  0.0000000000000000  0.2824452150241459  T  T  T

0.00000000E+00  0.00000000E+00  0.00000000E+00
0.00000000E+00  0.00000000E+00  0.00000000E+00
0.00000000E+00  0.00000000E+00  0.00000000E+00
0.00000000E+00  0.00000000E+00  0.00000000E+00
0.00000000E+00  0.00000000E+00  0.00000000E+00
0.00000000E+00  0.00000000E+00  0.00000000E+00
0.00000000E+00  0.00000000E+00  0.00000000E+00
0.00000000E+00  0.00000000E+00  0.00000000E+00
0.00000000E+00  0.00000000E+00  0.00000000E+00
