Cr3C2  (n=2)
1.00000000000000
2.7784842002849177  0.0000000000000000  0.0000000000000000
-1.3892421001424589  2.4062379014720499  -0.0000000000000001
-0.0000000000000001  -0.0000000000000008  34.2339545773436598
Cr  C  N  H
3  2  2  2
Selective  dynamics
Direct
0.0000000000000000  0.0000000000000000  0.0630416818530841  T  T  T
0.6666666666666643  0.3333333333333357  0.1348654382957925  T  T  T
0.3333333333333357  0.6666666666666643  0.2066891947385081  T  T  T
0.3333333333333357  0.6666666666666643  0.0986223885349028  T  T  T
0.0000000000000000  0.0000000000000000  0.1711084880566821  T  T  T
0.3333333333333357  0.6666666666666643  0.0299801000724089  T  T  T
0.0000000000000000  0.0000000000000000  0.2397507765191834  T  T  T
0.3333333333333357  0.6666666666666643  0.0000000000000000  T  T  T
0.0000000000000000  0.0000000000000000  0.2697308765915923  T  T  T

0.00000000E+00  0.00000000E+00  0.00000000E+00
0.00000000E+00  0.00000000E+00  0.00000000E+00
0.00000000E+00  0.00000000E+00  0.00000000E+00
0.00000000E+00  0.00000000E+00  0.00000000E+00
0.00000000E+00  0.00000000E+00  0.00000000E+00
0.00000000E+00  0.00000000E+00  0.00000000E+00
0.00000000E+00  0.00000000E+00  0.00000000E+00
0.00000000E+00  0.00000000E+00  0.00000000E+00
0.00000000E+00  0.00000000E+00  0.00000000E+00
