Sc3N2  (n=2)
1.00000000000000
3.2121411511044022  0.0000000000000000  0.0000000000000000
-1.6060705755522011  2.7817958375088145  0.0000000000000000
0.0000000000000000  0.0000000000000000  34.6353537560709057
Sc  N  H
3  4  2
Selective  dynamics
Direct
0.0000000000000000  0.0000000000000000  0.0590630807651354  T  T  T
0.6666666666666643  0.3333333333333357  0.1390970888290988  T  T  T
0.3333333333333357  0.6666666666666643  0.2191310968930543  T  T  T
0.3333333333333357  0.6666666666666643  0.1037787731439047  T  T  T
0.0000000000000000  -0.0000000000000000  0.1744154045142849  T  T  T
0.3333333333333357  0.6666666666666643  0.0297291709987992  T  T  T
0.0000000000000000  0.0000000000000000  0.2484650066593985  T  T  T
0.3333333333333357  0.6666666666666643  0.0000000000000000  T  T  T
0.0000000000000000  0.0000000000000000  0.2781941776581974  T  T  T

0.00000000E+00  0.00000000E+00  0.00000000E+00
0.00000000E+00  0.00000000E+00  0.00000000E+00
0.00000000E+00  0.00000000E+00  0.00000000E+00
0.00000000E+00  0.00000000E+00  0.00000000E+00
0.00000000E+00  0.00000000E+00  0.00000000E+00
0.00000000E+00  0.00000000E+00  0.00000000E+00
0.00000000E+00  0.00000000E+00  0.00000000E+00
0.00000000E+00  0.00000000E+00  0.00000000E+00
0.00000000E+00  0.00000000E+00  0.00000000E+00
