Hf3N2  (n=2)
1.00000000000000
3.1909582507133045  0.0000000000000000  0.0000000000000000
-1.5954791253566523  2.7634509076520231  0.0000000000000000
0.0000000000000000  0.0000000000000000  34.7431360191613479
Hf  N  H
3  4  2
Selective  dynamics
Direct
-0.0000000000000000  -0.0000000000000000  0.0628828737797889  T  T  T
0.6666666666666643  0.3333333333333357  0.1402167037222445  T  T  T
0.3333333333333357  0.6666666666666643  0.2175505336647083  T  T  T
0.3333333333333357  0.6666666666666643  0.1032495579193653  T  T  T
0.0000000000000000  -0.0000000000000000  0.1771838495251321  T  T  T
0.3333333333333357  0.6666666666666643  0.0295042313467388  T  T  T
-0.0000000000000000  -0.0000000000000000  0.2509291760977665  T  T  T
0.3333333333333357  0.6666666666666643  0.0000000000000000  T  T  T
-0.0000000000000000  -0.0000000000000000  0.2804334074445054  T  T  T

0.00000000E+00  0.00000000E+00  0.00000000E+00
0.00000000E+00  0.00000000E+00  0.00000000E+00
0.00000000E+00  0.00000000E+00  0.00000000E+00
0.00000000E+00  0.00000000E+00  0.00000000E+00
0.00000000E+00  0.00000000E+00  0.00000000E+00
0.00000000E+00  0.00000000E+00  0.00000000E+00
0.00000000E+00  0.00000000E+00  0.00000000E+00
0.00000000E+00  0.00000000E+00  0.00000000E+00
0.00000000E+00  0.00000000E+00  0.00000000E+00
