Ti3C2  (n=2)
1.00000000000000
3.0424749625994791  0.0000000000000000  0.0000000000000000
-1.5212374812997396  2.6348606080492973  0.0000000000000000
0.0000000000000001  0.0000000000000002  34.3932772794065826
Ti  C  N  H
3  2  2  2
Selective  dynamics
Direct
-0.0000000000000000  -0.0000000000000000  0.0614929327405963  T  T  T
0.6666666666666643  0.3333333333333357  0.1365568800422363  T  T  T
0.3333333333333357  0.6666666666666643  0.2116208273438843  T  T  T
0.3333333333333357  0.6666666666666643  0.1005559354940911  T  T  T
-0.0000000000000000  -0.0000000000000000  0.1725578245903737  T  T  T
0.3333333333333357  0.6666666666666643  0.0299764336513512  T  T  T
-0.0000000000000000  -0.0000000000000000  0.2431373264331293  T  T  T
0.3333333333333357  0.6666666666666643  0.0000000000000000  T  T  T
-0.0000000000000000  -0.0000000000000000  0.2731137600844724  T  T  T

0.00000000E+00  0.00000000E+00  0.00000000E+00
0.00000000E+00  0.00000000E+00  0.00000000E+00
0.00000000E+00  0.00000000E+00  0.00000000E+00
0.00000000E+00  0.00000000E+00  0.00000000E+00
0.00000000E+00  0.00000000E+00  0.00000000E+00
0.00000000E+00  0.00000000E+00  0.00000000E+00
0.00000000E+00  0.00000000E+00  0.00000000E+00
0.00000000E+00  0.00000000E+00  0.00000000E+00
0.00000000E+00  0.00000000E+00  0.00000000E+00
