Ta3N2  (n=2)
1.00000000000000
3.0432196416890158  0.0000000000000000  0.0000000000000000
-1.5216098208445079  2.6355055190654557  0.0000000000000000
0.0000000000000000  0.0000000000000000  34.8248313371510037
Ta  N  H
3  4  2
Selective  dynamics
Direct
0.0000000000000000  -0.0000000000000000  0.0646239157572140  T  T  T
0.6666666666666643  0.3333333333333357  0.1410607167344646  T  T  T
0.3333333333333357  0.6666666666666643  0.2174975177117231  T  T  T
0.3333333333333357  0.6666666666666643  0.1029788520154841  T  T  T
0.0000000000000000  -0.0000000000000000  0.1791425814534450  T  T  T
0.3333333333333357  0.6666666666666643  0.0293604240979909  T  T  T
0.0000000000000000  0.0000000000000000  0.2527610093709461  T  T  T
0.3333333333333357  0.6666666666666643  0.0000000000000000  T  T  T
0.0000000000000000  0.0000000000000000  0.2821214334689372  T  T  T

0.00000000E+00  0.00000000E+00  0.00000000E+00
0.00000000E+00  0.00000000E+00  0.00000000E+00
0.00000000E+00  0.00000000E+00  0.00000000E+00
0.00000000E+00  0.00000000E+00  0.00000000E+00
0.00000000E+00  0.00000000E+00  0.00000000E+00
0.00000000E+00  0.00000000E+00  0.00000000E+00
0.00000000E+00  0.00000000E+00  0.00000000E+00
0.00000000E+00  0.00000000E+00  0.00000000E+00
0.00000000E+00  0.00000000E+00  0.00000000E+00
