Ti3N2  (n=2)
1.00000000000000
2.9726987390495392  0.0000000000000000  0.0000000000000000
-1.4863493695247696  2.5744326258436638  0.0000000000000000
-0.0000000000000001  -0.0000000000000006  34.3621968883234885
Ti  N  H
3  4  2
Selective  dynamics
Direct
-0.0000000000000000  0.0000000000000000  0.0627932086378357  T  T  T
0.6666666666666643  0.3333333333333357  0.1362281480248509  T  T  T
0.3333333333333357  0.6666666666666643  0.2096630874118664  T  T  T
0.3333333333333357  0.6666666666666643  0.1007316683290154  T  T  T
-0.0000000000000000  -0.0000000000000000  0.1717246277206865  T  T  T
0.3333333333333357  0.6666666666666643  0.0298395809337200  T  T  T
0.0000000000000000  0.0000000000000000  0.2426167151159900  T  T  T
0.3333333333333357  0.6666666666666643  0.0000000000000000  T  T  T
-0.0000000000000000  0.0000000000000000  0.2724562960497099  T  T  T

0.00000000E+00  0.00000000E+00  0.00000000E+00
0.00000000E+00  0.00000000E+00  0.00000000E+00
0.00000000E+00  0.00000000E+00  0.00000000E+00
0.00000000E+00  0.00000000E+00  0.00000000E+00
0.00000000E+00  0.00000000E+00  0.00000000E+00
0.00000000E+00  0.00000000E+00  0.00000000E+00
0.00000000E+00  0.00000000E+00  0.00000000E+00
0.00000000E+00  0.00000000E+00  0.00000000E+00
0.00000000E+00  0.00000000E+00  0.00000000E+00
