Sc3C2  (n=2)
1.00000000000000
3.3287606194881425  0.0000000000000000  0.0000000000000000
-1.6643803097440713  2.8827912597742844  0.0000000000000000
-0.0000000000000001  0.0000000000000004  34.6240852886002273
Sc  C  N  H
3  2  2  2
Selective  dynamics
Direct
-0.0000000000000000  0.0000000000000000  0.0561909541485626  T  T  T
0.6666666666666643  0.3333333333333357  0.1389796323625675  T  T  T
0.3333333333333357  0.6666666666666643  0.2217683105765882  T  T  T
0.3333333333333357  0.6666666666666643  0.1046888301553763  T  T  T
0.0000000000000000  -0.0000000000000000  0.1732704345697665  T  T  T
0.3333333333333357  0.6666666666666643  0.0298339174978234  T  T  T
-0.0000000000000000  -0.0000000000000000  0.2481253472273274  T  T  T
0.3333333333333357  0.6666666666666643  0.0000000000000000  T  T  T
-0.0000000000000000  -0.0000000000000000  0.2779592647251506  T  T  T

0.00000000E+00  0.00000000E+00  0.00000000E+00
0.00000000E+00  0.00000000E+00  0.00000000E+00
0.00000000E+00  0.00000000E+00  0.00000000E+00
0.00000000E+00  0.00000000E+00  0.00000000E+00
0.00000000E+00  0.00000000E+00  0.00000000E+00
0.00000000E+00  0.00000000E+00  0.00000000E+00
0.00000000E+00  0.00000000E+00  0.00000000E+00
0.00000000E+00  0.00000000E+00  0.00000000E+00
0.00000000E+00  0.00000000E+00  0.00000000E+00
