Mo3N2  (n=2)
1.00000000000000
2.8787851378726699  0.0000000000000000  0.0000000000000000
-1.4393925689363349  2.4931010614769846  0.0000000000000000
0.0000000000000000  0.0000000000000007  35.2280273740981684
Mo  N  H
3  4  2
Selective  dynamics
Direct
-0.0000000000000000  -0.0000000000000000  0.0641776118777350  T  T  T
0.6666666666666643  0.3333333333333357  0.1451824794891498  T  T  T
0.3333333333333357  0.6666666666666643  0.2261663222358324  T  T  T
0.3333333333333357  0.6666666666666643  0.1026974051247032  T  T  T
-0.0000000000000000  -0.0000000000000000  0.1876331735640146  T  T  T
0.3333333333333357  0.6666666666666643  0.0290272117600032  T  T  T
0.0000000000000000  -0.0000000000000000  0.2613157435381428  T  T  T
0.3333333333333357  0.6666666666666643  0.0000000000000000  T  T  T
-0.0000000000000000  0.0000000000000000  0.2903377831941407  T  T  T

0.00000000E+00  0.00000000E+00  0.00000000E+00
0.00000000E+00  0.00000000E+00  0.00000000E+00
0.00000000E+00  0.00000000E+00  0.00000000E+00
0.00000000E+00  0.00000000E+00  0.00000000E+00
0.00000000E+00  0.00000000E+00  0.00000000E+00
0.00000000E+00  0.00000000E+00  0.00000000E+00
0.00000000E+00  0.00000000E+00  0.00000000E+00
0.00000000E+00  0.00000000E+00  0.00000000E+00
0.00000000E+00  0.00000000E+00  0.00000000E+00
