Ta3C2  (n=2)
1.00000000000000
3.0937606936345130  0.0000000000000000  0.0000000000000000
-1.5468803468172565  2.6792753540041989  0.0000000000000000
0.0000000000000000  0.0000000000000001  34.7982096942230186
Ta  C  N  H
3  2  2  2
Selective  dynamics
Direct
0.0000000000000000  0.0000000000000000  0.0646795983058550  T  T  T
0.6666666666666643  0.3333333333333357  0.1407861177388337  T  T  T
0.3333333333333357  0.6666666666666643  0.2168926371718124  T  T  T
0.3333333333333357  0.6666666666666643  0.1031455770197746  T  T  T
-0.0000000000000000  0.0000000000000000  0.1784266584578848  T  T  T
0.3333333333333357  0.6666666666666643  0.0294375173838854  T  T  T
-0.0000000000000000  0.0000000000000000  0.2521347180937821  T  T  T
0.3333333333333357  0.6666666666666643  0.0000000000000000  T  T  T
-0.0000000000000000  0.0000000000000000  0.2815722354776675  T  T  T

0.00000000E+00  0.00000000E+00  0.00000000E+00
0.00000000E+00  0.00000000E+00  0.00000000E+00
0.00000000E+00  0.00000000E+00  0.00000000E+00
0.00000000E+00  0.00000000E+00  0.00000000E+00
0.00000000E+00  0.00000000E+00  0.00000000E+00
0.00000000E+00  0.00000000E+00  0.00000000E+00
0.00000000E+00  0.00000000E+00  0.00000000E+00
0.00000000E+00  0.00000000E+00  0.00000000E+00
0.00000000E+00  0.00000000E+00  0.00000000E+00
