Zr2N  (n=1)
1.00000000000000
3.4235179406450800  -0.0000000000000003  -0.0000000000000000
-1.7117589703225400  2.9648535075846003  0.0000000000000000
0.0000000000000000  0.0000000000000000  30.9838258998814133
Zr  N  S
2  1  2
Selective  dynamics
Direct
0.0000000000000000  0.0000000000000000  0.0505298823894463  T  T  T
0.0000000000000000  0.0000000000000000  0.1425975228321379  T  T  T
0.3333333333333357  0.6666666666666643  0.0965637026107954  T  T  T
0.6666666666666643  0.3333333333333357  0.0000000000000000  T  T  T
0.6666666666666643  0.3333333333333357  0.1931274052215842  T  T  T

0.00000000E+00  0.00000000E+00  0.00000000E+00
0.00000000E+00  0.00000000E+00  0.00000000E+00
0.00000000E+00  0.00000000E+00  0.00000000E+00
0.00000000E+00  0.00000000E+00  0.00000000E+00
0.00000000E+00  0.00000000E+00  0.00000000E+00
