Hf2C  (n=1)
1.00000000000000
3.4461420950790607  0.0000000000000000  -0.0000000000000000
-1.7230710475395303  2.9844466000625345  0.0000000000000000
-0.0000000000000000  0.0000000000000000  30.9139220827830599
Hf  C  S
2  1  2
Selective  dynamics
Direct
0.0000000000000000  -0.0000000000000000  0.0487213194714525  T  T  T
0.0000000000000000  -0.0000000000000000  0.1425815526437849  T  T  T
0.3333333333333357  0.6666666666666643  0.0956514360576221  T  T  T
0.6666666666666643  0.3333333333333357  0.0000000000000000  T  T  T
0.6666666666666643  0.3333333333333357  0.1913028721152373  T  T  T

0.00000000E+00  0.00000000E+00  0.00000000E+00
0.00000000E+00  0.00000000E+00  0.00000000E+00
0.00000000E+00  0.00000000E+00  0.00000000E+00
0.00000000E+00  0.00000000E+00  0.00000000E+00
0.00000000E+00  0.00000000E+00  0.00000000E+00
