Cr2N  (n=1)
1.00000000000000
2.8715737452251808  0.0000000000000000  0.0000000000000000
-1.4357868726125904  2.4868558124210822  0.0000000000000000
0.0000000000000000  0.0000000000000000  30.5890335739117809
Cr  N  S
2  1  2
Selective  dynamics
Direct
-0.0000000000000000  0.0000000000000000  0.0502663753871604  T  T  T
-0.0000000000000000  0.0000000000000000  0.1324472615248098  T  T  T
0.3333333333333357  0.6666666666666643  0.0913568184559851  T  T  T
0.6666666666666643  0.3333333333333357  0.0000000000000000  T  T  T
0.6666666666666643  0.3333333333333357  0.1827136369119702  T  T  T

0.00000000E+00  0.00000000E+00  0.00000000E+00
0.00000000E+00  0.00000000E+00  0.00000000E+00
0.00000000E+00  0.00000000E+00  0.00000000E+00
0.00000000E+00  0.00000000E+00  0.00000000E+00
0.00000000E+00  0.00000000E+00  0.00000000E+00
