Ta2N  (n=1)
1.00000000000000
3.1363444866666126  -0.0000000000000002  0.0000000000000000
-1.5681722433333063  2.7161540007319611  0.0000000000000000
0.0000000000000000  0.0000000000000000  31.1340527572596031
Ta  N  S
2  1  2
Selective  dynamics
Direct
-0.0000000000000000  0.0000000000000000  0.0526397060775816  T  T  T
0.0000000000000000  0.0000000000000000  0.1443809903632091  T  T  T
0.3333333333333357  0.6666666666666643  0.0985103482203953  T  T  T
0.6666666666666643  0.3333333333333357  0.0000000000000000  T  T  T
0.6666666666666643  0.3333333333333357  0.1970206964407905  T  T  T

0.00000000E+00  0.00000000E+00  0.00000000E+00
0.00000000E+00  0.00000000E+00  0.00000000E+00
0.00000000E+00  0.00000000E+00  0.00000000E+00
0.00000000E+00  0.00000000E+00  0.00000000E+00
0.00000000E+00  0.00000000E+00  0.00000000E+00
