Ta2C  (n=1)
1.00000000000000
3.2653129436411472  -0.0000000000000029  0.0000000000000000
-1.6326564718205752  2.8278439608821371  0.0000000000000000
-0.0000000000000000  -0.0000000000000000  30.8821642591604117
Ta  C  S
2  1  2
Selective  dynamics
Direct
-0.0000000000000000  -0.0000000000000000  0.0514707155895684  T  T  T
-0.0000000000000000  -0.0000000000000000  0.1390005289060507  T  T  T
0.3333333333333357  0.6666666666666643  0.0952356222478096  T  T  T
0.6666666666666643  0.3333333333333357  0.0000000000000000  T  T  T
0.6666666666666643  0.3333333333333357  0.1904712444956191  T  T  T

0.00000000E+00  0.00000000E+00  0.00000000E+00
0.00000000E+00  0.00000000E+00  0.00000000E+00
0.00000000E+00  0.00000000E+00  0.00000000E+00
0.00000000E+00  0.00000000E+00  0.00000000E+00
0.00000000E+00  0.00000000E+00  0.00000000E+00
