Zr2C  (n=1)
1.00000000000000
3.4960853716242650  0.0000000000000001  -0.0000000000000000
-1.7480426858121325  3.0276987464511183  0.0000000000000000
-0.0000000000000000  0.0000000000000000  30.9886021728294097
Zr  C  S
2  1  2
Selective  dynamics
Direct
-0.0000000000000000  0.0000000000000000  0.0489048898629108  T  T  T
-0.0000000000000000  0.0000000000000000  0.1443468786237676  T  T  T
0.3333333333333357  0.6666666666666643  0.0966258842433391  T  T  T
0.6666666666666643  0.3333333333333357  0.0000000000000000  T  T  T
0.6666666666666643  0.3333333333333357  0.1932517684866784  T  T  T

0.00000000E+00  0.00000000E+00  0.00000000E+00
0.00000000E+00  0.00000000E+00  0.00000000E+00
0.00000000E+00  0.00000000E+00  0.00000000E+00
0.00000000E+00  0.00000000E+00  0.00000000E+00
0.00000000E+00  0.00000000E+00  0.00000000E+00
