Ti2N  (n=1)
1.00000000000000
3.1557605448023929  0.0000000000000000  0.0000000000000000
-1.5778802724011964  2.7329688002560979  0.0000000000000000
0.0000000000000000  0.0000000000000000  30.6388359326912152
Ti  N  S
2  1  2
Selective  dynamics
Direct
0.0000000000000000  -0.0000000000000000  0.0501291026364657  T  T  T
0.0000000000000000  -0.0000000000000000  0.1339130047425179  T  T  T
0.3333333333333357  0.6666666666666643  0.0920210536894918  T  T  T
0.6666666666666643  0.3333333333333357  0.0000000000000000  T  T  T
0.6666666666666643  0.3333333333333357  0.1840421073789770  T  T  T

0.00000000E+00  0.00000000E+00  0.00000000E+00
0.00000000E+00  0.00000000E+00  0.00000000E+00
0.00000000E+00  0.00000000E+00  0.00000000E+00
0.00000000E+00  0.00000000E+00  0.00000000E+00
0.00000000E+00  0.00000000E+00  0.00000000E+00
