Nb2C  (n=1)
1.00000000000000
3.2715204760728240  0.0000000000000000  0.0000000000000000
-1.6357602380364118  2.8332198417291488  -0.0000000000000000
0.0000000000000000  -0.0000000000000000  30.9302076396268397
Nb  C  S
2  1  2
Selective  dynamics
Direct
-0.0000000000000000  -0.0000000000000000  0.0519432732078728  T  T  T
0.0000000000000000  0.0000000000000000  0.1397853989278176  T  T  T
0.3333333333333357  0.6666666666666643  0.0958643360678453  T  T  T
0.6666666666666643  0.3333333333333357  0.0000000000000000  T  T  T
0.6666666666666643  0.3333333333333357  0.1917286721356903  T  T  T

0.00000000E+00  0.00000000E+00  0.00000000E+00
0.00000000E+00  0.00000000E+00  0.00000000E+00
0.00000000E+00  0.00000000E+00  0.00000000E+00
0.00000000E+00  0.00000000E+00  0.00000000E+00
0.00000000E+00  0.00000000E+00  0.00000000E+00
