Mo2C  (n=1)
1.00000000000000
3.0481200593627387  0.0000000000000000  -0.0000000000000000
-1.5240600296813693  2.6397494053898338  0.0000000000000000
0.0000000000000000  0.0000000000000000  31.0927367847044067
Mo  C  S
2  1  2
Selective  dynamics
Direct
0.0000000000000000  0.0000000000000000  0.0529900858861339  T  T  T
-0.0000000000000000  0.0000000000000000  0.1429636131044818  T  T  T
0.3333333333333357  0.6666666666666643  0.0979768494953078  T  T  T
0.6666666666666643  0.3333333333333357  0.0000000000000000  T  T  T
0.6666666666666643  0.3333333333333357  0.1959536989906155  T  T  T

0.00000000E+00  0.00000000E+00  0.00000000E+00
0.00000000E+00  0.00000000E+00  0.00000000E+00
0.00000000E+00  0.00000000E+00  0.00000000E+00
0.00000000E+00  0.00000000E+00  0.00000000E+00
0.00000000E+00  0.00000000E+00  0.00000000E+00
