Sc2C  (n=1)
1.00000000000000
3.4861511170370547  -0.0000000000000001  -0.0000000000000000
-1.7430755585185276  3.0190954293342358  0.0000000000000000
-0.0000000000000000  -0.0000000000000000  30.8879978525655829
Sc  C  S
2  1  2
Selective  dynamics
Direct
-0.0000000000000000  0.0000000000000000  0.0460116720395422  T  T  T
-0.0000000000000000  0.0000000000000000  0.1446124623142075  T  T  T
0.3333333333333357  0.6666666666666643  0.0953120671768714  T  T  T
0.6666666666666643  0.3333333333333357  0.0000000000000000  T  T  T
0.6666666666666643  0.3333333333333357  0.1906241343537428  T  T  T

0.00000000E+00  0.00000000E+00  0.00000000E+00
0.00000000E+00  0.00000000E+00  0.00000000E+00
0.00000000E+00  0.00000000E+00  0.00000000E+00
0.00000000E+00  0.00000000E+00  0.00000000E+00
0.00000000E+00  0.00000000E+00  0.00000000E+00
