Ti2C  (n=1)
1.00000000000000
3.2140052502629284  -0.0000000000000000  -0.0000000000000000
-1.6070026251314644  2.7834101949051893  0.0000000000000000
0.0000000000000000  -0.0000000000000000  30.6679232386212313
Ti  C  S
2  1  2
Selective  dynamics
Direct
0.0000000000000000  -0.0000000000000000  0.0485831910804845  T  T  T
0.0000000000000000  0.0000000000000000  0.1362328199196804  T  T  T
0.3333333333333357  0.6666666666666643  0.0924080055000788  T  T  T
0.6666666666666643  0.3333333333333357  0.0000000000000000  T  T  T
0.6666666666666643  0.3333333333333357  0.1848160110001648  T  T  T

0.00000000E+00  0.00000000E+00  0.00000000E+00
0.00000000E+00  0.00000000E+00  0.00000000E+00
0.00000000E+00  0.00000000E+00  0.00000000E+00
0.00000000E+00  0.00000000E+00  0.00000000E+00
0.00000000E+00  0.00000000E+00  0.00000000E+00
