Cr2C  (n=1)
1.00000000000000
2.8836153045242550  0.0000000000000003  0.0000000000000000
-1.4418076522621275  2.4972841086090689  0.0000000000000000
0.0000000000000000  0.0000000000000000  30.6251527370317405
Cr  C  S
2  1  2
Selective  dynamics
Direct
-0.0000000000000000  0.0000000000000000  0.0501517741775242  T  T  T
0.0000000000000000  0.0000000000000000  0.1335257664810680  T  T  T
0.3333333333333357  0.6666666666666643  0.0918387703292960  T  T  T
0.6666666666666643  0.3333333333333357  0.0000000000000000  T  T  T
0.6666666666666643  0.3333333333333357  0.1836775406585921  T  T  T

0.00000000E+00  0.00000000E+00  0.00000000E+00
0.00000000E+00  0.00000000E+00  0.00000000E+00
0.00000000E+00  0.00000000E+00  0.00000000E+00
0.00000000E+00  0.00000000E+00  0.00000000E+00
0.00000000E+00  0.00000000E+00  0.00000000E+00
