Sc2N  (n=1)
1.00000000000000
3.3093793738069262  0.0000000000000001  0.0000000000000000
-1.6546896869034626  2.8660066088551335  0.0000000000000000
0.0000000000000000  0.0000000000000000  31.0772188804762486
Sc  N  S
2  1  2
Selective  dynamics
Direct
-0.0000000000000000  -0.0000000000000000  0.0531409345825672  T  T  T
-0.0000000000000000  -0.0000000000000000  0.1424112769537798  T  T  T
0.3333333333333357  0.6666666666666643  0.0977761057681699  T  T  T
0.6666666666666643  0.3333333333333357  0.0000000000000000  T  T  T
0.6666666666666643  0.3333333333333357  0.1955522115363470  T  T  T

0.00000000E+00  0.00000000E+00  0.00000000E+00
0.00000000E+00  0.00000000E+00  0.00000000E+00
0.00000000E+00  0.00000000E+00  0.00000000E+00
0.00000000E+00  0.00000000E+00  0.00000000E+00
0.00000000E+00  0.00000000E+00  0.00000000E+00
