Mo2N  (n=1)
1.00000000000000
3.0364945299067196  0.0000000000000000  0.0000000000000000
-1.5182472649533598  2.6296814015271752  0.0000000000000000
0.0000000000000000  0.0000000000000000  31.0711428917818324
Mo  N  S
2  1  2
Selective  dynamics
Direct
0.0000000000000000  0.0000000000000000  0.0521309346727165  T  T  T
0.0000000000000000  0.0000000000000000  0.1432639664072698  T  T  T
0.3333333333333357  0.6666666666666643  0.0976974505399966  T  T  T
0.6666666666666643  0.3333333333333357  0.0000000000000000  T  T  T
0.6666666666666643  0.3333333333333357  0.1953949010799863  T  T  T

0.00000000E+00  0.00000000E+00  0.00000000E+00
0.00000000E+00  0.00000000E+00  0.00000000E+00
0.00000000E+00  0.00000000E+00  0.00000000E+00
0.00000000E+00  0.00000000E+00  0.00000000E+00
0.00000000E+00  0.00000000E+00  0.00000000E+00
