Hf2N  (n=1)
1.00000000000000
3.3918606252650374  0.0000000000000000  0.0000000000000000
-1.6959303126325187  2.9374374681442821  0.0000000000000000
0.0000000000000000  0.0000000000000000  30.8719407281383234
Hf  N  S
2  1  2
Selective  dynamics
Direct
0.0000000000000000  -0.0000000000000000  0.0495015434045060  T  T  T
0.0000000000000000  -0.0000000000000000  0.1407016180956818  T  T  T
0.3333333333333357  0.6666666666666643  0.0951015807500906  T  T  T
0.6666666666666643  0.3333333333333357  0.0000000000000000  T  T  T
0.6666666666666643  0.3333333333333357  0.1902031615001880  T  T  T

0.00000000E+00  0.00000000E+00  0.00000000E+00
0.00000000E+00  0.00000000E+00  0.00000000E+00
0.00000000E+00  0.00000000E+00  0.00000000E+00
0.00000000E+00  0.00000000E+00  0.00000000E+00
0.00000000E+00  0.00000000E+00  0.00000000E+00
