Nb2N  (n=1)
1.00000000000000
3.1518661036655877  0.0000000000000000  0.0000000000000000
-1.5759330518327939  2.7295961154419497  0.0000000000000000
0.0000000000000000  0.0000000000000000  31.1563868900896068
Nb  N  S
2  1  2
Selective  dynamics
Direct
0.0000000000000000  0.0000000000000000  0.0529993800669809  T  T  T
0.0000000000000000  0.0000000000000000  0.1445969237601443  T  T  T
0.3333333333333357  0.6666666666666643  0.0987981519135660  T  T  T
0.6666666666666643  0.3333333333333357  0.0000000000000000  T  T  T
0.6666666666666643  0.3333333333333357  0.1975963038271251  T  T  T

0.00000000E+00  0.00000000E+00  0.00000000E+00
0.00000000E+00  0.00000000E+00  0.00000000E+00
0.00000000E+00  0.00000000E+00  0.00000000E+00
0.00000000E+00  0.00000000E+00  0.00000000E+00
0.00000000E+00  0.00000000E+00  0.00000000E+00
