Nb4C3  (n=3)
1.00000000000000
3.2349233654892480  0.0000000000000000  0.0000000000000000
-1.6174616827446240  2.8015258147209199  0.0000000000000000
0.0000000000000000  0.0000000000000005  36.1651208586705764
Nb  C  Cl
4  3  2
Selective  dynamics
Direct
0.0000000000000000  0.0000000000000000  0.0514096617680873  T  T  T
0.6666666666666643  0.3333333333333357  0.1174645390066353  T  T  T
0.3333333333333357  0.6666666666666643  0.1912616754667704  T  T  T
-0.0000000000000000  -0.0000000000000000  0.2573165527053184  T  T  T
0.3333333333333357  0.6666666666666643  0.0826848152381988  T  T  T
0.0000000000000000  -0.0000000000000000  0.1543631072367065  T  T  T
0.6666666666666643  0.3333333333333357  0.2260413992351996  T  T  T
0.6666666666666643  0.3333333333333357  0.0000000000000000  T  T  T
0.3333333333333357  0.6666666666666643  0.3087262144734058  T  T  T

0.00000000E+00  0.00000000E+00  0.00000000E+00
0.00000000E+00  0.00000000E+00  0.00000000E+00
0.00000000E+00  0.00000000E+00  0.00000000E+00
0.00000000E+00  0.00000000E+00  0.00000000E+00
0.00000000E+00  0.00000000E+00  0.00000000E+00
0.00000000E+00  0.00000000E+00  0.00000000E+00
0.00000000E+00  0.00000000E+00  0.00000000E+00
0.00000000E+00  0.00000000E+00  0.00000000E+00
0.00000000E+00  0.00000000E+00  0.00000000E+00
