Cr4C3  (n=3)
1.00000000000000
3.0826120563935793  0.0000000000000001  -0.0000000000000001
-1.5413060281967896  2.6696203508188385  0.0000000000000005
-0.0000000000000002  0.0000000000000055  34.7993603855430678
Cr  C  Cl
4  3  2
Selective  dynamics
Direct
0.0000000000000000  0.0000000000000000  0.0490300167076858  T  T  T
0.6666666666666643  0.3333333333333357  0.1110212275995452  T  T  T
0.3333333333333357  0.6666666666666643  0.1705747637340794  T  T  T
-0.0000000000000000  -0.0000000000000000  0.2325659746259389  T  T  T
0.3333333333333357  0.6666666666666643  0.0746931831562459  T  T  T
0.0000000000000000  0.0000000000000000  0.1407979956668123  T  T  T
0.6666666666666643  0.3333333333333357  0.2069028081773717  T  T  T
0.6666666666666643  0.3333333333333357  0.0000000000000000  T  T  T
0.3333333333333357  0.6666666666666643  0.2815959913336246  T  T  T

0.00000000E+00  0.00000000E+00  0.00000000E+00
0.00000000E+00  0.00000000E+00  0.00000000E+00
0.00000000E+00  0.00000000E+00  0.00000000E+00
0.00000000E+00  0.00000000E+00  0.00000000E+00
0.00000000E+00  0.00000000E+00  0.00000000E+00
0.00000000E+00  0.00000000E+00  0.00000000E+00
0.00000000E+00  0.00000000E+00  0.00000000E+00
0.00000000E+00  0.00000000E+00  0.00000000E+00
0.00000000E+00  0.00000000E+00  0.00000000E+00
