Nb4N3  (n=3)
1.00000000000000
3.2678084792811664  -0.0000000000000001  0.0000000000000000
-1.6339042396405832  2.8300051584114718  0.0000000000000001
-0.0000000000000002  0.0000000000000003  35.7638613193353905
Nb  N  Cl
4  3  2
Selective  dynamics
Direct
0.0000000000000000  0.0000000000000000  0.0521725390201604  T  T  T
0.6666666666666643  0.3333333333333357  0.1135108671076091  T  T  T
0.3333333333333357  0.6666666666666643  0.1874594678130150  T  T  T
-0.0000000000000000  -0.0000000000000000  0.2487977959004638  T  T  T
0.3333333333333357  0.6666666666666643  0.0798435632564850  T  T  T
0.0000000000000000  -0.0000000000000000  0.1504851674603158  T  T  T
0.6666666666666643  0.3333333333333357  0.2211267716641392  T  T  T
0.6666666666666643  0.3333333333333357  0.0000000000000000  T  T  T
0.3333333333333357  0.6666666666666643  0.3009703349206315  T  T  T

0.00000000E+00  0.00000000E+00  0.00000000E+00
0.00000000E+00  0.00000000E+00  0.00000000E+00
0.00000000E+00  0.00000000E+00  0.00000000E+00
0.00000000E+00  0.00000000E+00  0.00000000E+00
0.00000000E+00  0.00000000E+00  0.00000000E+00
0.00000000E+00  0.00000000E+00  0.00000000E+00
0.00000000E+00  0.00000000E+00  0.00000000E+00
0.00000000E+00  0.00000000E+00  0.00000000E+00
0.00000000E+00  0.00000000E+00  0.00000000E+00
