Hf4C3  (n=3)
1.00000000000000
3.3581631886723029  -0.0000000000000002  0.0000000000000000
-1.6790815943361515  2.9082546327036498  -0.0000000000000001
-0.0000000000000008  0.0000000000000010  36.2207256644832967
Hf  C  Cl
4  3  2
Selective  dynamics
Direct
-0.0000000000000000  -0.0000000000000000  0.0501802949303008  T  T  T
0.6666666666666643  0.3333333333333357  0.1200785301710237  T  T  T
0.3333333333333357  0.6666666666666643  0.1897089039191202  T  T  T
-0.0000000000000000  0.0000000000000000  0.2596071391598430  T  T  T
0.3333333333333357  0.6666666666666643  0.0799466659586727  T  T  T
0.0000000000000000  -0.0000000000000000  0.1548937170450756  T  T  T
0.6666666666666643  0.3333333333333357  0.2298407681314637  T  T  T
0.6666666666666643  0.3333333333333357  0.0000000000000000  T  T  T
0.3333333333333357  0.6666666666666643  0.3097874340901438  T  T  T

0.00000000E+00  0.00000000E+00  0.00000000E+00
0.00000000E+00  0.00000000E+00  0.00000000E+00
0.00000000E+00  0.00000000E+00  0.00000000E+00
0.00000000E+00  0.00000000E+00  0.00000000E+00
0.00000000E+00  0.00000000E+00  0.00000000E+00
0.00000000E+00  0.00000000E+00  0.00000000E+00
0.00000000E+00  0.00000000E+00  0.00000000E+00
0.00000000E+00  0.00000000E+00  0.00000000E+00
0.00000000E+00  0.00000000E+00  0.00000000E+00
