Mo4C3  (n=3)
1.00000000000000
3.1983138463556657  0.0000000000000001  -0.0000000000000001
-1.5991569231778329  2.7698210408549127  -0.0000000000000000
-0.0000000000000013  -0.0000000000000008  35.7612515434734206
Mo  C  Cl
4  3  2
Selective  dynamics
Direct
-0.0000000000000000  -0.0000000000000000  0.0535040041082799  T  T  T
0.6666666666666643  0.3333333333333357  0.1138795928810439  T  T  T
0.3333333333333357  0.6666666666666643  0.1870397284237960  T  T  T
0.0000000000000000  0.0000000000000000  0.2474153171965528  T  T  T
0.3333333333333357  0.6666666666666643  0.0793345465751916  T  T  T
-0.0000000000000000  -0.0000000000000000  0.1504596606524163  T  T  T
0.6666666666666643  0.3333333333333357  0.2215847747296408  T  T  T
0.6666666666666643  0.3333333333333357  0.0000000000000000  T  T  T
0.3333333333333357  0.6666666666666643  0.3009193213048326  T  T  T

0.00000000E+00  0.00000000E+00  0.00000000E+00
0.00000000E+00  0.00000000E+00  0.00000000E+00
0.00000000E+00  0.00000000E+00  0.00000000E+00
0.00000000E+00  0.00000000E+00  0.00000000E+00
0.00000000E+00  0.00000000E+00  0.00000000E+00
0.00000000E+00  0.00000000E+00  0.00000000E+00
0.00000000E+00  0.00000000E+00  0.00000000E+00
0.00000000E+00  0.00000000E+00  0.00000000E+00
0.00000000E+00  0.00000000E+00  0.00000000E+00
