Ta4C3  (n=3)
1.00000000000000
3.2127138198335716  -0.0000000000000000  0.0000000000000000
-1.6063569099167858  2.7822917838524885  -0.0000000000000001
0.0000000000000002  -0.0000000000000019  36.1298770250150341
Ta  C  Cl
4  3  2
Selective  dynamics
Direct
-0.0000000000000000  -0.0000000000000000  0.0515772775412948  T  T  T
0.6666666666666643  0.3333333333333357  0.1172908338467119  T  T  T
0.3333333333333357  0.6666666666666643  0.1907610595297689  T  T  T
0.0000000000000000  0.0000000000000000  0.2564746158351788  T  T  T
0.3333333333333357  0.6666666666666643  0.0827723733917344  T  T  T
0.0000000000000000  0.0000000000000000  0.1540259466882405  T  T  T
0.6666666666666643  0.3333333333333357  0.2252795199847391  T  T  T
0.6666666666666643  0.3333333333333357  0.0000000000000000  T  T  T
0.3333333333333357  0.6666666666666643  0.3080518933764737  T  T  T

0.00000000E+00  0.00000000E+00  0.00000000E+00
0.00000000E+00  0.00000000E+00  0.00000000E+00
0.00000000E+00  0.00000000E+00  0.00000000E+00
0.00000000E+00  0.00000000E+00  0.00000000E+00
0.00000000E+00  0.00000000E+00  0.00000000E+00
0.00000000E+00  0.00000000E+00  0.00000000E+00
0.00000000E+00  0.00000000E+00  0.00000000E+00
0.00000000E+00  0.00000000E+00  0.00000000E+00
0.00000000E+00  0.00000000E+00  0.00000000E+00
