Zr4N3  (n=3)
1.00000000000000
3.3034810826291814  -0.0000000000000003  0.0000000000000000
-1.6517405413145905  2.8608985395963842  -0.0000000000000001
-0.0000000000000003  -0.0000000000000018  36.4532538381980160
Zr  N  Cl
4  3  2
Selective  dynamics
Direct
0.0000000000000000  0.0000000000000000  0.0505158402606417  T  T  T
0.6666666666666643  0.3333333333333357  0.1194730183395433  T  T  T
0.3333333333333357  0.6666666666666643  0.1947171466601119  T  T  T
-0.0000000000000000  -0.0000000000000000  0.2636743247390210  T  T  T
0.3333333333333357  0.6666666666666643  0.0853276310182652  T  T  T
0.0000000000000000  0.0000000000000000  0.1570950824998276  T  T  T
0.6666666666666643  0.3333333333333357  0.2288625339813826  T  T  T
0.6666666666666643  0.3333333333333357  0.0000000000000000  T  T  T
0.3333333333333357  0.6666666666666643  0.3141901649996625  T  T  T

0.00000000E+00  0.00000000E+00  0.00000000E+00
0.00000000E+00  0.00000000E+00  0.00000000E+00
0.00000000E+00  0.00000000E+00  0.00000000E+00
0.00000000E+00  0.00000000E+00  0.00000000E+00
0.00000000E+00  0.00000000E+00  0.00000000E+00
0.00000000E+00  0.00000000E+00  0.00000000E+00
0.00000000E+00  0.00000000E+00  0.00000000E+00
0.00000000E+00  0.00000000E+00  0.00000000E+00
0.00000000E+00  0.00000000E+00  0.00000000E+00
