Ti4C3  (n=3)
1.00000000000000
3.1635269618193327  0.0000000000000002  0.0000000000000000
-1.5817634809096663  2.7396947148155131  -0.0000000000000001
0.0000000000000007  -0.0000000000000009  35.4831503710393363
Ti  C  Cl
4  3  2
Selective  dynamics
Direct
0.0000000000000000  -0.0000000000000000  0.0484359317686503  T  T  T
0.6666666666666643  0.3333333333333357  0.1146908207613868  T  T  T
0.3333333333333357  0.6666666666666643  0.1807494166870678  T  T  T
-0.0000000000000000  0.0000000000000000  0.2470043056798119  T  T  T
0.3333333333333357  0.6666666666666643  0.0772840770781542  T  T  T
-0.0000000000000000  -0.0000000000000000  0.1477201187242311  T  T  T
0.6666666666666643  0.3333333333333357  0.2181561603703003  T  T  T
0.6666666666666643  0.3333333333333357  0.0000000000000000  T  T  T
0.3333333333333357  0.6666666666666643  0.2954402374484618  T  T  T

0.00000000E+00  0.00000000E+00  0.00000000E+00
0.00000000E+00  0.00000000E+00  0.00000000E+00
0.00000000E+00  0.00000000E+00  0.00000000E+00
0.00000000E+00  0.00000000E+00  0.00000000E+00
0.00000000E+00  0.00000000E+00  0.00000000E+00
0.00000000E+00  0.00000000E+00  0.00000000E+00
0.00000000E+00  0.00000000E+00  0.00000000E+00
0.00000000E+00  0.00000000E+00  0.00000000E+00
0.00000000E+00  0.00000000E+00  0.00000000E+00
