Ta4N3  (n=3)
1.00000000000000
3.1157863623859168  -0.0000000000000002  0.0000000000000001
-1.5578931811929586  2.6983501430599182  0.0000000000000000
0.0000000000000005  -0.0000000000000001  36.3704080884070962
Ta  N  Cl
4  3  2
Selective  dynamics
Direct
-0.0000000000000000  0.0000000000000000  0.0509566353671616  T  T  T
0.6666666666666643  0.3333333333333357  0.1213828441655862  T  T  T
0.3333333333333357  0.6666666666666643  0.1912451599186361  T  T  T
0.0000000000000000  0.0000000000000000  0.2616713687170533  T  T  T
0.3333333333333357  0.6666666666666643  0.0862344959905186  T  T  T
0.0000000000000000  0.0000000000000000  0.1563140020421074  T  T  T
0.6666666666666643  0.3333333333333357  0.2263935080936889  T  T  T
0.6666666666666643  0.3333333333333357  0.0000000000000000  T  T  T
0.3333333333333357  0.6666666666666643  0.3126280040842149  T  T  T

0.00000000E+00  0.00000000E+00  0.00000000E+00
0.00000000E+00  0.00000000E+00  0.00000000E+00
0.00000000E+00  0.00000000E+00  0.00000000E+00
0.00000000E+00  0.00000000E+00  0.00000000E+00
0.00000000E+00  0.00000000E+00  0.00000000E+00
0.00000000E+00  0.00000000E+00  0.00000000E+00
0.00000000E+00  0.00000000E+00  0.00000000E+00
0.00000000E+00  0.00000000E+00  0.00000000E+00
0.00000000E+00  0.00000000E+00  0.00000000E+00
