Hf4N3  (n=3)
1.00000000000000
3.2917559153854135  0.0000000000000001  0.0000000000000000
-1.6458779576927074  2.8507442466197692  -0.0000000000000001
0.0000000000000001  -0.0000000000000010  36.0208558154092628
Hf  N  Cl
4  3  2
Selective  dynamics
Direct
-0.0000000000000000  0.0000000000000000  0.0505777699808017  T  T  T
0.6666666666666643  0.3333333333333357  0.1170387163434236  T  T  T
0.3333333333333357  0.6666666666666643  0.1889189175308651  T  T  T
-0.0000000000000000  -0.0000000000000000  0.2553798638934869  T  T  T
0.3333333333333357  0.6666666666666643  0.0820937904320317  T  T  T
-0.0000000000000000  -0.0000000000000000  0.1529788169371443  T  T  T
0.6666666666666643  0.3333333333333357  0.2238638434422424  T  T  T
0.6666666666666643  0.3333333333333357  0.0000000000000000  T  T  T
0.3333333333333357  0.6666666666666643  0.3059576338742814  T  T  T

0.00000000E+00  0.00000000E+00  0.00000000E+00
0.00000000E+00  0.00000000E+00  0.00000000E+00
0.00000000E+00  0.00000000E+00  0.00000000E+00
0.00000000E+00  0.00000000E+00  0.00000000E+00
0.00000000E+00  0.00000000E+00  0.00000000E+00
0.00000000E+00  0.00000000E+00  0.00000000E+00
0.00000000E+00  0.00000000E+00  0.00000000E+00
0.00000000E+00  0.00000000E+00  0.00000000E+00
0.00000000E+00  0.00000000E+00  0.00000000E+00
