Sc4N3  (n=3)
1.00000000000000
3.2733906050426493  -0.0000000000000001  0.0000000000000000
-1.6366953025213247  2.8348394211149177  -0.0000000000000002
-0.0000000000000004  -0.0000000000000022  35.9892091892872230
Sc  N  Cl
4  3  2
Selective  dynamics
Direct
0.0000000000000000  0.0000000000000000  0.0484025859740657  T  T  T
0.6666666666666643  0.3333333333333357  0.1181449326134240  T  T  T
0.3333333333333357  0.6666666666666643  0.1872024044588949  T  T  T
-0.0000000000000000  -0.0000000000000000  0.2569447510982534  T  T  T
0.3333333333333357  0.6666666666666643  0.0789275233571235  T  T  T
-0.0000000000000000  0.0000000000000000  0.1526736685361595  T  T  T
0.6666666666666643  0.3333333333333357  0.2264198137151882  T  T  T
0.6666666666666643  0.3333333333333357  0.0000000000000000  T  T  T
0.3333333333333357  0.6666666666666643  0.3053473370723117  T  T  T

0.00000000E+00  0.00000000E+00  0.00000000E+00
0.00000000E+00  0.00000000E+00  0.00000000E+00
0.00000000E+00  0.00000000E+00  0.00000000E+00
0.00000000E+00  0.00000000E+00  0.00000000E+00
0.00000000E+00  0.00000000E+00  0.00000000E+00
0.00000000E+00  0.00000000E+00  0.00000000E+00
0.00000000E+00  0.00000000E+00  0.00000000E+00
0.00000000E+00  0.00000000E+00  0.00000000E+00
0.00000000E+00  0.00000000E+00  0.00000000E+00
