Zr4C3  (n=3)
1.00000000000000
3.4086767923220131  0.0000000000000004  -0.0000000000000001
-1.7043383961610059  2.9520006966942183  0.0000000000000001
-0.0000000000000002  0.0000000000000019  36.3975592836675901
Zr  C  Cl
4  3  2
Selective  dynamics
Direct
-0.0000000000000000  -0.0000000000000000  0.0502594232914605  T  T  T
0.6666666666666643  0.3333333333333357  0.1212522683957749  T  T  T
0.3333333333333357  0.6666666666666643  0.1918884890610563  T  T  T
0.0000000000000000  0.0000000000000000  0.2628813341653707  T  T  T
0.3333333333333357  0.6666666666666643  0.0807480933602980  T  T  T
0.0000000000000000  -0.0000000000000000  0.1565703787284156  T  T  T
0.6666666666666643  0.3333333333333357  0.2323926640965257  T  T  T
0.6666666666666643  0.3333333333333357  0.0000000000000000  T  T  T
0.3333333333333357  0.6666666666666643  0.3131407574568313  T  T  T

0.00000000E+00  0.00000000E+00  0.00000000E+00
0.00000000E+00  0.00000000E+00  0.00000000E+00
0.00000000E+00  0.00000000E+00  0.00000000E+00
0.00000000E+00  0.00000000E+00  0.00000000E+00
0.00000000E+00  0.00000000E+00  0.00000000E+00
0.00000000E+00  0.00000000E+00  0.00000000E+00
0.00000000E+00  0.00000000E+00  0.00000000E+00
0.00000000E+00  0.00000000E+00  0.00000000E+00
0.00000000E+00  0.00000000E+00  0.00000000E+00
