Mo4N3  (n=3)
1.00000000000000
2.9162682584937971  0.0000000000000001  -0.0000000000000001
-1.4581341292468988  2.5255623963650815  -0.0000000000000001
0.0000000000000016  -0.0000000000000018  37.2520519157525030
Mo  N  Cl
4  3  2
Selective  dynamics
Direct
0.0000000000000000  -0.0000000000000000  0.0502574709036718  T  T  T
0.6666666666666643  0.3333333333333357  0.1262256776218766  T  T  T
0.3333333333333357  0.6666666666666643  0.2026703505341340  T  T  T
-0.0000000000000000  0.0000000000000000  0.2786385572523387  T  T  T
0.3333333333333357  0.6666666666666643  0.0874327761580725  T  T  T
0.0000000000000000  0.0000000000000000  0.1644480140780052  T  T  T
0.6666666666666643  0.3333333333333357  0.2414632519979237  T  T  T
0.6666666666666643  0.3333333333333357  0.0000000000000000  T  T  T
0.3333333333333357  0.6666666666666643  0.3288960281560106  T  T  T

0.00000000E+00  0.00000000E+00  0.00000000E+00
0.00000000E+00  0.00000000E+00  0.00000000E+00
0.00000000E+00  0.00000000E+00  0.00000000E+00
0.00000000E+00  0.00000000E+00  0.00000000E+00
0.00000000E+00  0.00000000E+00  0.00000000E+00
0.00000000E+00  0.00000000E+00  0.00000000E+00
0.00000000E+00  0.00000000E+00  0.00000000E+00
0.00000000E+00  0.00000000E+00  0.00000000E+00
0.00000000E+00  0.00000000E+00  0.00000000E+00
