Ti4N3  (n=3)
1.00000000000000
3.0925853830966425  0.0000000000000001  0.0000000000000000
-1.5462926915483213  2.6782575053639182  0.0000000000000000
-0.0000000000000003  0.0000000000000004  35.4641278369348569
Ti  N  Cl
4  3  2
Selective  dynamics
Direct
-0.0000000000000000  -0.0000000000000000  0.0485976525984547  T  T  T
0.6666666666666643  0.3333333333333357  0.1121818949769090  T  T  T
0.3333333333333357  0.6666666666666643  0.1828804250397920  T  T  T
-0.0000000000000000  -0.0000000000000000  0.2464646674182462  T  T  T
0.3333333333333357  0.6666666666666643  0.0794327899703543  T  T  T
0.0000000000000000  0.0000000000000000  0.1475311600083470  T  T  T
0.6666666666666643  0.3333333333333357  0.2156295300463394  T  T  T
0.6666666666666643  0.3333333333333357  0.0000000000000000  T  T  T
0.3333333333333357  0.6666666666666643  0.2950623200167007  T  T  T

0.00000000E+00  0.00000000E+00  0.00000000E+00
0.00000000E+00  0.00000000E+00  0.00000000E+00
0.00000000E+00  0.00000000E+00  0.00000000E+00
0.00000000E+00  0.00000000E+00  0.00000000E+00
0.00000000E+00  0.00000000E+00  0.00000000E+00
0.00000000E+00  0.00000000E+00  0.00000000E+00
0.00000000E+00  0.00000000E+00  0.00000000E+00
0.00000000E+00  0.00000000E+00  0.00000000E+00
0.00000000E+00  0.00000000E+00  0.00000000E+00
