Sc4C3  (n=3)
1.00000000000000
3.3810065872805772  0.0000000000000002  -0.0000000000000002
-1.6905032936402888  2.9280375959760505  -0.0000000000000001
-0.0000000000000010  -0.0000000000000011  36.2409627254977735
Sc  C  Cl
4  3  2
Selective  dynamics
Direct
0.0000000000000000  -0.0000000000000000  0.0468075999087405  T  T  T
0.6666666666666643  0.3333333333333357  0.1171863126923113  T  T  T
0.3333333333333357  0.6666666666666643  0.1929865381406235  T  T  T
-0.0000000000000000  0.0000000000000000  0.2633652509241866  T  T  T
0.3333333333333357  0.6666666666666643  0.0805578053514938  T  T  T
0.0000000000000000  -0.0000000000000000  0.1550864254164674  T  T  T
0.6666666666666643  0.3333333333333357  0.2296150454814334  T  T  T
0.6666666666666643  0.3333333333333357  0.0000000000000000  T  T  T
0.3333333333333357  0.6666666666666643  0.3101728508329349  T  T  T

0.00000000E+00  0.00000000E+00  0.00000000E+00
0.00000000E+00  0.00000000E+00  0.00000000E+00
0.00000000E+00  0.00000000E+00  0.00000000E+00
0.00000000E+00  0.00000000E+00  0.00000000E+00
0.00000000E+00  0.00000000E+00  0.00000000E+00
0.00000000E+00  0.00000000E+00  0.00000000E+00
0.00000000E+00  0.00000000E+00  0.00000000E+00
0.00000000E+00  0.00000000E+00  0.00000000E+00
0.00000000E+00  0.00000000E+00  0.00000000E+00
