Cr4N3  (n=3)
1.00000000000000
3.0448158473997653  0.0000000000000000  0.0000000000000000
-1.5224079236998829  2.6368878737798060  0.0000000000000001
0.0000000000000002  0.0000000000000012  35.1937755805421517
Cr  N  Cl
4  3  2
Selective  dynamics
Direct
-0.0000000000000000  -0.0000000000000000  0.0475671315105766  T  T  T
0.6666666666666643  0.3333333333333357  0.1133176540432489  T  T  T
0.3333333333333357  0.6666666666666643  0.1763294614591389  T  T  T
0.0000000000000000  0.0000000000000000  0.2420799839918042  T  T  T
0.3333333333333357  0.6666666666666643  0.0764670508054027  T  T  T
-0.0000000000000000  -0.0000000000000000  0.1448235577511974  T  T  T
0.6666666666666643  0.3333333333333357  0.2131800646969780  T  T  T
0.6666666666666643  0.3333333333333357  0.0000000000000000  T  T  T
0.3333333333333357  0.6666666666666643  0.2896471155023805  T  T  T

0.00000000E+00  0.00000000E+00  0.00000000E+00
0.00000000E+00  0.00000000E+00  0.00000000E+00
0.00000000E+00  0.00000000E+00  0.00000000E+00
0.00000000E+00  0.00000000E+00  0.00000000E+00
0.00000000E+00  0.00000000E+00  0.00000000E+00
0.00000000E+00  0.00000000E+00  0.00000000E+00
0.00000000E+00  0.00000000E+00  0.00000000E+00
0.00000000E+00  0.00000000E+00  0.00000000E+00
0.00000000E+00  0.00000000E+00  0.00000000E+00
