Ti2C  (n=1)
1.00000000000000
3.1637660611935243  0.0000000000000000  -0.0000000000000000
-1.5818830305967622  2.7399017807223562  -0.0000000000000000
0.0000000000000009  -0.0000000000000002  31.1503075995022058
Ti  C  Se
2  1  2
Selective  dynamics
Direct
-0.0000000000000000  -0.0000000000000000  0.0611024377591095  T  T  T
0.6666666666666643  0.3333333333333357  0.1363372690513777  T  T  T
0.3333333333333357  0.6666666666666643  0.0987198534052436  T  T  T
0.3333333333333357  0.6666666666666643  0.0000000000000000  T  T  T
0.3333333333333357  0.6666666666666643  0.1974397068104871  T  T  T

0.00000000E+00  0.00000000E+00  0.00000000E+00
0.00000000E+00  0.00000000E+00  0.00000000E+00
0.00000000E+00  0.00000000E+00  0.00000000E+00
0.00000000E+00  0.00000000E+00  0.00000000E+00
0.00000000E+00  0.00000000E+00  0.00000000E+00
