Mo2C  (n=1)
1.00000000000000
3.1554135544957669  -0.0000000000000005  -0.0000000000000000
-1.5777067772478839  2.7326682979581043  0.0000000000000001
-0.0000000000000002  0.0000000000000000  31.0697917736453348
Mo  C  Se
2  1  2
Selective  dynamics
Direct
-0.0000000000000000  -0.0000000000000000  0.0568522150712310  T  T  T
0.6666666666666643  0.3333333333333357  0.1385076965067405  T  T  T
0.3333333333333357  0.6666666666666643  0.0976799557889857  T  T  T
0.3333333333333357  0.6666666666666643  0.0000000000000000  T  T  T
0.3333333333333357  0.6666666666666643  0.1953599115779714  T  T  T

0.00000000E+00  0.00000000E+00  0.00000000E+00
0.00000000E+00  0.00000000E+00  0.00000000E+00
0.00000000E+00  0.00000000E+00  0.00000000E+00
0.00000000E+00  0.00000000E+00  0.00000000E+00
0.00000000E+00  0.00000000E+00  0.00000000E+00
