Zr2N  (n=1)
1.00000000000000
3.4096152448153454  0.0000000000000010  -0.0000000000000004
-1.7048076224076718  2.9528134195370255  0.0000000000000009
-0.0000000000000034  0.0000000000000066  31.2957167434108854
Zr  N  Se
2  1  2
Selective  dynamics
Direct
0.0000000000000000  0.0000000000000000  0.0597410579118801  T  T  T
0.6666666666666643  0.3333333333333357  0.1414275810756462  T  T  T
0.3333333333333357  0.6666666666666643  0.1005843194937596  T  T  T
0.3333333333333357  0.6666666666666643  0.0000000000000000  T  T  T
0.3333333333333357  0.6666666666666643  0.2011686389875193  T  T  T

0.00000000E+00  0.00000000E+00  0.00000000E+00
0.00000000E+00  0.00000000E+00  0.00000000E+00
0.00000000E+00  0.00000000E+00  0.00000000E+00
0.00000000E+00  0.00000000E+00  0.00000000E+00
0.00000000E+00  0.00000000E+00  0.00000000E+00
