Ta2C  (n=1)
1.00000000000000
3.2865863412221303  -0.0000000000000000  0.0000000000000009
-1.6432931706110652  2.8462672635890702  -0.0000000000000024
0.0000000000000087  -0.0000000000000212  31.0379370546330797
Ta  C  Se
2  1  2
Selective  dynamics
Direct
-0.0000000000000000  -0.0000000000000000  0.0583225627573337  T  T  T
0.6666666666666643  0.3333333333333358  0.1362115341449534  T  T  T
0.3333333333333357  0.6666666666666643  0.0972670484511435  T  T  T
0.3333333333333357  0.6666666666666643  0.0000000000000000  T  T  T
0.3333333333333357  0.6666666666666643  0.1945340969022871  T  T  T

0.00000000E+00  0.00000000E+00  0.00000000E+00
0.00000000E+00  0.00000000E+00  0.00000000E+00
0.00000000E+00  0.00000000E+00  0.00000000E+00
0.00000000E+00  0.00000000E+00  0.00000000E+00
0.00000000E+00  0.00000000E+00  0.00000000E+00
