Nb2N  (n=1)
1.00000000000000
3.2411042252959459  -0.0000000000000000  0.0000000000000000
-1.6205521126479729  2.8068785957820506  -0.0000000000000001
0.0000000000000002  -0.0000000000000005  31.1679980345111431
Nb  N  Se
2  1  2
Selective  dynamics
Direct
-0.0000000000000000  -0.0000000000000000  0.0581380966204175  T  T  T
0.6666666666666643  0.3333333333333357  0.1397571300053528  T  T  T
0.3333333333333357  0.6666666666666643  0.0989476133128851  T  T  T
0.3333333333333357  0.6666666666666643  0.0000000000000000  T  T  T
0.3333333333333357  0.6666666666666643  0.1978952266257702  T  T  T

0.00000000E+00  0.00000000E+00  0.00000000E+00
0.00000000E+00  0.00000000E+00  0.00000000E+00
0.00000000E+00  0.00000000E+00  0.00000000E+00
0.00000000E+00  0.00000000E+00  0.00000000E+00
0.00000000E+00  0.00000000E+00  0.00000000E+00
