Cr2N  (n=1)
1.00000000000000
2.9784744156855911  -0.0000000000000002  0.0000000000000000
-1.4892372078427958  2.5794345087607331  0.0000000000000000
0.0000000000000007  -0.0000000000000005  30.7097347110444332
Cr  N  Se
2  1  2
Selective  dynamics
Direct
-0.0000000000000000  0.0000000000000000  0.0550038334781096  T  T  T
0.6666666666666643  0.3333333333333357  0.1309220549989076  T  T  T
0.3333333333333357  0.6666666666666643  0.0929629442385051  T  T  T
0.3333333333333357  0.6666666666666643  0.0000000000000000  T  T  T
0.3333333333333357  0.6666666666666643  0.1859258884770172  T  T  T

0.00000000E+00  0.00000000E+00  0.00000000E+00
0.00000000E+00  0.00000000E+00  0.00000000E+00
0.00000000E+00  0.00000000E+00  0.00000000E+00
0.00000000E+00  0.00000000E+00  0.00000000E+00
0.00000000E+00  0.00000000E+00  0.00000000E+00
