Sc2C  (n=1)
1.00000000000000
3.7510750449498347  0.0000000000000000  0.0000000000000000
-1.8755375224749173  3.2485262809521434  0.0000000000000000
0.0000000000000001  0.0000000000000003  30.2740336125539500
Sc  C  Se
2  1  2
Selective  dynamics
Direct
0.0000000000000000  0.0000000000000000  0.0476705183417548  T  T  T
0.6666666666666643  0.3333333333333357  0.1265392906335161  T  T  T
0.3333333333333357  0.6666666666666643  0.0871049044876386  T  T  T
0.3333333333333357  0.6666666666666643  0.0000000000000000  T  T  T
0.3333333333333357  0.6666666666666643  0.1742098089752708  T  T  T

0.00000000E+00  0.00000000E+00  0.00000000E+00
0.00000000E+00  0.00000000E+00  0.00000000E+00
0.00000000E+00  0.00000000E+00  0.00000000E+00
0.00000000E+00  0.00000000E+00  0.00000000E+00
0.00000000E+00  0.00000000E+00  0.00000000E+00
