Hf2N  (n=1)
1.00000000000000
3.3692876276248809  -0.0000000000000015  -0.0000000000000000
-1.6846438138124420  2.9178886785491178  0.0000000000000001
-0.0000000000000004  0.0000000000000009  31.2110272235645461
Hf  N  Se
2  1  2
Selective  dynamics
Direct
0.0000000000000000  0.0000000000000000  0.0591114960557241  T  T  T
0.6666666666666643  0.3333333333333357  0.1398895550495529  T  T  T
0.3333333333333357  0.6666666666666643  0.0995005255526385  T  T  T
0.3333333333333357  0.6666666666666643  0.0000000000000000  T  T  T
0.3333333333333357  0.6666666666666643  0.1990010511052702  T  T  T

0.00000000E+00  0.00000000E+00  0.00000000E+00
0.00000000E+00  0.00000000E+00  0.00000000E+00
0.00000000E+00  0.00000000E+00  0.00000000E+00
0.00000000E+00  0.00000000E+00  0.00000000E+00
0.00000000E+00  0.00000000E+00  0.00000000E+00
