Hf2C  (n=1)
1.00000000000000
3.4053351224679980  0.0000000000000014  0.0000000000000001
-1.7026675612339983  2.9491067247100076  -0.0000000000000004
0.0000000000000000  -0.0000000000000060  31.3207562138418396
Hf  C  Se
2  1  2
Selective  dynamics
Direct
-0.0000000000000000  -0.0000000000000000  0.0595269433173263  T  T  T
0.6666666666666643  0.3333333333333357  0.1422803237450402  T  T  T
0.3333333333333357  0.6666666666666643  0.1009036335311833  T  T  T
0.3333333333333357  0.6666666666666643  0.0000000000000000  T  T  T
0.3333333333333357  0.6666666666666643  0.2018072670623597  T  T  T

0.00000000E+00  0.00000000E+00  0.00000000E+00
0.00000000E+00  0.00000000E+00  0.00000000E+00
0.00000000E+00  0.00000000E+00  0.00000000E+00
0.00000000E+00  0.00000000E+00  0.00000000E+00
0.00000000E+00  0.00000000E+00  0.00000000E+00
