Ta2N  (n=1)
1.00000000000000
3.2137341349285640  0.0000000000000000  0.0000000000000000
-1.6068670674642820  2.7831754022121067  0.0000000000000000
-0.0000000000000000  0.0000000000000006  31.2011841868045785
Ta  N  Se
2  1  2
Selective  dynamics
Direct
0.0000000000000000  0.0000000000000000  0.0574760834584969  T  T  T
0.6666666666666643  0.3333333333333357  0.1412722765292994  T  T  T
0.3333333333333357  0.6666666666666643  0.0993741799938982  T  T  T
0.3333333333333357  0.6666666666666643  0.0000000000000000  T  T  T
0.3333333333333357  0.6666666666666643  0.1987483599877964  T  T  T

0.00000000E+00  0.00000000E+00  0.00000000E+00
0.00000000E+00  0.00000000E+00  0.00000000E+00
0.00000000E+00  0.00000000E+00  0.00000000E+00
0.00000000E+00  0.00000000E+00  0.00000000E+00
0.00000000E+00  0.00000000E+00  0.00000000E+00
