Nb2C  (n=1)
1.00000000000000
3.3008268991297758  0.0000000000000000  0.0000000000000001
-1.6504134495648879  2.8585999485691942  -0.0000000000000001
0.0000000000000004  0.0000000000000001  31.0653458555025423
Nb  C  Se
2  1  2
Selective  dynamics
Direct
0.0000000000000000  -0.0000000000000000  0.0585636761209306  T  T  T
0.6666666666666643  0.3333333333333357  0.1366810793604638  T  T  T
0.3333333333333357  0.6666666666666643  0.0976223777406937  T  T  T
0.3333333333333357  0.6666666666666643  0.0000000000000000  T  T  T
0.3333333333333357  0.6666666666666643  0.1952447554813944  T  T  T

0.00000000E+00  0.00000000E+00  0.00000000E+00
0.00000000E+00  0.00000000E+00  0.00000000E+00
0.00000000E+00  0.00000000E+00  0.00000000E+00
0.00000000E+00  0.00000000E+00  0.00000000E+00
0.00000000E+00  0.00000000E+00  0.00000000E+00
