Zr2C  (n=1)
1.00000000000000
3.4406958871750337  -0.0000000000000015  0.0000000000000005
-1.7203479435875173  2.9797300452083411  -0.0000000000000001
0.0000000000000040  -0.0000000000000018  31.4305007128408427
Zr  C  Se
2  1  2
Selective  dynamics
Direct
0.0000000000000000  -0.0000000000000000  0.0603620080823332  T  T  T
0.6666666666666643  0.3333333333333357  0.1442322734912237  T  T  T
0.3333333333333357  0.6666666666666643  0.1022971407867785  T  T  T
0.3333333333333357  0.6666666666666643  0.0000000000000000  T  T  T
0.3333333333333357  0.6666666666666643  0.2045942815735570  T  T  T

0.00000000E+00  0.00000000E+00  0.00000000E+00
0.00000000E+00  0.00000000E+00  0.00000000E+00
0.00000000E+00  0.00000000E+00  0.00000000E+00
0.00000000E+00  0.00000000E+00  0.00000000E+00
0.00000000E+00  0.00000000E+00  0.00000000E+00
