Sc2N
1.00000000000000
3.2766794137468014  -0.0000000000000004  0.0000000000000007
-1.6383397068734011  2.8376876126716608  0.0000000000000000
0.0000000000000057  0.0000000000000038  31.5282643309937711
Sc  N  Se
2  1  2
Selective  dynamics
Direct
0.0000000000000000  -0.0000000000000000  0.0628474508265470  T  T  T
0.6666666666666643  0.3333333333333357  0.1442132443788082  T  T  T
0.3333333333333357  0.6666666666666643  0.1035303476026776  T  T  T
0.3333333333333357  0.6666666666666643  0.0000000000000000  T  T  T
0.3333333333333357  0.6666666666666643  0.2070606952053551  T  T  T

0.00000000E+00  0.00000000E+00  0.00000000E+00
0.00000000E+00  0.00000000E+00  0.00000000E+00
0.00000000E+00  0.00000000E+00  0.00000000E+00
0.00000000E+00  0.00000000E+00  0.00000000E+00
0.00000000E+00  0.00000000E+00  0.00000000E+00
