Ti2N  (n=1)
1.00000000000000
3.1641827603323107  0.0000000000000001  -0.0000000000000001
-1.5820913801661554  2.7402626528863956  -0.0000000000000001
-0.0000000000000004  0.0000000000000011  30.9449955051958980
Ti  N  Se
2  1  2
Selective  dynamics
Direct
0.0000000000000000  0.0000000000000000  0.0592042449715746  T  T  T
0.6666666666666643  0.3333333333333357  0.1329106804999023  T  T  T
0.3333333333333357  0.6666666666666643  0.0960574627357385  T  T  T
0.3333333333333357  0.6666666666666643  0.0000000000000000  T  T  T
0.3333333333333357  0.6666666666666643  0.1921149254714768  T  T  T

0.00000000E+00  0.00000000E+00  0.00000000E+00
0.00000000E+00  0.00000000E+00  0.00000000E+00
0.00000000E+00  0.00000000E+00  0.00000000E+00
0.00000000E+00  0.00000000E+00  0.00000000E+00
0.00000000E+00  0.00000000E+00  0.00000000E+00
