Cr2C  (n=1)
1.00000000000000
3.0192155753029923  0.0000000000000000  -0.0000000000000000
-1.5096077876514962  2.6147173877610608  -0.0000000000000000
-0.0000000000000003  -0.0000000000000006  30.5988877967515265
Cr  C  Se
2  1  2
Selective  dynamics
Direct
-0.0000000000000000  -0.0000000000000000  0.0549662297669302  T  T  T
0.6666666666666643  0.3333333333333357  0.1280106102391932  T  T  T
0.3333333333333357  0.6666666666666643  0.0914884200030651  T  T  T
0.3333333333333357  0.6666666666666643  0.0000000000000000  T  T  T
0.3333333333333357  0.6666666666666643  0.1829768400061234  T  T  T

0.00000000E+00  0.00000000E+00  0.00000000E+00
0.00000000E+00  0.00000000E+00  0.00000000E+00
0.00000000E+00  0.00000000E+00  0.00000000E+00
0.00000000E+00  0.00000000E+00  0.00000000E+00
0.00000000E+00  0.00000000E+00  0.00000000E+00
