Mo2N  (n=1)
1.00000000000000
3.1232023031599501  0.0000000000000000  0.0000000000000000
-1.5616011515799750  2.7047725356599139  0.0000000000000002
0.0000000000000005  0.0000000000000021  31.1451034351610190
Mo  N  Se
2  1  2
Selective  dynamics
Direct
0.6666666666666643  0.3333333333333357  0.0561289657883155  T  T  T
0.0000000000000000  0.0000000000000000  0.1411766378984507  T  T  T
0.3333333333333357  0.6666666666666643  0.0986528018433831  T  T  T
0.3333333333333357  0.6666666666666643  0.0000000000000000  T  T  T
0.3333333333333357  0.6666666666666643  0.1973056036867598  T  T  T

0.00000000E+00  0.00000000E+00  0.00000000E+00
0.00000000E+00  0.00000000E+00  0.00000000E+00
0.00000000E+00  0.00000000E+00  0.00000000E+00
0.00000000E+00  0.00000000E+00  0.00000000E+00
0.00000000E+00  0.00000000E+00  0.00000000E+00
