Zr3C2  (n=2)
1.00000000000000
3.2296642794462858  0.0000000000000000  0.0000000000000000
-1.6148321397231429  2.7969713119070159  0.0000000000000000
0.0000000000000000  0.0000000000000000  33.1849336253145566
Zr  C  H
3  2  2
Selective  dynamics
Direct
-0.0000000000000000  0.0000000000000000  0.0364962649104385  T  T  T
-0.0000000000000000  0.0000000000000000  0.1233230374622600  T  T  T
-0.0000000000000000  0.0000000000000000  0.2101498100140814  T  T  T
0.3333333333333357  0.6666666666666643  0.0765107312411897  T  T  T
0.3333333333333357  0.6666666666666643  0.1701353436833302  T  T  T
0.3333333333333357  0.6666666666666643  0.0000000000000000  T  T  T
0.3333333333333357  0.6666666666666643  0.2466460749245200  T  T  T

0.00000000E+00  0.00000000E+00  0.00000000E+00
0.00000000E+00  0.00000000E+00  0.00000000E+00
0.00000000E+00  0.00000000E+00  0.00000000E+00
0.00000000E+00  0.00000000E+00  0.00000000E+00
0.00000000E+00  0.00000000E+00  0.00000000E+00
0.00000000E+00  0.00000000E+00  0.00000000E+00
0.00000000E+00  0.00000000E+00  0.00000000E+00
