Cr3N2  (n=2)
1.00000000000000
2.6487278996957664  0.0000000000000000  0.0000000000000000
-1.3243639498478832  2.2938656488415670  0.0000000000000000
0.0000000000000000  0.0000000000000000  32.3571033928602390
Cr  N  H
3  2  2
Selective  dynamics
Direct
0.0000000000000000  -0.0000000000000000  0.0333277663447604  T  T  T
0.0000000000000000  -0.0000000000000000  0.1136860630498159  T  T  T
0.0000000000000000  -0.0000000000000000  0.1940443597548713  T  T  T
0.3333333333333357  0.6666666666666643  0.0728130643219152  T  T  T
0.3333333333333357  0.6666666666666643  0.1545590617777164  T  T  T
0.3333333333333357  0.6666666666666643  0.0000000000000000  T  T  T
0.3333333333333357  0.6666666666666643  0.2273721260996316  T  T  T

0.00000000E+00  0.00000000E+00  0.00000000E+00
0.00000000E+00  0.00000000E+00  0.00000000E+00
0.00000000E+00  0.00000000E+00  0.00000000E+00
0.00000000E+00  0.00000000E+00  0.00000000E+00
0.00000000E+00  0.00000000E+00  0.00000000E+00
0.00000000E+00  0.00000000E+00  0.00000000E+00
0.00000000E+00  0.00000000E+00  0.00000000E+00
