Zr3N2  (n=2)
1.00000000000000
3.1250999547671481  0.0000000000000000  0.0000000000000000
-1.5625499773835740  2.7064159503728842  0.0000000000000000
0.0000000000000000  0.0000000000000000  33.2097088190705705
Zr  N  H
3  2  2
Selective  dynamics
Direct
0.0000000000000000  -0.0000000000000000  0.0350885333935176  T  T  T
0.0000000000000000  -0.0000000000000000  0.1236040469941716  T  T  T
0.0000000000000000  -0.0000000000000000  0.2121195605948334  T  T  T
0.3333333333333357  0.6666666666666643  0.0787869107517039  T  T  T
0.3333333333333357  0.6666666666666643  0.1684211832366474  T  T  T
0.3333333333333357  0.6666666666666643  0.0000000000000000  T  T  T
0.3333333333333357  0.6666666666666643  0.2472080939883512  T  T  T

0.00000000E+00  0.00000000E+00  0.00000000E+00
0.00000000E+00  0.00000000E+00  0.00000000E+00
0.00000000E+00  0.00000000E+00  0.00000000E+00
0.00000000E+00  0.00000000E+00  0.00000000E+00
0.00000000E+00  0.00000000E+00  0.00000000E+00
0.00000000E+00  0.00000000E+00  0.00000000E+00
0.00000000E+00  0.00000000E+00  0.00000000E+00
