Ta3C2  (n=2)
1.00000000000000
3.0035557483041133  -0.0000000000000001  0.0000000000000000
-1.5017778741520567  2.6011555798396500  0.0000000000000000
0.0000000000000000  0.0000000000000000  32.9751415038475670
Ta  C  H
3  2  2
Selective  dynamics
Direct
0.0000000000000000  0.0000000000000000  0.0341835647367714  T  T  T
0.0000000000000000  0.0000000000000000  0.1209265698362016  T  T  T
0.0000000000000000  0.0000000000000000  0.2076695749356399  T  T  T
0.3333333333333357  0.6666666666666643  0.0761862877669284  T  T  T
0.3333333333333357  0.6666666666666643  0.1656668519054748  T  T  T
0.3333333333333357  0.6666666666666643  0.0000000000000000  T  T  T
0.3333333333333357  0.6666666666666643  0.2418531396724110  T  T  T

0.00000000E+00  0.00000000E+00  0.00000000E+00
0.00000000E+00  0.00000000E+00  0.00000000E+00
0.00000000E+00  0.00000000E+00  0.00000000E+00
0.00000000E+00  0.00000000E+00  0.00000000E+00
0.00000000E+00  0.00000000E+00  0.00000000E+00
0.00000000E+00  0.00000000E+00  0.00000000E+00
0.00000000E+00  0.00000000E+00  0.00000000E+00
