Mo3C2  (n=2)
1.00000000000000
2.8858259633954533  -0.0000000000000001  0.0000000000000000
-1.4429129816977269  2.4991985952592408  0.0000000000000000
0.0000000000000000  0.0000000000000000  32.8577004724115511
Mo  C  H
3  2  2
Selective  dynamics
Direct
0.0000000000000000  0.0000000000000000  0.0331363782311040  T  T  T
0.0000000000000000  0.0000000000000000  0.1195716736021877  T  T  T
0.0000000000000000  0.0000000000000000  0.2060069689732876  T  T  T
0.3333333333333357  0.6666666666666643  0.0756504728629890  T  T  T
0.3333333333333357  0.6666666666666643  0.1634928743413866  T  T  T
0.3333333333333357  0.6666666666666643  0.0000000000000000  T  T  T
0.3333333333333357  0.6666666666666643  0.2391433472043835  T  T  T

0.00000000E+00  0.00000000E+00  0.00000000E+00
0.00000000E+00  0.00000000E+00  0.00000000E+00
0.00000000E+00  0.00000000E+00  0.00000000E+00
0.00000000E+00  0.00000000E+00  0.00000000E+00
0.00000000E+00  0.00000000E+00  0.00000000E+00
0.00000000E+00  0.00000000E+00  0.00000000E+00
0.00000000E+00  0.00000000E+00  0.00000000E+00
