Hf3C2  (n=2)
1.00000000000000
3.1724361872811171  0.0000000000000000  0.0000000000000000
-1.5862180936405585  2.7474103302481230  0.0000000000000000
0.0000000000000000  0.0000000000000000  33.1195184250313659
Hf  C  H
3  2  2
Selective  dynamics
Direct
-0.0000000000000000  -0.0000000000000000  0.0365351830156374  T  T  T
-0.0000000000000000  0.0000000000000000  0.1225790532463547  T  T  T
-0.0000000000000000  -0.0000000000000000  0.2086229234770803  T  T  T
0.3333333333333357  0.6666666666666643  0.0765482867950870  T  T  T
0.3333333333333357  0.6666666666666643  0.1686098196976139  T  T  T
0.3333333333333357  0.6666666666666643  0.0000000000000000  T  T  T
0.3333333333333357  0.6666666666666643  0.2451581064927177  T  T  T

0.00000000E+00  0.00000000E+00  0.00000000E+00
0.00000000E+00  0.00000000E+00  0.00000000E+00
0.00000000E+00  0.00000000E+00  0.00000000E+00
0.00000000E+00  0.00000000E+00  0.00000000E+00
0.00000000E+00  0.00000000E+00  0.00000000E+00
0.00000000E+00  0.00000000E+00  0.00000000E+00
0.00000000E+00  0.00000000E+00  0.00000000E+00
