Sc3N2  (n=2)
1.00000000000000
3.0926172514565984  0.0000000000000000  0.0000000000000000
-1.5463086257282992  2.6782851040382853  0.0000000000000000
0.0000000000000000  0.0000000000000000  32.9203301000883499
Sc  N  H
3  2  2
Selective  dynamics
Direct
-0.0000000000000000  0.0000000000000000  0.0362111652683825  T  T  T
-0.0000000000000000  0.0000000000000000  0.1202954234664030  T  T  T
-0.0000000000000000  -0.0000000000000000  0.2043796816644236  T  T  T
0.3333333333333357  0.6666666666666643  0.0761638800327335  T  T  T
0.3333333333333357  0.6666666666666643  0.1644269669000724  T  T  T
0.3333333333333357  0.6666666666666643  0.0000000000000000  T  T  T
0.3333333333333357  0.6666666666666643  0.2405908469328225  T  T  T

0.00000000E+00  0.00000000E+00  0.00000000E+00
0.00000000E+00  0.00000000E+00  0.00000000E+00
0.00000000E+00  0.00000000E+00  0.00000000E+00
0.00000000E+00  0.00000000E+00  0.00000000E+00
0.00000000E+00  0.00000000E+00  0.00000000E+00
0.00000000E+00  0.00000000E+00  0.00000000E+00
0.00000000E+00  0.00000000E+00  0.00000000E+00
