Mo3N2  (n=2)
1.00000000000000
2.8276572575591254  0.0000000000000001  0.0000000000000000
-1.4138286287795627  2.4488230182983659  0.0000000000000000
0.0000000000000000  0.0000000000000000  33.0792653236694889
Mo  N  H
3  2  2
Selective  dynamics
Direct
-0.0000000000000000  -0.0000000000000000  0.0349757572091812  T  T  T
-0.0000000000000000  -0.0000000000000000  0.1221197817517498  T  T  T
-0.0000000000000000  -0.0000000000000000  0.2092638062943184  T  T  T
0.3333333333333357  0.6666666666666643  0.0790834847060662  T  T  T
0.3333333333333357  0.6666666666666643  0.1651560787974334  T  T  T
0.3333333333333357  0.6666666666666643  0.0000000000000000  T  T  T
0.3333333333333357  0.6666666666666643  0.2442395635034996  T  T  T

0.00000000E+00  0.00000000E+00  0.00000000E+00
0.00000000E+00  0.00000000E+00  0.00000000E+00
0.00000000E+00  0.00000000E+00  0.00000000E+00
0.00000000E+00  0.00000000E+00  0.00000000E+00
0.00000000E+00  0.00000000E+00  0.00000000E+00
0.00000000E+00  0.00000000E+00  0.00000000E+00
0.00000000E+00  0.00000000E+00  0.00000000E+00
