Ti3C2  (n=2)
1.00000000000000
2.9770375211866593  0.0000000000000001  0.0000000000000000
-1.4885187605933297  2.5781901214213443  0.0000000000000000
0.0000000000000000  0.0000000000000000  32.6092442384167214
Ti  C  H
3  2  2
Selective  dynamics
Direct
0.0000000000000000  0.0000000000000000  0.0354059989021941  T  T  T
-0.0000000000000000  0.0000000000000000  0.1166731154942304  T  T  T
0.0000000000000000  0.0000000000000000  0.1979402320862667  T  T  T
0.3333333333333357  0.6666666666666643  0.0732217083985868  T  T  T
0.3333333333333357  0.6666666666666643  0.1601245225898740  T  T  T
0.3333333333333357  0.6666666666666643  0.0000000000000000  T  T  T
0.3333333333333357  0.6666666666666643  0.2333462309884607  T  T  T

0.00000000E+00  0.00000000E+00  0.00000000E+00
0.00000000E+00  0.00000000E+00  0.00000000E+00
0.00000000E+00  0.00000000E+00  0.00000000E+00
0.00000000E+00  0.00000000E+00  0.00000000E+00
0.00000000E+00  0.00000000E+00  0.00000000E+00
0.00000000E+00  0.00000000E+00  0.00000000E+00
0.00000000E+00  0.00000000E+00  0.00000000E+00
