Nb3N2  (n=2)
1.00000000000000
2.9476020347563732  0.0000000000000000  0.0000000000000000
-1.4738010173781866  2.5526982424476934  0.0000000000000000
0.0000000000000000  0.0000000000000000  33.1108090415181451
Nb  N  H
3  2  2
Selective  dynamics
Direct
0.0000000000000000  0.0000000000000000  0.0343105504922213  T  T  T
0.0000000000000000  0.0000000000000000  0.1224797773945603  T  T  T
0.0000000000000000  0.0000000000000000  0.2106490042969072  T  T  T
0.3333333333333357  0.6666666666666643  0.0789711690123147  T  T  T
0.3333333333333357  0.6666666666666643  0.1659883857768060  T  T  T
0.3333333333333357  0.6666666666666643  0.0000000000000000  T  T  T
0.3333333333333357  0.6666666666666643  0.2449595547891287  T  T  T

0.00000000E+00  0.00000000E+00  0.00000000E+00
0.00000000E+00  0.00000000E+00  0.00000000E+00
0.00000000E+00  0.00000000E+00  0.00000000E+00
0.00000000E+00  0.00000000E+00  0.00000000E+00
0.00000000E+00  0.00000000E+00  0.00000000E+00
0.00000000E+00  0.00000000E+00  0.00000000E+00
0.00000000E+00  0.00000000E+00  0.00000000E+00
