Cr3C2  (n=2)
1.00000000000000
2.6575359458846313  0.0000000000000000  0.0000000000000000
-1.3287679729423156  2.3014936405895443  0.0000000000000000
0.0000000000000000  0.0000000000000000  32.3343926963511734
Cr  C  H
3  2  2
Selective  dynamics
Direct
-0.0000000000000000  -0.0000000000000000  0.0321974947686381  T  T  T
-0.0000000000000000  -0.0000000000000000  0.1134147278600088  T  T  T
-0.0000000000000000  -0.0000000000000000  0.1946319609513956  T  T  T
0.3333333333333357  0.6666666666666643  0.0719283507991077  T  T  T
0.3333333333333357  0.6666666666666643  0.1549011049209099  T  T  T
0.3333333333333357  0.6666666666666643  0.0000000000000000  T  T  T
0.3333333333333357  0.6666666666666643  0.2268294557200337  T  T  T

0.00000000E+00  0.00000000E+00  0.00000000E+00
0.00000000E+00  0.00000000E+00  0.00000000E+00
0.00000000E+00  0.00000000E+00  0.00000000E+00
0.00000000E+00  0.00000000E+00  0.00000000E+00
0.00000000E+00  0.00000000E+00  0.00000000E+00
0.00000000E+00  0.00000000E+00  0.00000000E+00
0.00000000E+00  0.00000000E+00  0.00000000E+00
