Ta3N2  (n=2)
1.00000000000000
2.9317163902848264  0.0000000000000000  0.0000000000000000
-1.4658581951424132  2.5389408707731675  0.0000000000000000
0.0000000000000000  0.0000000000000000  33.0553421550132569
Ta  N  H
3  2  2
Selective  dynamics
Direct
0.0000000000000000  -0.0000000000000000  0.0338053242188357  T  T  T
-0.0000000000000000  -0.0000000000000000  0.1218462982055540  T  T  T
0.0000000000000000  -0.0000000000000000  0.2098872721922803  T  T  T
0.3333333333333357  0.6666666666666643  0.0786028957474534  T  T  T
0.3333333333333357  0.6666666666666643  0.1650897006636625  T  T  T
0.3333333333333357  0.6666666666666643  0.0000000000000000  T  T  T
0.3333333333333357  0.6666666666666643  0.2436925964111239  T  T  T

0.00000000E+00  0.00000000E+00  0.00000000E+00
0.00000000E+00  0.00000000E+00  0.00000000E+00
0.00000000E+00  0.00000000E+00  0.00000000E+00
0.00000000E+00  0.00000000E+00  0.00000000E+00
0.00000000E+00  0.00000000E+00  0.00000000E+00
0.00000000E+00  0.00000000E+00  0.00000000E+00
0.00000000E+00  0.00000000E+00  0.00000000E+00
