Hf3N2  (n=2)
1.00000000000000
3.0682892801395827  -0.0000000000000001  0.0000000000000000
-1.5341446400697913  2.6572164629094313  0.0000000000000000
0.0000000000000000  0.0000000000000000  33.1352281789672105
Hf  N  H
3  2  2
Selective  dynamics
Direct
-0.0000000000000000  -0.0000000000000000  0.0347924274501696  T  T  T
0.0000000000000000  -0.0000000000000000  0.1227579924156233  T  T  T
-0.0000000000000000  -0.0000000000000000  0.2107235573810770  T  T  T
0.3333333333333357  0.6666666666666643  0.0783083331369778  T  T  T
0.3333333333333357  0.6666666666666643  0.1672076516942767  T  T  T
0.3333333333333357  0.6666666666666643  0.0000000000000000  T  T  T
0.3333333333333357  0.6666666666666643  0.2455159848312466  T  T  T

0.00000000E+00  0.00000000E+00  0.00000000E+00
0.00000000E+00  0.00000000E+00  0.00000000E+00
0.00000000E+00  0.00000000E+00  0.00000000E+00
0.00000000E+00  0.00000000E+00  0.00000000E+00
0.00000000E+00  0.00000000E+00  0.00000000E+00
0.00000000E+00  0.00000000E+00  0.00000000E+00
0.00000000E+00  0.00000000E+00  0.00000000E+00
