Sc3C2  (n=2)
1.00000000000000
3.2675830756441848  -0.0000000000000001  0.0000000000000000
-1.6337915378220926  2.8298099526825355  0.0000000000000000
0.0000000000000000  0.0000000000000000  32.7644973048770396
Sc  C  H
3  2  2
Selective  dynamics
Direct
-0.0000000000000000  -0.0000000000000000  0.0343523870698406  T  T  T
-0.0000000000000000  -0.0000000000000000  0.1184894923402464  T  T  T
-0.0000000000000000  -0.0000000000000000  0.2026265976106605  T  T  T
0.3333333333333357  0.6666666666666643  0.0741259553715676  T  T  T
0.3333333333333357  0.6666666666666643  0.1628530293089253  T  T  T
0.3333333333333357  0.6666666666666643  0.0000000000000000  T  T  T
0.3333333333333357  0.6666666666666643  0.2369789846805090  T  T  T

0.00000000E+00  0.00000000E+00  0.00000000E+00
0.00000000E+00  0.00000000E+00  0.00000000E+00
0.00000000E+00  0.00000000E+00  0.00000000E+00
0.00000000E+00  0.00000000E+00  0.00000000E+00
0.00000000E+00  0.00000000E+00  0.00000000E+00
0.00000000E+00  0.00000000E+00  0.00000000E+00
0.00000000E+00  0.00000000E+00  0.00000000E+00
