Ti3N2  (n=2)
1.00000000000000
2.8697266891560567  0.0000000000000002  0.0000000000000000
-1.4348633445780283  2.4852562147632251  0.0000000000000000
0.0000000000000000  0.0000000000000000  32.6227546114277303
Ti  N  H
3  2  2
Selective  dynamics
Direct
-0.0000000000000000  -0.0000000000000000  0.0344725022978427  T  T  T
-0.0000000000000000  -0.0000000000000000  0.1168318663188120  T  T  T
-0.0000000000000000  -0.0000000000000000  0.1991912303397812  T  T  T
0.3333333333333357  0.6666666666666643  0.0745512330111332  T  T  T
0.3333333333333357  0.6666666666666643  0.1591124996264826  T  T  T
0.3333333333333357  0.6666666666666643  0.0000000000000000  T  T  T
0.3333333333333357  0.6666666666666643  0.2336637326376321  T  T  T

0.00000000E+00  0.00000000E+00  0.00000000E+00
0.00000000E+00  0.00000000E+00  0.00000000E+00
0.00000000E+00  0.00000000E+00  0.00000000E+00
0.00000000E+00  0.00000000E+00  0.00000000E+00
0.00000000E+00  0.00000000E+00  0.00000000E+00
0.00000000E+00  0.00000000E+00  0.00000000E+00
0.00000000E+00  0.00000000E+00  0.00000000E+00
