Nb3C2  (n=2)
1.00000000000000
3.0214502716032565  0.0000000000000000  0.0000000000000000
-1.5107251358016283  2.6166526916289761  0.0000000000000000
0.0000000000000000  0.0000000000000000  32.9898216689324713
Nb  C  H
3  2  2
Selective  dynamics
Direct
0.0000000000000000  0.0000000000000000  0.0340837954903684  T  T  T
0.0000000000000000  0.0000000000000000  0.1210952540015809  T  T  T
0.0000000000000000  0.0000000000000000  0.2081067125127934  T  T  T
0.3333333333333357  0.6666666666666643  0.0761233794259278  T  T  T
0.3333333333333357  0.6666666666666643  0.1660671285772340  T  T  T
0.3333333333333357  0.6666666666666643  0.0000000000000000  T  T  T
0.3333333333333357  0.6666666666666643  0.2421905080031619  T  T  T

0.00000000E+00  0.00000000E+00  0.00000000E+00
0.00000000E+00  0.00000000E+00  0.00000000E+00
0.00000000E+00  0.00000000E+00  0.00000000E+00
0.00000000E+00  0.00000000E+00  0.00000000E+00
0.00000000E+00  0.00000000E+00  0.00000000E+00
0.00000000E+00  0.00000000E+00  0.00000000E+00
0.00000000E+00  0.00000000E+00  0.00000000E+00
