Ti2C  (n=1)
1.00000000000000
3.2669949099062037  0.0000000000000001  0.0000000000000001
-1.6334974549531023  2.8293005863286331  -0.0000000000000001
0.0000000000000012  -0.0000000000000008  30.9871798814525903
Ti  C  Br
2  1  2
Selective  dynamics
Direct
-0.0000000000000000  -0.0000000000000000  0.0605015829931702  T  T  T
0.6666666666666643  0.3333333333333357  0.1327131562750594  T  T  T
0.3333333333333357  0.6666666666666643  0.0966073696341148  T  T  T
0.3333333333333357  0.6666666666666643  0.0000000000000000  T  T  T
0.3333333333333357  0.6666666666666643  0.1932147392682295  T  T  T

0.00000000E+00  0.00000000E+00  0.00000000E+00
0.00000000E+00  0.00000000E+00  0.00000000E+00
0.00000000E+00  0.00000000E+00  0.00000000E+00
0.00000000E+00  0.00000000E+00  0.00000000E+00
0.00000000E+00  0.00000000E+00  0.00000000E+00
