Ti2N  (n=1)
1.00000000000000
3.2398449472065294  0.0000000000000000  0.0000000000000000
-1.6199224736032645  2.8057880288442765  0.0000000000000000
0.0000000000000001  -0.0000000000000003  30.9731485667588657
Ti  N  Br
2  1  2
Selective  dynamics
Direct
0.0000000000000000  -0.0000000000000000  0.0622128656824127  T  T  T
0.6666666666666643  0.3333333333333357  0.1306363874015760  T  T  T
0.3333333333333357  0.6666666666666643  0.0964246265419944  T  T  T
0.3333333333333357  0.6666666666666643  0.0000000000000000  T  T  T
0.3333333333333357  0.6666666666666643  0.1928492530839888  T  T  T

0.00000000E+00  0.00000000E+00  0.00000000E+00
0.00000000E+00  0.00000000E+00  0.00000000E+00
0.00000000E+00  0.00000000E+00  0.00000000E+00
0.00000000E+00  0.00000000E+00  0.00000000E+00
0.00000000E+00  0.00000000E+00  0.00000000E+00
