Hf2C  (n=1)
1.00000000000000
3.4157848270784079  0.0000000000000016  -0.0000000000000001
-1.7078924135392028  2.9581564345545641  -0.0000000000000006
-0.0000000000000010  -0.0000000000000103  31.3580271476738766
Hf  C  Br
2  1  2
Selective  dynamics
Direct
-0.0000000000000000  -0.0000000000000000  0.0630979284284055  T  T  T
0.6666666666666643  0.3333333333333357  0.1396580395325994  T  T  T
0.3333333333333357  0.6666666666666643  0.1013779839805024  T  T  T
0.3333333333333357  0.6666666666666643  0.0000000000000000  T  T  T
0.3333333333333357  0.6666666666666643  0.2027559679609982  T  T  T

0.00000000E+00  0.00000000E+00  0.00000000E+00
0.00000000E+00  0.00000000E+00  0.00000000E+00
0.00000000E+00  0.00000000E+00  0.00000000E+00
0.00000000E+00  0.00000000E+00  0.00000000E+00
0.00000000E+00  0.00000000E+00  0.00000000E+00
