Zr2N  (n=1)
1.00000000000000
3.3751470907383818  0.0000000000000013  -0.0000000000000004
-1.6875735453691900  2.9229631224943620  0.0000000000000009
-0.0000000000000036  0.0000000000000068  31.5484482274894233
Zr  N  Br
2  1  2
Selective  dynamics
Direct
-0.0000000000000000  -0.0000000000000000  0.0629745825366901  T  T  T
0.6666666666666643  0.3333333333333357  0.1445934151115655  T  T  T
0.3333333333333357  0.6666666666666643  0.1037839988241243  T  T  T
0.3333333333333357  0.6666666666666643  0.0000000000000000  T  T  T
0.3333333333333357  0.6666666666666643  0.2075679976482488  T  T  T

0.00000000E+00  0.00000000E+00  0.00000000E+00
0.00000000E+00  0.00000000E+00  0.00000000E+00
0.00000000E+00  0.00000000E+00  0.00000000E+00
0.00000000E+00  0.00000000E+00  0.00000000E+00
0.00000000E+00  0.00000000E+00  0.00000000E+00
