Nb2C  (n=1)
1.00000000000000
3.2728174393865728  -0.0000000000000001  0.0000000000000000
-1.6364087196932864  2.8343430449188367  -0.0000000000000000
-0.0000000000000000  -0.0000000000000009  31.4294627880346198
Nb  C  Br
2  1  2
Selective  dynamics
Direct
-0.0000000000000000  -0.0000000000000000  0.0634134003852165  T  T  T
0.6666666666666643  0.3333333333333357  0.1411546137547627  T  T  T
0.3333333333333357  0.6666666666666643  0.1022840070699861  T  T  T
0.3333333333333357  0.6666666666666643  0.0000000000000000  T  T  T
0.3333333333333357  0.6666666666666643  0.2045680141399793  T  T  T

0.00000000E+00  0.00000000E+00  0.00000000E+00
0.00000000E+00  0.00000000E+00  0.00000000E+00
0.00000000E+00  0.00000000E+00  0.00000000E+00
0.00000000E+00  0.00000000E+00  0.00000000E+00
0.00000000E+00  0.00000000E+00  0.00000000E+00
