Mo2N  (n=1)
1.00000000000000
3.3290058442187394  0.0000000000000000  0.0000000000000000
-1.6645029221093697  2.8830036301973627  0.0000000000000009
0.0000000000000000  0.0000000000000001  31.0639616393377338
Mo  N  Br
2  1  2
Selective  dynamics
Direct
0.6666666666666643  0.3333333333333357  0.0665940450689772  T  T  T
0.0000000000000000  0.0000000000000000  0.1286148503624039  T  T  T
0.3333333333333357  0.6666666666666643  0.0976044477156906  T  T  T
0.3333333333333357  0.6666666666666643  0.0000000000000000  T  T  T
0.3333333333333357  0.6666666666666643  0.1952088954313754  T  T  T

0.00000000E+00  0.00000000E+00  0.00000000E+00
0.00000000E+00  0.00000000E+00  0.00000000E+00
0.00000000E+00  0.00000000E+00  0.00000000E+00
0.00000000E+00  0.00000000E+00  0.00000000E+00
0.00000000E+00  0.00000000E+00  0.00000000E+00
