Cr2C  (n=1)
1.00000000000000
3.0967852714477115  0.0000000000000000  0.0000000000000000
-1.5483926357238558  2.6818947151893711  -0.0000000000000001
-0.0000000000000002  -0.0000000000000005  30.8202744117417744
Cr  C  Br
2  1  2
Selective  dynamics
Direct
-0.0000000000000000  -0.0000000000000000  0.0617000924442465  T  T  T
0.6666666666666643  0.3333333333333357  0.1271455464357366  T  T  T
0.3333333333333357  0.6666666666666643  0.0944228194399948  T  T  T
0.3333333333333357  0.6666666666666643  0.0000000000000000  T  T  T
0.3333333333333357  0.6666666666666643  0.1888456388799832  T  T  T

0.00000000E+00  0.00000000E+00  0.00000000E+00
0.00000000E+00  0.00000000E+00  0.00000000E+00
0.00000000E+00  0.00000000E+00  0.00000000E+00
0.00000000E+00  0.00000000E+00  0.00000000E+00
0.00000000E+00  0.00000000E+00  0.00000000E+00
