Sc2C  (n=1)
1.00000000000000
3.4724521937183006  -0.0000000000000000  -0.0000000000000000
-1.7362260968591503  3.0072318137407246  0.0000000000000000
-0.0000000000000001  0.0000000000000004  31.3475746365445929
Sc  C  Br
2  1  2
Selective  dynamics
Direct
0.0000000000000000  0.0000000000000000  0.0614582291790514  T  T  T
0.6666666666666643  0.3333333333333357  0.1410319063462875  T  T  T
0.3333333333333357  0.6666666666666643  0.1012450677626731  T  T  T
0.3333333333333357  0.6666666666666643  0.0000000000000000  T  T  T
0.3333333333333357  0.6666666666666643  0.2024901355253390  T  T  T

0.00000000E+00  0.00000000E+00  0.00000000E+00
0.00000000E+00  0.00000000E+00  0.00000000E+00
0.00000000E+00  0.00000000E+00  0.00000000E+00
0.00000000E+00  0.00000000E+00  0.00000000E+00
0.00000000E+00  0.00000000E+00  0.00000000E+00
