Nb2N  (n=1)
1.00000000000000
3.2519993700964651  -0.0000000000000005  0.0000000000000000
-1.6259996850482330  2.8163140679470122  -0.0000000000000000
0.0000000000000004  -0.0000000000000003  31.4402606068672412
Nb  N  Br
2  1  2
Selective  dynamics
Direct
-0.0000000000000000  0.0000000000000000  0.0640447325640221  T  T  T
0.6666666666666643  0.3333333333333357  0.1407964641231499  T  T  T
0.3333333333333357  0.6666666666666643  0.1024205983435860  T  T  T
0.3333333333333357  0.6666666666666643  0.0000000000000000  T  T  T
0.3333333333333357  0.6666666666666643  0.2048411966871721  T  T  T

0.00000000E+00  0.00000000E+00  0.00000000E+00
0.00000000E+00  0.00000000E+00  0.00000000E+00
0.00000000E+00  0.00000000E+00  0.00000000E+00
0.00000000E+00  0.00000000E+00  0.00000000E+00
0.00000000E+00  0.00000000E+00  0.00000000E+00
