Hf2N  (n=1)
1.00000000000000
3.3175547041470774  -0.0000000000000024  -0.0000000000000001
-1.6587773520735409  2.8730866526036150  0.0000000000000001
-0.0000000000000006  0.0000000000000006  31.5094343467939453
Hf  N  Br
2  1  2
Selective  dynamics
Direct
0.0000000000000000  -0.0000000000000000  0.0628079624062610  T  T  T
0.6666666666666643  0.3333333333333357  0.1437788736235802  T  T  T
0.3333333333333357  0.6666666666666643  0.1032934180149205  T  T  T
0.3333333333333357  0.6666666666666643  0.0000000000000000  T  T  T
0.3333333333333357  0.6666666666666643  0.2065868360298341  T  T  T

0.00000000E+00  0.00000000E+00  0.00000000E+00
0.00000000E+00  0.00000000E+00  0.00000000E+00
0.00000000E+00  0.00000000E+00  0.00000000E+00
0.00000000E+00  0.00000000E+00  0.00000000E+00
0.00000000E+00  0.00000000E+00  0.00000000E+00
