Ta2N  (n=1)
1.00000000000000
3.1923947645617994  0.0000000000000004  0.0000000000000000
-1.5961973822808995  2.7646949653606421  0.0000000000000000
0.0000000000000000  -0.0000000000000001  31.5061778250941984
Ta  N  Br
2  1  2
Selective  dynamics
Direct
0.0000000000000000  -0.0000000000000000  0.0633249949415734  T  T  T
0.6666666666666643  0.3333333333333357  0.1431798328167502  T  T  T
0.3333333333333357  0.6666666666666643  0.1032524138791618  T  T  T
0.3333333333333357  0.6666666666666643  0.0000000000000000  T  T  T
0.3333333333333357  0.6666666666666643  0.2065048277583237  T  T  T

0.00000000E+00  0.00000000E+00  0.00000000E+00
0.00000000E+00  0.00000000E+00  0.00000000E+00
0.00000000E+00  0.00000000E+00  0.00000000E+00
0.00000000E+00  0.00000000E+00  0.00000000E+00
0.00000000E+00  0.00000000E+00  0.00000000E+00
