Ta2C  (n=1)
1.00000000000000
3.2359244345842142  0.0000000000000002  0.0000000000000009
-1.6179622172921069  2.8023927654359713  -0.0000000000000025
0.0000000000000097  -0.0000000000000220  31.4609940426006816
Ta  C  Br
2  1  2
Selective  dynamics
Direct
-0.0000000000000000  -0.0000000000000000  0.0634500087871605  T  T  T
0.6666666666666643  0.3333333333333357  0.1419152137436974  T  T  T
0.3333333333333357  0.6666666666666643  0.1026826112654289  T  T  T
0.3333333333333357  0.6666666666666643  0.0000000000000000  T  T  T
0.3333333333333357  0.6666666666666643  0.2053652225308579  T  T  T

0.00000000E+00  0.00000000E+00  0.00000000E+00
0.00000000E+00  0.00000000E+00  0.00000000E+00
0.00000000E+00  0.00000000E+00  0.00000000E+00
0.00000000E+00  0.00000000E+00  0.00000000E+00
0.00000000E+00  0.00000000E+00  0.00000000E+00
