Sc2N
1.00000000000000
3.4035333951785511  -0.0000000000000007  0.0000000000000008
-1.7017666975892765  2.9475463832064479  0.0000000000000001
0.0000000000000075  0.0000000000000053  31.2351924229611058
Sc  N  Br
2  1  2
Selective  dynamics
Direct
0.0000000000000000  0.0000000000000000  0.0611384825532402  T  T  T
0.6666666666666643  0.3333333333333357  0.1384822637680661  T  T  T
0.3333333333333357  0.6666666666666643  0.0998103731606532  T  T  T
0.3333333333333357  0.6666666666666643  0.0000000000000000  T  T  T
0.3333333333333357  0.6666666666666643  0.1996207463213063  T  T  T

0.00000000E+00  0.00000000E+00  0.00000000E+00
0.00000000E+00  0.00000000E+00  0.00000000E+00
0.00000000E+00  0.00000000E+00  0.00000000E+00
0.00000000E+00  0.00000000E+00  0.00000000E+00
0.00000000E+00  0.00000000E+00  0.00000000E+00
