Zr2C  (n=1)
1.00000000000000
3.4584554794304885  -0.0000000000000024  0.0000000000000009
-1.7292277397152460  2.9951103035031141  -0.0000000000000004
0.0000000000000073  -0.0000000000000034  31.4507171983041900
Zr  C  Br
2  1  2
Selective  dynamics
Direct
0.0000000000000000  -0.0000000000000000  0.0631456253469596  T  T  T
0.6666666666666643  0.3333333333333357  0.1419599421232797  T  T  T
0.3333333333333357  0.6666666666666643  0.1025527837351196  T  T  T
0.3333333333333357  0.6666666666666643  0.0000000000000000  T  T  T
0.3333333333333357  0.6666666666666643  0.2051055674702391  T  T  T

0.00000000E+00  0.00000000E+00  0.00000000E+00
0.00000000E+00  0.00000000E+00  0.00000000E+00
0.00000000E+00  0.00000000E+00  0.00000000E+00
0.00000000E+00  0.00000000E+00  0.00000000E+00
0.00000000E+00  0.00000000E+00  0.00000000E+00
