Mo2C  (n=1)
1.00000000000000
3.3876589599841425  -0.0000000000000002  -0.0000000000000001
-1.6938294799920712  2.9337987186596188  0.0000000000000002
-0.0000000000000006  0.0000000000000004  31.0093886114022439
Mo  C  Br
2  1  2
Selective  dynamics
Direct
0.6666666666666643  0.3333333333333357  0.0675113518545159  T  T  T
0.0000000000000000  0.0000000000000000  0.1262812019655415  T  T  T
0.3333333333333357  0.6666666666666643  0.0968962769100286  T  T  T
0.3333333333333357  0.6666666666666643  0.0000000000000000  T  T  T
0.3333333333333357  0.6666666666666643  0.1937925538200574  T  T  T

0.00000000E+00  0.00000000E+00  0.00000000E+00
0.00000000E+00  0.00000000E+00  0.00000000E+00
0.00000000E+00  0.00000000E+00  0.00000000E+00
0.00000000E+00  0.00000000E+00  0.00000000E+00
0.00000000E+00  0.00000000E+00  0.00000000E+00
