Cr2N  (n=1)
1.00000000000000
3.1795605987983597  0.0000000000000000  0.0000000000000000
-1.5897802993991801  2.7535802517184527  0.0000000000000000
0.0000000000000001  0.0000000000000001  30.7066445370166008
Cr  N  Br
2  1  2
Selective  dynamics
Direct
0.0000000000000000  0.0000000000000000  0.0631536900735950  T  T  T
0.6666666666666643  0.3333333333333357  0.1226902737674325  T  T  T
0.3333333333333357  0.6666666666666643  0.0929219819205106  T  T  T
0.3333333333333357  0.6666666666666643  0.0000000000000000  T  T  T
0.3333333333333357  0.6666666666666643  0.1858439638410276  T  T  T

0.00000000E+00  0.00000000E+00  0.00000000E+00
0.00000000E+00  0.00000000E+00  0.00000000E+00
0.00000000E+00  0.00000000E+00  0.00000000E+00
0.00000000E+00  0.00000000E+00  0.00000000E+00
0.00000000E+00  0.00000000E+00  0.00000000E+00
