Zr2C  (n=1)
1.00000000000000
3.2483863601448961  0.0000000000000000  0.0000000000000000
-1.6241931800724485  2.8131851094589320  0.0000000000000000
0.0000000000000001  0.0000000000000001  32.5046533861167504
Zr  C  O  H
2  1  2  2
Selective  dynamics
Direct
-0.0000000000000000  0.0000000000000000  0.0727197082767227  T  T  T
-0.0000000000000000  0.0000000000000000  0.1595365580269320  T  T  T
0.3333333333333357  0.6666666666666643  0.1169323974889319  T  T  T
0.3333333333333357  0.6666666666666643  0.0299763389108322  T  T  T
0.6666666666666643  0.3333333333333357  0.2008180724055372  T  T  T
0.3333333333333357  0.6666666666666643  0.0000000000000000  T  T  T
0.6666666666666643  0.3333333333333357  0.2308793543179914  T  T  T

0.00000000E+00  0.00000000E+00  0.00000000E+00
0.00000000E+00  0.00000000E+00  0.00000000E+00
0.00000000E+00  0.00000000E+00  0.00000000E+00
0.00000000E+00  0.00000000E+00  0.00000000E+00
0.00000000E+00  0.00000000E+00  0.00000000E+00
0.00000000E+00  0.00000000E+00  0.00000000E+00
0.00000000E+00  0.00000000E+00  0.00000000E+00
