Mo2N  (n=1)
1.00000000000000
2.8429176079436287  -0.0000000000000003  0.0000000000000000
-1.4214588039718146  2.4620388694278663  0.0000000000000000
0.0000000000000003  -0.0000000000000001  32.7445502120897416
Mo  N  O  H
2  1  2  2
Selective  dynamics
Direct
0.0000000000000000  -0.0000000000000000  0.0760425992370242  T  T  T
0.0000000000000000  -0.0000000000000000  0.1625385961268965  T  T  T
0.3333333333333357  0.6666666666666643  0.1182245295472190  T  T  T
0.3333333333333357  0.6666666666666643  0.0302895775738191  T  T  T
0.6666666666666643  0.3333333333333357  0.2064808749046579  T  T  T
0.3333333333333357  0.6666666666666643  0.0000000000000000  T  T  T
0.6666666666666643  0.3333333333333357  0.2365141729517587  T  T  T

0.00000000E+00  0.00000000E+00  0.00000000E+00
0.00000000E+00  0.00000000E+00  0.00000000E+00
0.00000000E+00  0.00000000E+00  0.00000000E+00
0.00000000E+00  0.00000000E+00  0.00000000E+00
0.00000000E+00  0.00000000E+00  0.00000000E+00
0.00000000E+00  0.00000000E+00  0.00000000E+00
0.00000000E+00  0.00000000E+00  0.00000000E+00
