Nb2C  (n=1)
1.00000000000000
3.0161970426216227  0.0000000000000000  0.0000000000000000
-1.5080985213108113  2.6121032619029774  0.0000000000000000
0.0000000000000002  0.0000000000000001  32.6204177669259963
Nb  C  O  H
2  1  2  2
Selective  dynamics
Direct
-0.0000000000000000  -0.0000000000000000  0.0723831244468301  T  T  T
-0.0000000000000000  -0.0000000000000000  0.1599035146825450  T  T  T
0.3333333333333357  0.6666666666666643  0.1153830024116759  T  T  T
0.3333333333333357  0.6666666666666643  0.0298859517394535  T  T  T
0.6666666666666643  0.3333333333333357  0.2035675924577825  T  T  T
0.3333333333333357  0.6666666666666643  0.0000000000000000  T  T  T
0.6666666666666643  0.3333333333333357  0.2336088342391609  T  T  T

0.00000000E+00  0.00000000E+00  0.00000000E+00
0.00000000E+00  0.00000000E+00  0.00000000E+00
0.00000000E+00  0.00000000E+00  0.00000000E+00
0.00000000E+00  0.00000000E+00  0.00000000E+00
0.00000000E+00  0.00000000E+00  0.00000000E+00
0.00000000E+00  0.00000000E+00  0.00000000E+00
0.00000000E+00  0.00000000E+00  0.00000000E+00
