Sc2C  (n=1)
1.00000000000000
3.2331662356241893  -0.0000000000000001  0.0000000000000000
-1.6165831178120946  2.8000040948238278  0.0000000000000000
0.0000000000000000  -0.0000000000000001  32.2423151297264781
Sc  C  O  H
2  1  2  2
Selective  dynamics
Direct
0.0000000000000000  0.0000000000000000  0.0707617245355399  T  T  T
0.0000000000000000  0.0000000000000000  0.1559067194443355  T  T  T
0.3333333333333357  0.6666666666666643  0.1139889380758714  T  T  T
0.3333333333333357  0.6666666666666643  0.0302357182532949  T  T  T
0.6666666666666643  0.3333333333333357  0.1945235482974890  T  T  T
0.3333333333333357  0.6666666666666643  0.0000000000000000  T  T  T
0.6666666666666643  0.3333333333333357  0.2246214361650870  T  T  T

0.00000000E+00  0.00000000E+00  0.00000000E+00
0.00000000E+00  0.00000000E+00  0.00000000E+00
0.00000000E+00  0.00000000E+00  0.00000000E+00
0.00000000E+00  0.00000000E+00  0.00000000E+00
0.00000000E+00  0.00000000E+00  0.00000000E+00
0.00000000E+00  0.00000000E+00  0.00000000E+00
0.00000000E+00  0.00000000E+00  0.00000000E+00
