Nb2N  (n=1)
1.00000000000000
2.9535547927058756  0.0000000000000001  0.0000000000000000
-1.4767773963529378  2.5578534820968386  0.0000000000000000
0.0000000000000002  -0.0000000000000002  32.6840241986724322
Nb  N  O  H
2  1  2  2
Selective  dynamics
Direct
0.0000000000000000  0.0000000000000000  0.0726399082948582  T  T  T
0.0000000000000000  0.0000000000000000  0.1612804006121225  T  T  T
0.3333333333333357  0.6666666666666643  0.1143082215312484  T  T  T
0.3333333333333357  0.6666666666666643  0.0301181213519529  T  T  T
0.6666666666666643  0.3333333333333357  0.2050641729126573  T  T  T
0.3333333333333357  0.6666666666666643  0.0000000000000000  T  T  T
0.6666666666666643  0.3333333333333357  0.2351003093121116  T  T  T

0.00000000E+00  0.00000000E+00  0.00000000E+00
0.00000000E+00  0.00000000E+00  0.00000000E+00
0.00000000E+00  0.00000000E+00  0.00000000E+00
0.00000000E+00  0.00000000E+00  0.00000000E+00
0.00000000E+00  0.00000000E+00  0.00000000E+00
0.00000000E+00  0.00000000E+00  0.00000000E+00
0.00000000E+00  0.00000000E+00  0.00000000E+00
