Ta2N  (n=1)
1.00000000000000
2.9246850143215584  0.0000000000000000  0.0000000000000000
-1.4623425071607792  2.5328515205902127  0.0000000000000000
0.0000000000000001  0.0000000000000001  32.7099758192178385
Ta  N  O  H
2  1  2  2
Selective  dynamics
Direct
0.0000000000000000  0.0000000000000000  0.0726392961370974  T  T  T
0.0000000000000000  0.0000000000000000  0.1615392469792135  T  T  T
0.3333333333333357  0.6666666666666643  0.1144390021591299  T  T  T
0.3333333333333357  0.6666666666666643  0.0302856524707663  T  T  T
0.6666666666666643  0.3333333333333357  0.2055313131779766  T  T  T
0.3333333333333357  0.6666666666666643  0.0000000000000000  T  T  T
0.6666666666666643  0.3333333333333357  0.2357071696362446  T  T  T

0.00000000E+00  0.00000000E+00  0.00000000E+00
0.00000000E+00  0.00000000E+00  0.00000000E+00
0.00000000E+00  0.00000000E+00  0.00000000E+00
0.00000000E+00  0.00000000E+00  0.00000000E+00
0.00000000E+00  0.00000000E+00  0.00000000E+00
0.00000000E+00  0.00000000E+00  0.00000000E+00
0.00000000E+00  0.00000000E+00  0.00000000E+00
