Zr2N  (n=1)
1.00000000000000
3.1263538723135680  0.0000000000000001  0.0000000000000000
-1.5631769361567840  2.7075018748454531  0.0000000000000000
0.0000000000000000  0.0000000000000004  32.6955464907897237
Zr  N  O  H
2  1  2  2
Selective  dynamics
Direct
0.0000000000000000  0.0000000000000000  0.0728377542043883  T  T  T
0.0000000000000000  0.0000000000000000  0.1621444911496194  T  T  T
0.3333333333333357  0.6666666666666643  0.1168725384454893  T  T  T
0.3333333333333357  0.6666666666666643  0.0297635522935751  T  T  T
0.6666666666666643  0.3333333333333357  0.2053622534601860  T  T  T
0.3333333333333357  0.6666666666666643  0.0000000000000000  T  T  T
0.6666666666666643  0.3333333333333357  0.2353698688889493  T  T  T

0.00000000E+00  0.00000000E+00  0.00000000E+00
0.00000000E+00  0.00000000E+00  0.00000000E+00
0.00000000E+00  0.00000000E+00  0.00000000E+00
0.00000000E+00  0.00000000E+00  0.00000000E+00
0.00000000E+00  0.00000000E+00  0.00000000E+00
0.00000000E+00  0.00000000E+00  0.00000000E+00
0.00000000E+00  0.00000000E+00  0.00000000E+00
