Ti2N  (n=1)
1.00000000000000
2.9094855215494539  -0.0000000000000001  0.0000000000000000
-1.4547427607747270  2.5196883736728437  0.0000000000000000
0.0000000000000001  0.0000000000000001  32.1626231510969163
Ti  N  O  H
2  1  2  2
Selective  dynamics
Direct
0.0000000000000000  0.0000000000000000  0.0704767401477501  T  T  T
0.0000000000000000  0.0000000000000000  0.1525295808873665  T  T  T
0.3333333333333357  0.6666666666666643  0.1115862504131203  T  T  T
0.3333333333333357  0.6666666666666643  0.0302728825706450  T  T  T
0.6666666666666643  0.3333333333333357  0.1921765582187737  T  T  T
0.3333333333333357  0.6666666666666643  0.0000000000000000  T  T  T
0.6666666666666643  0.3333333333333357  0.2227002168774481  T  T  T

0.00000000E+00  0.00000000E+00  0.00000000E+00
0.00000000E+00  0.00000000E+00  0.00000000E+00
0.00000000E+00  0.00000000E+00  0.00000000E+00
0.00000000E+00  0.00000000E+00  0.00000000E+00
0.00000000E+00  0.00000000E+00  0.00000000E+00
0.00000000E+00  0.00000000E+00  0.00000000E+00
0.00000000E+00  0.00000000E+00  0.00000000E+00
