Hf2C  (n=1)
1.00000000000000
3.2014345130557396  0.0000000000000002  0.0000000000000000
-1.6007172565278696  2.7725236170628356  0.0000000000000000
-0.0000000000000001  0.0000000000000002  32.4094438168482668
Hf  C  O  H
2  1  2  2
Selective  dynamics
Direct
-0.0000000000000000  0.0000000000000000  0.0725789584753933  T  T  T
-0.0000000000000000  0.0000000000000000  0.1581901788722418  T  T  T
0.3333333333333357  0.6666666666666643  0.1169660034393878  T  T  T
0.3333333333333357  0.6666666666666643  0.0301473087521020  T  T  T
0.6666666666666643  0.3333333333333357  0.1983265334268707  T  T  T
0.3333333333333357  0.6666666666666643  0.0000000000000000  T  T  T
0.6666666666666643  0.3333333333333357  0.2286199003821354  T  T  T

0.00000000E+00  0.00000000E+00  0.00000000E+00
0.00000000E+00  0.00000000E+00  0.00000000E+00
0.00000000E+00  0.00000000E+00  0.00000000E+00
0.00000000E+00  0.00000000E+00  0.00000000E+00
0.00000000E+00  0.00000000E+00  0.00000000E+00
0.00000000E+00  0.00000000E+00  0.00000000E+00
0.00000000E+00  0.00000000E+00  0.00000000E+00
