Sc2N  (n=1)
1.00000000000000
3.1534313483669338  0.0000000000000000  0.0000000000000000
-1.5767156741834669  2.7309516568812504  0.0000000000000000
-0.0000000000000001  0.0000000000000003  32.1752380718568887
Sc  N  O  H
2  1  2  2
Selective  dynamics
Direct
-0.0000000000000000  -0.0000000000000000  0.0701050360110355  T  T  T
-0.0000000000000000  -0.0000000000000000  0.1542025144753136  T  T  T
0.3333333333333357  0.6666666666666643  0.1148918751837360  T  T  T
0.3333333333333357  0.6666666666666643  0.0303269532135074  T  T  T
0.6666666666666643  0.3333333333333357  0.1927022176926266  T  T  T
0.3333333333333357  0.6666666666666643  0.0000000000000000  T  T  T
0.6666666666666643  0.3333333333333357  0.2230049722035450  T  T  T

0.00000000E+00  0.00000000E+00  0.00000000E+00
0.00000000E+00  0.00000000E+00  0.00000000E+00
0.00000000E+00  0.00000000E+00  0.00000000E+00
0.00000000E+00  0.00000000E+00  0.00000000E+00
0.00000000E+00  0.00000000E+00  0.00000000E+00
0.00000000E+00  0.00000000E+00  0.00000000E+00
0.00000000E+00  0.00000000E+00  0.00000000E+00
