Ti2C  (n=1)
1.00000000000000
3.0081576194647992  0.0000000000000000  0.0000000000000000
-1.5040788097323996  2.6051409171278550  0.0000000000000000
0.0000000000000000  0.0000000000000000  32.0631059109827774
Ti  C  O  H
2  1  2  2
Selective  dynamics
Direct
0.0000000000000000  0.0000000000000000  0.0708096892817717  T  T  T
0.0000000000000000  0.0000000000000000  0.1510747419167635  T  T  T
0.3333333333333357  0.6666666666666643  0.1117234299040594  T  T  T
0.3333333333333357  0.6666666666666643  0.0304250741450371  T  T  T
0.6666666666666643  0.3333333333333357  0.1898155062555443  T  T  T
0.3333333333333357  0.6666666666666643  0.0000000000000000  T  T  T
0.6666666666666643  0.3333333333333357  0.2202876393382528  T  T  T

0.00000000E+00  0.00000000E+00  0.00000000E+00
0.00000000E+00  0.00000000E+00  0.00000000E+00
0.00000000E+00  0.00000000E+00  0.00000000E+00
0.00000000E+00  0.00000000E+00  0.00000000E+00
0.00000000E+00  0.00000000E+00  0.00000000E+00
0.00000000E+00  0.00000000E+00  0.00000000E+00
0.00000000E+00  0.00000000E+00  0.00000000E+00
