Hf2N  (n=1)
1.00000000000000
3.0663800747764154  0.0000000000000000  0.0000000000000000
-1.5331900373882084  2.6555630425543639  0.0000000000000000
0.0000000000000000  0.0000000000000001  32.6399067237240459
Hf  N  O  H
2  1  2  2
Selective  dynamics
Direct
0.0000000000000000  -0.0000000000000000  0.0725447328364871  T  T  T
0.0000000000000000  -0.0000000000000000  0.1610965476908032  T  T  T
0.3333333333333357  0.6666666666666643  0.1163114340055522  T  T  T
0.3333333333333357  0.6666666666666643  0.0299090927739815  T  T  T
0.6666666666666643  0.3333333333333357  0.2038164647852640  T  T  T
0.3333333333333357  0.6666666666666643  0.0000000000000000  T  T  T
0.6666666666666643  0.3333333333333357  0.2340664386203972  T  T  T

0.00000000E+00  0.00000000E+00  0.00000000E+00
0.00000000E+00  0.00000000E+00  0.00000000E+00
0.00000000E+00  0.00000000E+00  0.00000000E+00
0.00000000E+00  0.00000000E+00  0.00000000E+00
0.00000000E+00  0.00000000E+00  0.00000000E+00
0.00000000E+00  0.00000000E+00  0.00000000E+00
0.00000000E+00  0.00000000E+00  0.00000000E+00
