Mo2C  (n=1)
1.00000000000000
2.9220738550661425  0.0000000000000000  0.0000000000000000
-1.4610369275330712  2.5305901903384096  0.0000000000000000
-0.0000000000000001  0.0000000000000004  32.5476325487597293
Mo  C  O  H
2  1  2  2
Selective  dynamics
Direct
-0.0000000000000000  -0.0000000000000000  0.0745062586171726  T  T  T
-0.0000000000000000  -0.0000000000000000  0.1576632811401603  T  T  T
0.3333333333333357  0.6666666666666643  0.1146742028398569  T  T  T
0.3333333333333357  0.6666666666666643  0.0302894234609362  T  T  T
0.6666666666666643  0.3333333333333357  0.2017837358524035  T  T  T
0.3333333333333357  0.6666666666666643  0.0000000000000000  T  T  T
0.6666666666666643  0.3333333333333357  0.2318949784581903  T  T  T

0.00000000E+00  0.00000000E+00  0.00000000E+00
0.00000000E+00  0.00000000E+00  0.00000000E+00
0.00000000E+00  0.00000000E+00  0.00000000E+00
0.00000000E+00  0.00000000E+00  0.00000000E+00
0.00000000E+00  0.00000000E+00  0.00000000E+00
0.00000000E+00  0.00000000E+00  0.00000000E+00
0.00000000E+00  0.00000000E+00  0.00000000E+00
