Cr2N  (n=1)
1.00000000000000
2.7291114094941036  -0.0000000000000001  0.0000000000000000
-1.3645557047470518  2.3634798105105417  0.0000000000000000
0.0000000000000000  0.0000000000000000  32.0197025330778331
Cr  N  O  H
2  1  2  2
Selective  dynamics
Direct
0.0000000000000000  0.0000000000000000  0.0718659825822273  T  T  T
0.0000000000000000  0.0000000000000000  0.1490127432341759  T  T  T
0.3333333333333357  0.6666666666666643  0.1100239657170342  T  T  T
0.3333333333333357  0.6666666666666643  0.0307382241060405  T  T  T
0.6666666666666643  0.3333333333333357  0.1885031632719308  T  T  T
0.3333333333333357  0.6666666666666643  0.0000000000000000  T  T  T
0.6666666666666643  0.3333333333333357  0.2192307228908874  T  T  T

0.00000000E+00  0.00000000E+00  0.00000000E+00
0.00000000E+00  0.00000000E+00  0.00000000E+00
0.00000000E+00  0.00000000E+00  0.00000000E+00
0.00000000E+00  0.00000000E+00  0.00000000E+00
0.00000000E+00  0.00000000E+00  0.00000000E+00
0.00000000E+00  0.00000000E+00  0.00000000E+00
0.00000000E+00  0.00000000E+00  0.00000000E+00
