Cr2C  (n=1)
1.00000000000000
2.7476941634033207  0.0000000000000001  0.0000000000000000
-1.3738470817016604  2.3795729474340206  0.0000000000000000
-0.0000000000000003  0.0000000000000003  32.0222252777098149
Cr  C  O  H
2  1  2  2
Selective  dynamics
Direct
0.0000000000000000  -0.0000000000000000  0.0710534387654682  T  T  T
0.0000000000000000  -0.0000000000000000  0.1494417553260204  T  T  T
0.3333333333333357  0.6666666666666643  0.1090082230295978  T  T  T
0.3333333333333357  0.6666666666666643  0.0306928019386818  T  T  T
0.6666666666666643  0.3333333333333357  0.1886344925653541  T  T  T
0.3333333333333357  0.6666666666666643  0.0000000000000000  T  T  T
0.6666666666666643  0.3333333333333357  0.2192922327168149  T  T  T

0.00000000E+00  0.00000000E+00  0.00000000E+00
0.00000000E+00  0.00000000E+00  0.00000000E+00
0.00000000E+00  0.00000000E+00  0.00000000E+00
0.00000000E+00  0.00000000E+00  0.00000000E+00
0.00000000E+00  0.00000000E+00  0.00000000E+00
0.00000000E+00  0.00000000E+00  0.00000000E+00
0.00000000E+00  0.00000000E+00  0.00000000E+00
