Ta2C  (n=1)
1.00000000000000
2.9942509948366514  -0.0000000000000011  -0.0000000000000001
-1.4971254974183259  2.5930974269617386  0.0000000000000001
-0.0000000000000007  0.0000000000000002  32.6143399967624958
Ta  C  O  H
2  1  2  2
Selective  dynamics
Direct
0.0000000000000000  0.0000000000000000  0.0724816377874895  T  T  T
0.0000000000000000  0.0000000000000000  0.1595613256151841  T  T  T
0.3333333333333357  0.6666666666666643  0.1155353980797521  T  T  T
0.3333333333333357  0.6666666666666643  0.0300277904055966  T  T  T
0.6666666666666643  0.3333333333333357  0.2032006033791444  T  T  T
0.3333333333333357  0.6666666666666643  0.0000000000000000  T  T  T
0.6666666666666643  0.3333333333333357  0.2334660151797750  T  T  T

0.00000000E+00  0.00000000E+00  0.00000000E+00
0.00000000E+00  0.00000000E+00  0.00000000E+00
0.00000000E+00  0.00000000E+00  0.00000000E+00
0.00000000E+00  0.00000000E+00  0.00000000E+00
0.00000000E+00  0.00000000E+00  0.00000000E+00
0.00000000E+00  0.00000000E+00  0.00000000E+00
0.00000000E+00  0.00000000E+00  0.00000000E+00
