Ta4N3  (n=3)
1.00000000000000
3.0384907413487925  -0.0000000000000004  0.0000000000000000
-1.5192453706743958  2.6314101712966309  0.0000000000000001
-0.0000000000000019  0.0000000000000004  37.6725264396109552
Ta  N  O  H
4  3  2  2
Selective  dynamics
Direct
0.0000000000000000  0.0000000000000000  0.0642122028138398  T  T  T
0.6666666666666643  0.3333333333333357  0.1337414510825307  T  T  T
0.3333333333333357  0.6666666666666643  0.2026449725868734  T  T  T
-0.0000000000000000  -0.0000000000000000  0.2721742208555418  T  T  T
0.3333333333333357  0.6666666666666643  0.0985962997657453  T  T  T
0.0000000000000000  -0.0000000000000000  0.1681932118346908  T  T  T
0.6666666666666643  0.3333333333333357  0.2377901239036287  T  T  T
0.6666666666666643  0.3333333333333357  0.0262599852650693  T  T  T
0.3333333333333357  0.6666666666666643  0.3101264384043124  T  T  T
0.6666666666666643  0.3333333333333357  0.0000000000000000  T  T  T
0.3333333333333357  0.6666666666666643  0.3363864236693817  T  T  T

0.00000000E+00  0.00000000E+00  0.00000000E+00
0.00000000E+00  0.00000000E+00  0.00000000E+00
0.00000000E+00  0.00000000E+00  0.00000000E+00
0.00000000E+00  0.00000000E+00  0.00000000E+00
0.00000000E+00  0.00000000E+00  0.00000000E+00
0.00000000E+00  0.00000000E+00  0.00000000E+00
0.00000000E+00  0.00000000E+00  0.00000000E+00
0.00000000E+00  0.00000000E+00  0.00000000E+00
0.00000000E+00  0.00000000E+00  0.00000000E+00
0.00000000E+00  0.00000000E+00  0.00000000E+00
0.00000000E+00  0.00000000E+00  0.00000000E+00
