Nb4C3  (n=3)
1.00000000000000
3.1761846100291997  0.0000000000000001  0.0000000000000000
-1.5880923050146001  2.7506565599431392  0.0000000000000000
0.0000000000000003  0.0000000000000007  37.3322815447389686
Nb  C  O  H
4  3  2  2
Selective  dynamics
Direct
-0.0000000000000000  -0.0000000000000000  0.0644013271330900  T  T  T
0.6666666666666643  0.3333333333333357  0.1291415573774448  T  T  T
0.3333333333333357  0.6666666666666643  0.2011967191610510  T  T  T
0.0000000000000000  0.0000000000000000  0.2659369494054060  T  T  T
0.3333333333333357  0.6666666666666643  0.0950866377478882  T  T  T
-0.0000000000000000  0.0000000000000000  0.1651691382692518  T  T  T
0.6666666666666643  0.3333333333333357  0.2352516387905998  T  T  T
0.6666666666666643  0.3333333333333357  0.0261688865700596  T  T  T
0.3333333333333357  0.6666666666666643  0.3041693899684363  T  T  T
0.6666666666666643  0.3333333333333357  0.0000000000000000  T  T  T
0.3333333333333357  0.6666666666666643  0.3303382765384958  T  T  T

0.00000000E+00  0.00000000E+00  0.00000000E+00
0.00000000E+00  0.00000000E+00  0.00000000E+00
0.00000000E+00  0.00000000E+00  0.00000000E+00
0.00000000E+00  0.00000000E+00  0.00000000E+00
0.00000000E+00  0.00000000E+00  0.00000000E+00
0.00000000E+00  0.00000000E+00  0.00000000E+00
0.00000000E+00  0.00000000E+00  0.00000000E+00
0.00000000E+00  0.00000000E+00  0.00000000E+00
0.00000000E+00  0.00000000E+00  0.00000000E+00
0.00000000E+00  0.00000000E+00  0.00000000E+00
0.00000000E+00  0.00000000E+00  0.00000000E+00
