Zr4N3  (n=3)
1.00000000000000
3.2327228422123193  0.0000000000000000  0.0000000000000000
-1.6163614211061597  2.7996201051904124  0.0000000000000000
-0.0000000000000001  -0.0000000000000007  37.6382670768991616
Zr  N  O  H
4  3  2  2
Selective  dynamics
Direct
-0.0000000000000000  0.0000000000000000  0.0629329768136478  T  T  T
0.6666666666666643  0.3333333333333357  0.1308625725687632  T  T  T
0.3333333333333357  0.6666666666666643  0.2049198121801884  T  T  T
0.0000000000000000  0.0000000000000000  0.2728494079353038  T  T  T
0.3333333333333357  0.6666666666666643  0.0966915095726399  T  T  T
-0.0000000000000000  0.0000000000000000  0.1678911923744721  T  T  T
0.6666666666666643  0.3333333333333357  0.2390908751763118  T  T  T
0.6666666666666643  0.3333333333333357  0.0260780923694785  T  T  T
0.3333333333333357  0.6666666666666643  0.3097042923794654  T  T  T
0.6666666666666643  0.3333333333333357  0.0000000000000000  T  T  T
0.3333333333333357  0.6666666666666643  0.3357823847489518  T  T  T

0.00000000E+00  0.00000000E+00  0.00000000E+00
0.00000000E+00  0.00000000E+00  0.00000000E+00
0.00000000E+00  0.00000000E+00  0.00000000E+00
0.00000000E+00  0.00000000E+00  0.00000000E+00
0.00000000E+00  0.00000000E+00  0.00000000E+00
0.00000000E+00  0.00000000E+00  0.00000000E+00
0.00000000E+00  0.00000000E+00  0.00000000E+00
0.00000000E+00  0.00000000E+00  0.00000000E+00
0.00000000E+00  0.00000000E+00  0.00000000E+00
0.00000000E+00  0.00000000E+00  0.00000000E+00
0.00000000E+00  0.00000000E+00  0.00000000E+00
