Cr4C3  (n=3)
1.00000000000000
2.9826991619982812  0.0000000000000000  0.0000000000000000
-1.4913495809991406  2.5830932461182954  0.0000000000000003
-0.0000000000000003  0.0000000000000030  36.1058884021094073
Cr  C  O  H
4  3  2  2
Selective  dynamics
Direct
0.0000000000000000  0.0000000000000000  0.0618779854935332  T  T  T
0.6666666666666643  0.3333333333333357  0.1238865261684105  T  T  T
0.3333333333333357  0.6666666666666643  0.1837056393649147  T  T  T
0.0000000000000000  0.0000000000000000  0.2457141800397920  T  T  T
0.3333333333333357  0.6666666666666643  0.0891537569392055  T  T  T
0.0000000000000000  0.0000000000000000  0.1537960827666626  T  T  T
0.6666666666666643  0.3333333333333357  0.2184384085941124  T  T  T
0.6666666666666643  0.3333333333333357  0.0268959876322699  T  T  T
0.3333333333333357  0.6666666666666643  0.2806961779010553  T  T  T
0.6666666666666643  0.3333333333333357  0.0000000000000000  T  T  T
0.3333333333333357  0.6666666666666643  0.3075921655333252  T  T  T

0.00000000E+00  0.00000000E+00  0.00000000E+00
0.00000000E+00  0.00000000E+00  0.00000000E+00
0.00000000E+00  0.00000000E+00  0.00000000E+00
0.00000000E+00  0.00000000E+00  0.00000000E+00
0.00000000E+00  0.00000000E+00  0.00000000E+00
0.00000000E+00  0.00000000E+00  0.00000000E+00
0.00000000E+00  0.00000000E+00  0.00000000E+00
0.00000000E+00  0.00000000E+00  0.00000000E+00
0.00000000E+00  0.00000000E+00  0.00000000E+00
0.00000000E+00  0.00000000E+00  0.00000000E+00
0.00000000E+00  0.00000000E+00  0.00000000E+00
