Sc4N3  (n=3)
1.00000000000000
3.1869938020137787  0.0000000000000001  0.0000000000000001
-1.5934969010068893  2.7600175945046135  -0.0000000000000001
0.0000000000000010  -0.0000000000000006  37.0998845468687932
Sc  N  O  H
4  3  2  2
Selective  dynamics
Direct
-0.0000000000000000  -0.0000000000000000  0.0601248251703705  T  T  T
0.6666666666666643  0.3333333333333357  0.1290335088226590  T  T  T
0.3333333333333357  0.6666666666666643  0.1971099467339972  T  T  T
0.0000000000000000  0.0000000000000000  0.2660186303862857  T  T  T
0.3333333333333357  0.6666666666666643  0.0910061752563040  T  T  T
0.0000000000000000  0.0000000000000000  0.1630717277783281  T  T  T
0.6666666666666643  0.3333333333333357  0.2351372803003523  T  T  T
0.6666666666666643  0.3333333333333357  0.0261773578920021  T  T  T
0.3333333333333357  0.6666666666666643  0.2999660976646541  T  T  T
0.6666666666666643  0.3333333333333357  0.0000000000000000  T  T  T
0.3333333333333357  0.6666666666666643  0.3261434555566565  T  T  T

0.00000000E+00  0.00000000E+00  0.00000000E+00
0.00000000E+00  0.00000000E+00  0.00000000E+00
0.00000000E+00  0.00000000E+00  0.00000000E+00
0.00000000E+00  0.00000000E+00  0.00000000E+00
0.00000000E+00  0.00000000E+00  0.00000000E+00
0.00000000E+00  0.00000000E+00  0.00000000E+00
0.00000000E+00  0.00000000E+00  0.00000000E+00
0.00000000E+00  0.00000000E+00  0.00000000E+00
0.00000000E+00  0.00000000E+00  0.00000000E+00
0.00000000E+00  0.00000000E+00  0.00000000E+00
0.00000000E+00  0.00000000E+00  0.00000000E+00
