Ti4N3  (n=3)
1.00000000000000
2.9946917912797666  0.0000000000000000  0.0000000000000000
-1.4973458956398833  2.5934791678526148  0.0000000000000000
0.0000000000000001  0.0000000000000003  36.7141391432199597
Ti  N  O  H
4  3  2  2
Selective  dynamics
Direct
-0.0000000000000000  -0.0000000000000000  0.0614221195982740  T  T  T
0.6666666666666643  0.3333333333333357  0.1247360602064460  T  T  T
0.3333333333333357  0.6666666666666643  0.1943273692130325  T  T  T
0.0000000000000000  0.0000000000000000  0.2576413098212044  T  T  T
0.3333333333333357  0.6666666666666643  0.0922379255218944  T  T  T
0.0000000000000000  -0.0000000000000000  0.1595317147097354  T  T  T
0.6666666666666643  0.3333333333333357  0.2268255038975764  T  T  T
0.6666666666666643  0.3333333333333357  0.0266733651247930  T  T  T
0.3333333333333357  0.6666666666666643  0.2923900642946854  T  T  T
0.6666666666666643  0.3333333333333357  0.0000000000000000  T  T  T
0.3333333333333357  0.6666666666666643  0.3190634294194863  T  T  T

0.00000000E+00  0.00000000E+00  0.00000000E+00
0.00000000E+00  0.00000000E+00  0.00000000E+00
0.00000000E+00  0.00000000E+00  0.00000000E+00
0.00000000E+00  0.00000000E+00  0.00000000E+00
0.00000000E+00  0.00000000E+00  0.00000000E+00
0.00000000E+00  0.00000000E+00  0.00000000E+00
0.00000000E+00  0.00000000E+00  0.00000000E+00
0.00000000E+00  0.00000000E+00  0.00000000E+00
0.00000000E+00  0.00000000E+00  0.00000000E+00
0.00000000E+00  0.00000000E+00  0.00000000E+00
0.00000000E+00  0.00000000E+00  0.00000000E+00
