Cr4N3  (n=3)
1.00000000000000
2.9503495019422838  0.0000000000000001  0.0000000000000000
-1.4751747509711417  2.5550776187461532  0.0000000000000000
-0.0000000000000002  0.0000000000000008  36.4095616171471335
Cr  N  O  H
4  3  2  2
Selective  dynamics
Direct
-0.0000000000000000  -0.0000000000000000  0.0597881021657584  T  T  T
0.6666666666666643  0.3333333333333357  0.1253720242110122  T  T  T
0.3333333333333357  0.6666666666666643  0.1879951549141090  T  T  T
0.0000000000000000  0.0000000000000000  0.2535790769593552  T  T  T
0.3333333333333357  0.6666666666666643  0.0890758095348616  T  T  T
0.0000000000000000  0.0000000000000000  0.1566835895625606  T  T  T
0.6666666666666643  0.3333333333333357  0.2242913695902520  T  T  T
0.6666666666666643  0.3333333333333357  0.0267306137251234  T  T  T
0.3333333333333357  0.6666666666666643  0.2866365653999902  T  T  T
0.6666666666666643  0.3333333333333357  0.0000000000000000  T  T  T
0.3333333333333357  0.6666666666666643  0.3133671791251061  T  T  T

0.00000000E+00  0.00000000E+00  0.00000000E+00
0.00000000E+00  0.00000000E+00  0.00000000E+00
0.00000000E+00  0.00000000E+00  0.00000000E+00
0.00000000E+00  0.00000000E+00  0.00000000E+00
0.00000000E+00  0.00000000E+00  0.00000000E+00
0.00000000E+00  0.00000000E+00  0.00000000E+00
0.00000000E+00  0.00000000E+00  0.00000000E+00
0.00000000E+00  0.00000000E+00  0.00000000E+00
0.00000000E+00  0.00000000E+00  0.00000000E+00
0.00000000E+00  0.00000000E+00  0.00000000E+00
0.00000000E+00  0.00000000E+00  0.00000000E+00
