Hf4C3  (n=3)
1.00000000000000
3.2866867489054261  0.0000000000000000  0.0000000000000000
-1.6433433744527131  2.8463542193965905  0.0000000000000000
-0.0000000000000003  0.0000000000000010  37.3749908894612730
Hf  C  O  H
4  3  2  2
Selective  dynamics
Direct
-0.0000000000000000  -0.0000000000000000  0.0620258234045865  T  T  T
0.6666666666666643  0.3333333333333357  0.1312994136657857  T  T  T
0.3333333333333357  0.6666666666666643  0.1998041022136169  T  T  T
0.0000000000000000  0.0000000000000000  0.2690776924748239  T  T  T
0.3333333333333357  0.6666666666666643  0.0921044889930951  T  T  T
-0.0000000000000000  -0.0000000000000000  0.1655517579397052  T  T  T
0.6666666666666643  0.3333333333333357  0.2389990268862998  T  T  T
0.6666666666666643  0.3333333333333357  0.0261968302022545  T  T  T
0.3333333333333357  0.6666666666666643  0.3049066856771558  T  T  T
0.6666666666666643  0.3333333333333357  0.0000000000000000  T  T  T
0.3333333333333357  0.6666666666666643  0.3311035158794028  T  T  T

0.00000000E+00  0.00000000E+00  0.00000000E+00
0.00000000E+00  0.00000000E+00  0.00000000E+00
0.00000000E+00  0.00000000E+00  0.00000000E+00
0.00000000E+00  0.00000000E+00  0.00000000E+00
0.00000000E+00  0.00000000E+00  0.00000000E+00
0.00000000E+00  0.00000000E+00  0.00000000E+00
0.00000000E+00  0.00000000E+00  0.00000000E+00
0.00000000E+00  0.00000000E+00  0.00000000E+00
0.00000000E+00  0.00000000E+00  0.00000000E+00
0.00000000E+00  0.00000000E+00  0.00000000E+00
0.00000000E+00  0.00000000E+00  0.00000000E+00
