Hf4N3  (n=3)
1.00000000000000
3.1770505306529224  0.0000000000000000  0.0000000000000000
-1.5885252653264612  2.7514064691201412  0.0000000000000000
0.0000000000000001  -0.0000000000000008  37.4517211891037434
Hf  N  O  H
4  3  2  2
Selective  dynamics
Direct
-0.0000000000000000  -0.0000000000000000  0.0626130983265141  T  T  T
0.6666666666666643  0.3333333333333357  0.1296064860298395  T  T  T
0.3333333333333357  0.6666666666666643  0.2028674509150596  T  T  T
-0.0000000000000000  -0.0000000000000000  0.2698608386183773  T  T  T
0.3333333333333357  0.6666666666666643  0.0959389843714368  T  T  T
-0.0000000000000000  -0.0000000000000000  0.1662369684724458  T  T  T
0.6666666666666643  0.3333333333333357  0.2365349525734469  T  T  T
0.6666666666666643  0.3333333333333357  0.0264235927236977  T  T  T
0.3333333333333357  0.6666666666666643  0.3060503442212015  T  T  T
0.6666666666666643  0.3333333333333357  0.0000000000000000  T  T  T
0.3333333333333357  0.6666666666666643  0.3324739369448917  T  T  T

0.00000000E+00  0.00000000E+00  0.00000000E+00
0.00000000E+00  0.00000000E+00  0.00000000E+00
0.00000000E+00  0.00000000E+00  0.00000000E+00
0.00000000E+00  0.00000000E+00  0.00000000E+00
0.00000000E+00  0.00000000E+00  0.00000000E+00
0.00000000E+00  0.00000000E+00  0.00000000E+00
0.00000000E+00  0.00000000E+00  0.00000000E+00
0.00000000E+00  0.00000000E+00  0.00000000E+00
0.00000000E+00  0.00000000E+00  0.00000000E+00
0.00000000E+00  0.00000000E+00  0.00000000E+00
0.00000000E+00  0.00000000E+00  0.00000000E+00
