Mo4N3  (n=3)
1.00000000000000
2.8207506847900761  -0.0000000000000002  0.0000000000000001
-1.4103753423950380  2.4428417508539964  -0.0000000000000004
0.0000000000000026  0.0000000000000024  38.6597654525179166
Mo  N  O  H
4  3  2  2
Selective  dynamics
Direct
0.0000000000000000  0.0000000000000000  0.0631152692809575  T  T  T
0.6666666666666643  0.3333333333333357  0.1385111295012240  T  T  T
0.3333333333333357  0.6666666666666643  0.2148217294188566  T  T  T
-0.0000000000000000  -0.0000000000000000  0.2902175896391305  T  T  T
0.3333333333333357  0.6666666666666643  0.0998509738670496  T  T  T
0.0000000000000000  -0.0000000000000000  0.1766664294600441  T  T  T
0.6666666666666643  0.3333333333333357  0.2534818850530233  T  T  T
0.6666666666666643  0.3333333333333357  0.0253885239700150  T  T  T
0.3333333333333357  0.6666666666666643  0.3279443349500654  T  T  T
0.6666666666666643  0.3333333333333357  0.0000000000000000  T  T  T
0.3333333333333357  0.6666666666666643  0.3533328589200805  T  T  T

0.00000000E+00  0.00000000E+00  0.00000000E+00
0.00000000E+00  0.00000000E+00  0.00000000E+00
0.00000000E+00  0.00000000E+00  0.00000000E+00
0.00000000E+00  0.00000000E+00  0.00000000E+00
0.00000000E+00  0.00000000E+00  0.00000000E+00
0.00000000E+00  0.00000000E+00  0.00000000E+00
0.00000000E+00  0.00000000E+00  0.00000000E+00
0.00000000E+00  0.00000000E+00  0.00000000E+00
0.00000000E+00  0.00000000E+00  0.00000000E+00
0.00000000E+00  0.00000000E+00  0.00000000E+00
0.00000000E+00  0.00000000E+00  0.00000000E+00
