Nb4N3  (n=3)
1.00000000000000
3.2081445065378560  0.0000000000000002  0.0000000000000000
-1.6040722532689278  2.7783346419816883  0.0000000000000001
0.0000000000000001  0.0000000000000006  36.8973774715048535
Nb  N  O  H
4  3  2  2
Selective  dynamics
Direct
0.0000000000000000  0.0000000000000000  0.0643526104690618  T  T  T
0.6666666666666643  0.3333333333333357  0.1248024886024619  T  T  T
0.3333333333333357  0.6666666666666643  0.1976425816655529  T  T  T
-0.0000000000000000  -0.0000000000000000  0.2580924597989607  T  T  T
0.3333333333333357  0.6666666666666643  0.0914927121216284  T  T  T
0.0000000000000000  0.0000000000000000  0.1612225351340074  T  T  T
0.6666666666666643  0.3333333333333357  0.2309523581463788  T  T  T
0.6666666666666643  0.3333333333333357  0.0265183510116303  T  T  T
0.3333333333333357  0.6666666666666643  0.2959267192563846  T  T  T
0.6666666666666643  0.3333333333333357  0.0000000000000000  T  T  T
0.3333333333333357  0.6666666666666643  0.3224450702680150  T  T  T

0.00000000E+00  0.00000000E+00  0.00000000E+00
0.00000000E+00  0.00000000E+00  0.00000000E+00
0.00000000E+00  0.00000000E+00  0.00000000E+00
0.00000000E+00  0.00000000E+00  0.00000000E+00
0.00000000E+00  0.00000000E+00  0.00000000E+00
0.00000000E+00  0.00000000E+00  0.00000000E+00
0.00000000E+00  0.00000000E+00  0.00000000E+00
0.00000000E+00  0.00000000E+00  0.00000000E+00
0.00000000E+00  0.00000000E+00  0.00000000E+00
0.00000000E+00  0.00000000E+00  0.00000000E+00
0.00000000E+00  0.00000000E+00  0.00000000E+00
