Sc4C3  (n=3)
1.00000000000000
3.2605965455911088  0.0000000000000001  -0.0000000000000001
-1.6302982727955544  2.8237594401191775  -0.0000000000000002
-0.0000000000000003  0.0000000000000011  37.5867155064050564
Sc  C  O  H
4  3  2  2
Selective  dynamics
Direct
-0.0000000000000000  -0.0000000000000000  0.0590844486437135  T  T  T
0.6666666666666643  0.3333333333333357  0.1299479249219021  T  T  T
0.3333333333333357  0.6666666666666643  0.2049234608010639  T  T  T
-0.0000000000000000  0.0000000000000000  0.2757869370792608  T  T  T
0.3333333333333357  0.6666666666666643  0.0929803724456997  T  T  T
0.0000000000000000  -0.0000000000000000  0.1674356928614829  T  T  T
0.6666666666666643  0.3333333333333357  0.2418910132772581  T  T  T
0.6666666666666643  0.3333333333333357  0.0258303887723791  T  T  T
0.3333333333333357  0.6666666666666643  0.3090409969505869  T  T  T
0.6666666666666643  0.3333333333333357  0.0000000000000000  T  T  T
0.3333333333333357  0.6666666666666643  0.3348713857229739  T  T  T

0.00000000E+00  0.00000000E+00  0.00000000E+00
0.00000000E+00  0.00000000E+00  0.00000000E+00
0.00000000E+00  0.00000000E+00  0.00000000E+00
0.00000000E+00  0.00000000E+00  0.00000000E+00
0.00000000E+00  0.00000000E+00  0.00000000E+00
0.00000000E+00  0.00000000E+00  0.00000000E+00
0.00000000E+00  0.00000000E+00  0.00000000E+00
0.00000000E+00  0.00000000E+00  0.00000000E+00
0.00000000E+00  0.00000000E+00  0.00000000E+00
0.00000000E+00  0.00000000E+00  0.00000000E+00
0.00000000E+00  0.00000000E+00  0.00000000E+00
