Ta4C3  (n=3)
1.00000000000000
3.1525649382480347  0.0000000000000000  0.0000000000000000
-1.5762824691240174  2.7302013240559870  0.0000000000000000
-0.0000000000000001  -0.0000000000000005  37.2956588529798125
Ta  C  O  H
4  3  2  2
Selective  dynamics
Direct
0.0000000000000000  0.0000000000000000  0.0642455298835519  T  T  T
0.6666666666666643  0.3333333333333357  0.1289493017852423  T  T  T
0.3333333333333357  0.6666666666666643  0.2007313964818009  T  T  T
-0.0000000000000000  -0.0000000000000000  0.2654351683834916  T  T  T
0.3333333333333357  0.6666666666666643  0.0949612603718601  T  T  T
-0.0000000000000000  0.0000000000000000  0.1648403491335179  T  T  T
0.6666666666666643  0.3333333333333357  0.2347194378951757  T  T  T
0.6666666666666643  0.3333333333333357  0.0264123398636200  T  T  T
0.3333333333333357  0.6666666666666643  0.3032683584034159  T  T  T
0.6666666666666643  0.3333333333333357  0.0000000000000000  T  T  T
0.3333333333333357  0.6666666666666643  0.3296806982670430  T  T  T

0.00000000E+00  0.00000000E+00  0.00000000E+00
0.00000000E+00  0.00000000E+00  0.00000000E+00
0.00000000E+00  0.00000000E+00  0.00000000E+00
0.00000000E+00  0.00000000E+00  0.00000000E+00
0.00000000E+00  0.00000000E+00  0.00000000E+00
0.00000000E+00  0.00000000E+00  0.00000000E+00
0.00000000E+00  0.00000000E+00  0.00000000E+00
0.00000000E+00  0.00000000E+00  0.00000000E+00
0.00000000E+00  0.00000000E+00  0.00000000E+00
0.00000000E+00  0.00000000E+00  0.00000000E+00
0.00000000E+00  0.00000000E+00  0.00000000E+00
