Mo4C3  (n=3)
1.00000000000000
3.1447918690386705  0.0000000000000000  0.0000000000000000
-1.5723959345193352  2.7234696485494183  0.0000000000000000
-0.0000000000000003  -0.0000000000000012  36.9346493089185444
Mo  C  O  H
4  3  2  2
Selective  dynamics
Direct
-0.0000000000000000  -0.0000000000000000  0.0665406593340349  T  T  T
0.6666666666666643  0.3333333333333357  0.1256617584721046  T  T  T
0.3333333333333357  0.6666666666666643  0.1974670523390750  T  T  T
-0.0000000000000000  0.0000000000000000  0.2565881514771372  T  T  T
0.3333333333333357  0.6666666666666643  0.0919713567642096  T  T  T
-0.0000000000000000  0.0000000000000000  0.1615644054055861  T  T  T
0.6666666666666643  0.3333333333333357  0.2311574540469624  T  T  T
0.6666666666666643  0.3333333333333357  0.0263849758442157  T  T  T
0.3333333333333357  0.6666666666666643  0.2967438349669639  T  T  T
0.6666666666666643  0.3333333333333357  0.0000000000000000  T  T  T
0.3333333333333357  0.6666666666666643  0.3231288108111725  T  T  T

0.00000000E+00  0.00000000E+00  0.00000000E+00
0.00000000E+00  0.00000000E+00  0.00000000E+00
0.00000000E+00  0.00000000E+00  0.00000000E+00
0.00000000E+00  0.00000000E+00  0.00000000E+00
0.00000000E+00  0.00000000E+00  0.00000000E+00
0.00000000E+00  0.00000000E+00  0.00000000E+00
0.00000000E+00  0.00000000E+00  0.00000000E+00
0.00000000E+00  0.00000000E+00  0.00000000E+00
0.00000000E+00  0.00000000E+00  0.00000000E+00
0.00000000E+00  0.00000000E+00  0.00000000E+00
0.00000000E+00  0.00000000E+00  0.00000000E+00
