Ti4C3  (n=3)
1.00000000000000
3.0725584506014538  0.0000000000000000  0.0000000000000000
-1.5362792253007267  2.6609136729575349  0.0000000000000000
-0.0000000000000001  -0.0000000000000013  36.7312430729374242
Ti  C  O  H
4  3  2  2
Selective  dynamics
Direct
0.0000000000000000  0.0000000000000000  0.0615107651387290  T  T  T
0.6666666666666643  0.3333333333333357  0.1270902700299792  T  T  T
0.3333333333333357  0.6666666666666643  0.1922902379926496  T  T  T
-0.0000000000000000  -0.0000000000000000  0.2578697428838917  T  T  T
0.3333333333333357  0.6666666666666643  0.0907484135526073  T  T  T
-0.0000000000000000  0.0000000000000000  0.1596902540113103  T  T  T
0.6666666666666643  0.3333333333333357  0.2286320944700134  T  T  T
0.6666666666666643  0.3333333333333357  0.0264998882324230  T  T  T
0.3333333333333357  0.6666666666666643  0.2928806197901978  T  T  T
0.6666666666666643  0.3333333333333357  0.0000000000000000  T  T  T
0.3333333333333357  0.6666666666666643  0.3193805080226289  T  T  T

0.00000000E+00  0.00000000E+00  0.00000000E+00
0.00000000E+00  0.00000000E+00  0.00000000E+00
0.00000000E+00  0.00000000E+00  0.00000000E+00
0.00000000E+00  0.00000000E+00  0.00000000E+00
0.00000000E+00  0.00000000E+00  0.00000000E+00
0.00000000E+00  0.00000000E+00  0.00000000E+00
0.00000000E+00  0.00000000E+00  0.00000000E+00
0.00000000E+00  0.00000000E+00  0.00000000E+00
0.00000000E+00  0.00000000E+00  0.00000000E+00
0.00000000E+00  0.00000000E+00  0.00000000E+00
0.00000000E+00  0.00000000E+00  0.00000000E+00
