Zr4C3  (n=3)
1.00000000000000
3.3386900659715537  0.0000000000000001  0.0000000000000000
-1.6693450329857764  2.8913904130896992  -0.0000000000000001
-0.0000000000000001  -0.0000000000000002  37.5763226065133580
Zr  C  O  H
4  3  2  2
Selective  dynamics
Direct
-0.0000000000000000  -0.0000000000000000  0.0626316000947814  T  T  T
0.6666666666666643  0.3333333333333357  0.1326153235812584  T  T  T
0.3333333333333357  0.6666666666666643  0.2020721001511916  T  T  T
0.0000000000000000  -0.0000000000000000  0.2720558236376686  T  T  T
0.3333333333333357  0.6666666666666643  0.0930614967402583  T  T  T
0.0000000000000000  -0.0000000000000000  0.1673437118662250  T  T  T
0.6666666666666643  0.3333333333333357  0.2416259269921918  T  T  T
0.6666666666666643  0.3333333333333357  0.0259374872730560  T  T  T
0.3333333333333357  0.6666666666666643  0.3087499364593940  T  T  T
0.6666666666666643  0.3333333333333357  0.0000000000000000  T  T  T
0.3333333333333357  0.6666666666666643  0.3346874237324496  T  T  T

0.00000000E+00  0.00000000E+00  0.00000000E+00
0.00000000E+00  0.00000000E+00  0.00000000E+00
0.00000000E+00  0.00000000E+00  0.00000000E+00
0.00000000E+00  0.00000000E+00  0.00000000E+00
0.00000000E+00  0.00000000E+00  0.00000000E+00
0.00000000E+00  0.00000000E+00  0.00000000E+00
0.00000000E+00  0.00000000E+00  0.00000000E+00
0.00000000E+00  0.00000000E+00  0.00000000E+00
0.00000000E+00  0.00000000E+00  0.00000000E+00
0.00000000E+00  0.00000000E+00  0.00000000E+00
0.00000000E+00  0.00000000E+00  0.00000000E+00
