Hf4C3  (n=3)
1.00000000000000
3.3395605236265498  0.0000000000000001  0.0000000000000000
-1.6697802618132747  2.8921442533897381  0.0000000000000000
0.0000000000000000  0.0000000000000000  36.8060204396631434
Hf  C  S
4  3  2
Selective  dynamics
Direct
0.0000000000000000  0.0000000000000000  0.0425779769638337  T  T  T
0.0000000000000000  0.0000000000000000  0.1212764311276007  T  T  T
0.0000000000000000  0.0000000000000000  0.1994868651656510  T  T  T
0.0000000000000000  0.0000000000000000  0.2781853193294252  T  T  T
0.3333333333333357  0.6666666666666643  0.0807976803354808  T  T  T
0.3333333333333357  0.6666666666666643  0.1603816481466258  T  T  T
0.3333333333333357  0.6666666666666643  0.2399656159577634  T  T  T
0.6666666666666643  0.3333333333333357  0.0000000000000000  T  T  T
0.6666666666666643  0.3333333333333357  0.3207632962932516  T  T  T

0.00000000E+00  0.00000000E+00  0.00000000E+00
0.00000000E+00  0.00000000E+00  0.00000000E+00
0.00000000E+00  0.00000000E+00  0.00000000E+00
0.00000000E+00  0.00000000E+00  0.00000000E+00
0.00000000E+00  0.00000000E+00  0.00000000E+00
0.00000000E+00  0.00000000E+00  0.00000000E+00
0.00000000E+00  0.00000000E+00  0.00000000E+00
0.00000000E+00  0.00000000E+00  0.00000000E+00
0.00000000E+00  0.00000000E+00  0.00000000E+00
