Zr4N3  (n=3)
1.00000000000000
3.2796229159925803  0.0000000000000014  0.0000000000000000
-1.6398114579962884  2.8402367618486974  -0.0000000000000000
-0.0000000000000000  0.0000000000000000  36.9249093903867660
Zr  N  S
4  3  2
Selective  dynamics
Direct
-0.0000000000000000  0.0000000000000000  0.0440952582485770  T  T  T
-0.0000000000000000  0.0000000000000000  0.1221151194677482  T  T  T
-0.0000000000000000  0.0000000000000000  0.2008351487187218  T  T  T
-0.0000000000000000  0.0000000000000000  0.2788550099378928  T  T  T
0.3333333333333357  0.6666666666666643  0.0822683724958219  T  T  T
0.3333333333333357  0.6666666666666643  0.1614751340932350  T  T  T
0.3333333333333357  0.6666666666666643  0.2406818956906481  T  T  T
0.6666666666666643  0.3333333333333357  0.0000000000000000  T  T  T
0.6666666666666643  0.3333333333333357  0.3229502681864770  T  T  T

0.00000000E+00  0.00000000E+00  0.00000000E+00
0.00000000E+00  0.00000000E+00  0.00000000E+00
0.00000000E+00  0.00000000E+00  0.00000000E+00
0.00000000E+00  0.00000000E+00  0.00000000E+00
0.00000000E+00  0.00000000E+00  0.00000000E+00
0.00000000E+00  0.00000000E+00  0.00000000E+00
0.00000000E+00  0.00000000E+00  0.00000000E+00
0.00000000E+00  0.00000000E+00  0.00000000E+00
0.00000000E+00  0.00000000E+00  0.00000000E+00
