Cr4N3  (n=3)
1.00000000000000
2.7621190969915439  -0.0000000000000001  0.0000000000000000
-1.3810595484957719  2.3920653062757662  0.0000000000000000
0.0000000000000000  0.0000000000000000  35.8525881774950221
Cr  N  S
4  3  2
Selective  dynamics
Direct
0.0000000000000000  0.0000000000000000  0.0437664127327950  T  T  T
0.0000000000000000  0.0000000000000000  0.1152173424590694  T  T  T
0.0000000000000000  0.0000000000000000  0.1874829291020024  T  T  T
0.0000000000000000  0.0000000000000000  0.2589338588282769  T  T  T
0.3333333333333357  0.6666666666666643  0.0810345445373408  T  T  T
0.3333333333333357  0.6666666666666643  0.1513501357805359  T  T  T
0.3333333333333357  0.6666666666666643  0.2216657270237239  T  T  T
0.6666666666666643  0.3333333333333357  0.0000000000000000  T  T  T
0.6666666666666643  0.3333333333333357  0.3027002715610719  T  T  T

0.00000000E+00  0.00000000E+00  0.00000000E+00
0.00000000E+00  0.00000000E+00  0.00000000E+00
0.00000000E+00  0.00000000E+00  0.00000000E+00
0.00000000E+00  0.00000000E+00  0.00000000E+00
0.00000000E+00  0.00000000E+00  0.00000000E+00
0.00000000E+00  0.00000000E+00  0.00000000E+00
0.00000000E+00  0.00000000E+00  0.00000000E+00
0.00000000E+00  0.00000000E+00  0.00000000E+00
0.00000000E+00  0.00000000E+00  0.00000000E+00
