Ti4C3  (n=3)
1.00000000000000
3.0918530321971356  0.0000000000000000  0.0000000000000000
-1.5459265160985678  2.6776232712276689  -0.0000000000000000
0.0000000000000000  0.0000000000000000  36.3096762318634205
Ti  C  S
4  3  2
Selective  dynamics
Direct
-0.0000000000000000  -0.0000000000000000  0.0449440786553817  T  T  T
-0.0000000000000000  -0.0000000000000000  0.1189661499700851  T  T  T
-0.0000000000000000  -0.0000000000000000  0.1925121501844796  T  T  T
-0.0000000000000000  -0.0000000000000000  0.2665342214991830  T  T  T
0.3333333333333357  0.6666666666666643  0.0793250955738358  T  T  T
0.3333333333333357  0.6666666666666643  0.1557391500772824  T  T  T
0.3333333333333357  0.6666666666666643  0.2321532045807212  T  T  T
0.6666666666666643  0.3333333333333357  0.0000000000000000  T  T  T
0.6666666666666643  0.3333333333333357  0.3114783001545648  T  T  T

0.00000000E+00  0.00000000E+00  0.00000000E+00
0.00000000E+00  0.00000000E+00  0.00000000E+00
0.00000000E+00  0.00000000E+00  0.00000000E+00
0.00000000E+00  0.00000000E+00  0.00000000E+00
0.00000000E+00  0.00000000E+00  0.00000000E+00
0.00000000E+00  0.00000000E+00  0.00000000E+00
0.00000000E+00  0.00000000E+00  0.00000000E+00
0.00000000E+00  0.00000000E+00  0.00000000E+00
0.00000000E+00  0.00000000E+00  0.00000000E+00
