Mo4C3  (n=3)
1.00000000000000
2.9818156287762636  0.0000000000000001  0.0000000000000000
-1.4909078143881318  2.5823280843175951  0.0000000000000000
0.0000000000000000  0.0000000000000000  36.8095068679771984
Mo  C  S
4  3  2
Selective  dynamics
Direct
-0.0000000000000000  -0.0000000000000000  0.0455363779432480  T  T  T
-0.0000000000000000  -0.0000000000000000  0.1219348779333194  T  T  T
-0.0000000000000000  -0.0000000000000000  0.1988927525571885  T  T  T
-0.0000000000000000  -0.0000000000000000  0.2752912525472599  T  T  T
0.3333333333333357  0.6666666666666643  0.0850028469371851  T  T  T
0.3333333333333357  0.6666666666666643  0.1604138152452503  T  T  T
0.3333333333333357  0.6666666666666643  0.2358247835533155  T  T  T
0.6666666666666643  0.3333333333333357  0.0000000000000000  T  T  T
0.6666666666666643  0.3333333333333357  0.3208276304905079  T  T  T

0.00000000E+00  0.00000000E+00  0.00000000E+00
0.00000000E+00  0.00000000E+00  0.00000000E+00
0.00000000E+00  0.00000000E+00  0.00000000E+00
0.00000000E+00  0.00000000E+00  0.00000000E+00
0.00000000E+00  0.00000000E+00  0.00000000E+00
0.00000000E+00  0.00000000E+00  0.00000000E+00
0.00000000E+00  0.00000000E+00  0.00000000E+00
0.00000000E+00  0.00000000E+00  0.00000000E+00
0.00000000E+00  0.00000000E+00  0.00000000E+00
