Nb4C3  (n=3)
1.00000000000000
3.1553922241023238  -0.0000000000000006  -0.0000000000000000
-1.5776961120511626  2.7326498262745083  0.0000000000000000
-0.0000000000000000  -0.0000000000000000  36.8290131641347358
Nb  C  S
4  3  2
Selective  dynamics
Direct
-0.0000000000000000  -0.0000000000000000  0.0448163401759221  T  T  T
-0.0000000000000000  -0.0000000000000000  0.1219127503816501  T  T  T
-0.0000000000000000  -0.0000000000000000  0.1992746002382739  T  T  T
-0.0000000000000000  -0.0000000000000000  0.2763710104440019  T  T  T
0.3333333333333357  0.6666666666666643  0.0824703549224711  T  T  T
0.3333333333333357  0.6666666666666643  0.1605936753099584  T  T  T
0.3333333333333357  0.6666666666666643  0.2387169956974456  T  T  T
0.6666666666666643  0.3333333333333357  0.0000000000000000  T  T  T
0.6666666666666643  0.3333333333333357  0.3211873506199238  T  T  T

0.00000000E+00  0.00000000E+00  0.00000000E+00
0.00000000E+00  0.00000000E+00  0.00000000E+00
0.00000000E+00  0.00000000E+00  0.00000000E+00
0.00000000E+00  0.00000000E+00  0.00000000E+00
0.00000000E+00  0.00000000E+00  0.00000000E+00
0.00000000E+00  0.00000000E+00  0.00000000E+00
0.00000000E+00  0.00000000E+00  0.00000000E+00
0.00000000E+00  0.00000000E+00  0.00000000E+00
0.00000000E+00  0.00000000E+00  0.00000000E+00
