Hf4N3  (n=3)
1.00000000000000
3.2328587755618785  0.0000000000000002  0.0000000000000000
-1.6164293877809390  2.7997378278676401  0.0000000000000000
0.0000000000000000  0.0000000000000000  36.7805615977850593
Hf  N  S
4  3  2
Selective  dynamics
Direct
0.0000000000000000  -0.0000000000000000  0.0436249733783246  T  T  T
0.0000000000000000  -0.0000000000000000  0.1211759782343503  T  T  T
0.0000000000000000  -0.0000000000000000  0.1991171626538180  T  T  T
0.0000000000000000  -0.0000000000000000  0.2766681675098438  T  T  T
0.3333333333333357  0.6666666666666643  0.0809854543829375  T  T  T
0.3333333333333357  0.6666666666666643  0.1601465704440806  T  T  T
0.3333333333333357  0.6666666666666643  0.2393076865052237  T  T  T
0.6666666666666643  0.3333333333333357  0.0000000000000000  T  T  T
0.6666666666666643  0.3333333333333357  0.3202931408881612  T  T  T

0.00000000E+00  0.00000000E+00  0.00000000E+00
0.00000000E+00  0.00000000E+00  0.00000000E+00
0.00000000E+00  0.00000000E+00  0.00000000E+00
0.00000000E+00  0.00000000E+00  0.00000000E+00
0.00000000E+00  0.00000000E+00  0.00000000E+00
0.00000000E+00  0.00000000E+00  0.00000000E+00
0.00000000E+00  0.00000000E+00  0.00000000E+00
0.00000000E+00  0.00000000E+00  0.00000000E+00
0.00000000E+00  0.00000000E+00  0.00000000E+00
