Sc4N3  (n=3)
1.00000000000000
3.1906979720515971  0.0000000000000001  0.0000000000000000
-1.5953489860257983  2.7632255002900838  0.0000000000000000
0.0000000000000000  0.0000000000000000  36.8505923149981669
Sc  N  S
4  3  2
Selective  dynamics
Direct
-0.0000000000000000  -0.0000000000000000  0.0466943366956025  T  T  T
-0.0000000000000000  -0.0000000000000000  0.1224447219646822  T  T  T
-0.0000000000000000  -0.0000000000000000  0.1991401311008951  T  T  T
-0.0000000000000000  -0.0000000000000000  0.2748905163699748  T  T  T
0.3333333333333357  0.6666666666666643  0.0836421156288425  T  T  T
0.3333333333333357  0.6666666666666643  0.1607924265327849  T  T  T
0.3333333333333357  0.6666666666666643  0.2379427374367273  T  T  T
0.6666666666666643  0.3333333333333357  0.0000000000000000  T  T  T
0.6666666666666643  0.3333333333333357  0.3215848530655770  T  T  T

0.00000000E+00  0.00000000E+00  0.00000000E+00
0.00000000E+00  0.00000000E+00  0.00000000E+00
0.00000000E+00  0.00000000E+00  0.00000000E+00
0.00000000E+00  0.00000000E+00  0.00000000E+00
0.00000000E+00  0.00000000E+00  0.00000000E+00
0.00000000E+00  0.00000000E+00  0.00000000E+00
0.00000000E+00  0.00000000E+00  0.00000000E+00
0.00000000E+00  0.00000000E+00  0.00000000E+00
0.00000000E+00  0.00000000E+00  0.00000000E+00
