Sc4C3  (n=3)
1.00000000000000
3.4116416068939746  0.0000000000000002  -0.0000000000000000
-1.7058208034469871  2.9545683030211407  0.0000000000000000
-0.0000000000000000  0.0000000000000000  36.4804537723430755
Sc  C  S
4  3  2
Selective  dynamics
Direct
0.0000000000000000  -0.0000000000000000  0.0409934981993077  T  T  T
0.0000000000000000  -0.0000000000000000  0.1202038408943009  T  T  T
0.0000000000000000  -0.0000000000000000  0.1944976659451440  T  T  T
0.0000000000000000  -0.0000000000000000  0.2737080086401372  T  T  T
0.3333333333333357  0.6666666666666643  0.0837696805758357  T  T  T
0.3333333333333357  0.6666666666666643  0.1573507534197187  T  T  T
0.3333333333333357  0.6666666666666643  0.2309318262635944  T  T  T
0.6666666666666643  0.3333333333333357  0.0000000000000000  T  T  T
0.6666666666666643  0.3333333333333357  0.3147015068394448  T  T  T

0.00000000E+00  0.00000000E+00  0.00000000E+00
0.00000000E+00  0.00000000E+00  0.00000000E+00
0.00000000E+00  0.00000000E+00  0.00000000E+00
0.00000000E+00  0.00000000E+00  0.00000000E+00
0.00000000E+00  0.00000000E+00  0.00000000E+00
0.00000000E+00  0.00000000E+00  0.00000000E+00
0.00000000E+00  0.00000000E+00  0.00000000E+00
0.00000000E+00  0.00000000E+00  0.00000000E+00
0.00000000E+00  0.00000000E+00  0.00000000E+00
