Ta4N3  (n=3)
1.00000000000000
3.0303562348757498  0.0000000000000000  0.0000000000000000
-1.5151781174378749  2.6243654825012803  0.0000000000000000
0.0000000000000000  0.0000000000000000  37.0374366469425524
Ta  N  S
4  3  2
Selective  dynamics
Direct
0.0000000000000000  0.0000000000000000  0.0455590111429767  T  T  T
0.0000000000000000  0.0000000000000000  0.1234244835027466  T  T  T
0.0000000000000000  0.0000000000000000  0.2015827993091967  T  T  T
0.0000000000000000  0.0000000000000000  0.2794482716689666  T  T  T
0.3333333333333357  0.6666666666666643  0.0860403427526592  T  T  T
0.3333333333333357  0.6666666666666643  0.1625036414059716  T  T  T
0.3333333333333357  0.6666666666666643  0.2389669400592839  T  T  T
0.6666666666666643  0.3333333333333357  0.0000000000000000  T  T  T
0.6666666666666643  0.3333333333333357  0.3250072828119503  T  T  T

0.00000000E+00  0.00000000E+00  0.00000000E+00
0.00000000E+00  0.00000000E+00  0.00000000E+00
0.00000000E+00  0.00000000E+00  0.00000000E+00
0.00000000E+00  0.00000000E+00  0.00000000E+00
0.00000000E+00  0.00000000E+00  0.00000000E+00
0.00000000E+00  0.00000000E+00  0.00000000E+00
0.00000000E+00  0.00000000E+00  0.00000000E+00
0.00000000E+00  0.00000000E+00  0.00000000E+00
0.00000000E+00  0.00000000E+00  0.00000000E+00
