Ta4C3  (n=3)
1.00000000000000
3.1422053289539744  0.0000000000000003  -0.0000000000000000
-1.5711026644769868  2.7212296401314555  -0.0000000000000000
0.0000000000000000  0.0000000000000000  36.7754539976145551
Ta  C  S
4  3  2
Selective  dynamics
Direct
0.0000000000000000  0.0000000000000000  0.0446449611660001  T  T  T
0.0000000000000000  0.0000000000000000  0.1215794612548865  T  T  T
0.0000000000000000  0.0000000000000000  0.1986192777838855  T  T  T
0.0000000000000000  0.0000000000000000  0.2755537778727721  T  T  T
0.3333333333333357  0.6666666666666643  0.0817064973263305  T  T  T
0.3333333333333357  0.6666666666666643  0.1600993695193861  T  T  T
0.3333333333333357  0.6666666666666643  0.2384922417124343  T  T  T
0.6666666666666643  0.3333333333333357  0.0000000000000000  T  T  T
0.6666666666666643  0.3333333333333357  0.3201987390387722  T  T  T

0.00000000E+00  0.00000000E+00  0.00000000E+00
0.00000000E+00  0.00000000E+00  0.00000000E+00
0.00000000E+00  0.00000000E+00  0.00000000E+00
0.00000000E+00  0.00000000E+00  0.00000000E+00
0.00000000E+00  0.00000000E+00  0.00000000E+00
0.00000000E+00  0.00000000E+00  0.00000000E+00
0.00000000E+00  0.00000000E+00  0.00000000E+00
0.00000000E+00  0.00000000E+00  0.00000000E+00
0.00000000E+00  0.00000000E+00  0.00000000E+00
