Nb4N3  (n=3)
1.00000000000000
3.0492739493770111  0.0000000000000000  0.0000000000000000
-1.5246369746885056  2.6407487039680482  0.0000000000000000
0.0000000000000000  0.0000000000000000  37.0543717176206044
Nb  N  S
4  3  2
Selective  dynamics
Direct
0.0000000000000000  0.0000000000000000  0.0457731812663091  T  T  T
0.0000000000000000  0.0000000000000000  0.1235829868524077  T  T  T
0.0000000000000000  0.0000000000000000  0.2017327899062183  T  T  T
0.0000000000000000  0.0000000000000000  0.2795425954923168  T  T  T
0.3333333333333357  0.6666666666666643  0.0864414085102574  T  T  T
0.3333333333333357  0.6666666666666643  0.1626578883793094  T  T  T
0.3333333333333357  0.6666666666666643  0.2388743682483613  T  T  T
0.6666666666666643  0.3333333333333357  0.0000000000000000  T  T  T
0.6666666666666643  0.3333333333333357  0.3253157767586259  T  T  T

0.00000000E+00  0.00000000E+00  0.00000000E+00
0.00000000E+00  0.00000000E+00  0.00000000E+00
0.00000000E+00  0.00000000E+00  0.00000000E+00
0.00000000E+00  0.00000000E+00  0.00000000E+00
0.00000000E+00  0.00000000E+00  0.00000000E+00
0.00000000E+00  0.00000000E+00  0.00000000E+00
0.00000000E+00  0.00000000E+00  0.00000000E+00
0.00000000E+00  0.00000000E+00  0.00000000E+00
0.00000000E+00  0.00000000E+00  0.00000000E+00
