Mo4N3  (n=3)
1.00000000000000
2.9450745230338327  0.0000000000000000  0.0000000000000000
-1.4725372615169163  2.5505093532074472  0.0000000000000000
0.0000000000000000  0.0000000000000000  36.8848276588938546
Mo  N  S
4  3  2
Selective  dynamics
Direct
-0.0000000000000000  -0.0000000000000000  0.0446643025711160  T  T  T
-0.0000000000000000  -0.0000000000000000  0.1225829648428265  T  T  T
-0.0000000000000000  -0.0000000000000000  0.1996315719527220  T  T  T
-0.0000000000000000  -0.0000000000000000  0.2775502342244326  T  T  T
0.3333333333333357  0.6666666666666643  0.0878455720179239  T  T  T
0.3333333333333357  0.6666666666666643  0.1611072683977707  T  T  T
0.3333333333333357  0.6666666666666643  0.2343689647776101  T  T  T
0.6666666666666643  0.3333333333333357  0.0000000000000000  T  T  T
0.6666666666666643  0.3333333333333357  0.3222145367955414  T  T  T

0.00000000E+00  0.00000000E+00  0.00000000E+00
0.00000000E+00  0.00000000E+00  0.00000000E+00
0.00000000E+00  0.00000000E+00  0.00000000E+00
0.00000000E+00  0.00000000E+00  0.00000000E+00
0.00000000E+00  0.00000000E+00  0.00000000E+00
0.00000000E+00  0.00000000E+00  0.00000000E+00
0.00000000E+00  0.00000000E+00  0.00000000E+00
0.00000000E+00  0.00000000E+00  0.00000000E+00
0.00000000E+00  0.00000000E+00  0.00000000E+00
