Zr4C3  (n=3)
1.00000000000000
3.3791036130447214  -0.0000000000000004  -0.0000000000000000
-1.6895518065223616  2.9263895762264194  0.0000000000000000
0.0000000000000000  0.0000000000000000  37.0094901671594769
Zr  C  S
4  3  2
Selective  dynamics
Direct
0.0000000000000000  0.0000000000000000  0.0431543485194552  T  T  T
0.0000000000000000  0.0000000000000000  0.1228586889884318  T  T  T
0.0000000000000000  0.0000000000000000  0.2016388956288281  T  T  T
0.0000000000000000  0.0000000000000000  0.2813432360978047  T  T  T
0.3333333333333357  0.6666666666666643  0.0816918915236835  T  T  T
0.3333333333333357  0.6666666666666643  0.1622487923086263  T  T  T
0.3333333333333357  0.6666666666666643  0.2428056930935689  T  T  T
0.6666666666666643  0.3333333333333357  0.0000000000000000  T  T  T
0.6666666666666643  0.3333333333333357  0.3244975846172599  T  T  T

0.00000000E+00  0.00000000E+00  0.00000000E+00
0.00000000E+00  0.00000000E+00  0.00000000E+00
0.00000000E+00  0.00000000E+00  0.00000000E+00
0.00000000E+00  0.00000000E+00  0.00000000E+00
0.00000000E+00  0.00000000E+00  0.00000000E+00
0.00000000E+00  0.00000000E+00  0.00000000E+00
0.00000000E+00  0.00000000E+00  0.00000000E+00
0.00000000E+00  0.00000000E+00  0.00000000E+00
0.00000000E+00  0.00000000E+00  0.00000000E+00
