Cr4C3  (n=3)
1.00000000000000
2.7912398851592717  0.0000000000000001  0.0000000000000000
-1.3956199425796358  2.4172846485725854  0.0000000000000000
0.0000000000000000  0.0000000000000000  35.9136659726116747
Cr  C  S
4  3  2
Selective  dynamics
Direct
-0.0000000000000000  0.0000000000000000  0.0440118911524356  T  T  T
-0.0000000000000000  0.0000000000000000  0.1157251697061519  T  T  T
-0.0000000000000000  0.0000000000000000  0.1881609883077316  T  T  T
0.0000000000000000  0.0000000000000000  0.2598742668614693  T  T  T
0.3333333333333357  0.6666666666666643  0.0805681434559396  T  T  T
0.3333333333333357  0.6666666666666643  0.1519430790069525  T  T  T
0.3333333333333357  0.6666666666666643  0.2233180145579581  T  T  T
0.6666666666666643  0.3333333333333357  0.0000000000000000  T  T  T
0.6666666666666643  0.3333333333333357  0.3038861580139050  T  T  T

0.00000000E+00  0.00000000E+00  0.00000000E+00
0.00000000E+00  0.00000000E+00  0.00000000E+00
0.00000000E+00  0.00000000E+00  0.00000000E+00
0.00000000E+00  0.00000000E+00  0.00000000E+00
0.00000000E+00  0.00000000E+00  0.00000000E+00
0.00000000E+00  0.00000000E+00  0.00000000E+00
0.00000000E+00  0.00000000E+00  0.00000000E+00
0.00000000E+00  0.00000000E+00  0.00000000E+00
0.00000000E+00  0.00000000E+00  0.00000000E+00
