Ti4N3  (n=3)
1.00000000000000
3.0299883480567327  0.0000000000000000  0.0000000000000000
-1.5149941740283663  2.6240468828164385  0.0000000000000000
0.0000000000000000  0.0000000000000000  36.0846093938284866
Ti  N  S
4  3  2
Selective  dynamics
Direct
-0.0000000000000000  0.0000000000000000  0.0436753580250749  T  T  T
-0.0000000000000000  0.0000000000000000  0.1167251947251749  T  T  T
-0.0000000000000000  0.0000000000000000  0.1904586595560430  T  T  T
-0.0000000000000000  0.0000000000000000  0.2635084962561432  T  T  T
0.3333333333333357  0.6666666666666643  0.0792019544996424  T  T  T
0.3333333333333357  0.6666666666666643  0.1535919271406090  T  T  T
0.3333333333333357  0.6666666666666643  0.2279818997815612  T  T  T
0.6666666666666643  0.3333333333333357  0.0000000000000000  T  T  T
0.6666666666666643  0.3333333333333357  0.3071838542812182  T  T  T

0.00000000E+00  0.00000000E+00  0.00000000E+00
0.00000000E+00  0.00000000E+00  0.00000000E+00
0.00000000E+00  0.00000000E+00  0.00000000E+00
0.00000000E+00  0.00000000E+00  0.00000000E+00
0.00000000E+00  0.00000000E+00  0.00000000E+00
0.00000000E+00  0.00000000E+00  0.00000000E+00
0.00000000E+00  0.00000000E+00  0.00000000E+00
0.00000000E+00  0.00000000E+00  0.00000000E+00
0.00000000E+00  0.00000000E+00  0.00000000E+00
