Sc3C2Br2  (n=2)
1.00000000000000
3.4196237849709226  0.0000000000000000  -0.0000000000000000
-1.7098118924854608  2.9614810702649281  0.0000000000000000
-0.0000000000000000  0.0000000000000000  34.3109556925617554
Sc  C  Br
3  2  2
Selective  dynamics
Direct
-0.0000000000000000  0.0000000000000000  0.0561827933921212  T  T  T
-0.0000000000000000  0.0000000000000000  0.1356848782644151  T  T  T
-0.0000000000000000  0.0000000000000000  0.2151869631367031  T  T  T
0.3333333333333357  0.6666666666666643  0.0934524593861287  T  T  T
0.3333333333333357  0.6666666666666643  0.1779172971427014  T  T  T
0.3333333333333357  0.6666666666666643  0.0000000000000000  T  T  T
0.3333333333333357  0.6666666666666643  0.2713697565288241  T  T  T

0.00000000E+00  0.00000000E+00  0.00000000E+00
0.00000000E+00  0.00000000E+00  0.00000000E+00
0.00000000E+00  0.00000000E+00  0.00000000E+00
0.00000000E+00  0.00000000E+00  0.00000000E+00
0.00000000E+00  0.00000000E+00  0.00000000E+00
0.00000000E+00  0.00000000E+00  0.00000000E+00
0.00000000E+00  0.00000000E+00  0.00000000E+00
