Ta3C2Br2  (n=2)
1.00000000000000
3.1646225319142460  -0.0000000000000000  -0.0000000000000000
-1.5823112659571230  2.7406435065169230  -0.0000000000000000
0.0000000000000000  0.0000000000000000  34.4928079048525831
Ta  C  Br
3  2  2
Selective  dynamics
Direct
0.0000000000000000  0.0000000000000000  0.0563506333417466  T  T  T
0.0000000000000000  -0.0000000000000000  0.1376056123212476  T  T  T
0.0000000000000000  -0.0000000000000000  0.2188605913007416  T  T  T
0.3333333333333357  0.6666666666666643  0.0947853863047602  T  T  T
0.3333333333333357  0.6666666666666643  0.1804258383377351  T  T  T
0.3333333333333357  0.6666666666666643  0.0000000000000000  T  T  T
0.3333333333333357  0.6666666666666643  0.2752112246424883  T  T  T

0.00000000E+00  0.00000000E+00  0.00000000E+00
0.00000000E+00  0.00000000E+00  0.00000000E+00
0.00000000E+00  0.00000000E+00  0.00000000E+00
0.00000000E+00  0.00000000E+00  0.00000000E+00
0.00000000E+00  0.00000000E+00  0.00000000E+00
0.00000000E+00  0.00000000E+00  0.00000000E+00
0.00000000E+00  0.00000000E+00  0.00000000E+00
