Ti3N2Br2  (n=2)
1.00000000000000
3.0976152530229153  -0.0000000000000001  0.0000000000000000
-1.5488076265114579  2.6826135005612377  0.0000000000000000
0.0000000000000000  0.0000000000000000  33.9686329278262065
Ti  N  Br
3  2  2
Selective  dynamics
Direct
-0.0000000000000000  -0.0000000000000000  0.0547712411511284  T  T  T
-0.0000000000000000  -0.0000000000000000  0.1320134511577530  T  T  T
-0.0000000000000000  -0.0000000000000000  0.2092556611643703  T  T  T
0.3333333333333357  0.6666666666666643  0.0912833721731388  T  T  T
0.3333333333333357  0.6666666666666643  0.1727435301423673  T  T  T
0.3333333333333357  0.6666666666666643  0.0000000000000000  T  T  T
0.3333333333333357  0.6666666666666643  0.2640269023154987  T  T  T

0.00000000E+00  0.00000000E+00  0.00000000E+00
0.00000000E+00  0.00000000E+00  0.00000000E+00
0.00000000E+00  0.00000000E+00  0.00000000E+00
0.00000000E+00  0.00000000E+00  0.00000000E+00
0.00000000E+00  0.00000000E+00  0.00000000E+00
0.00000000E+00  0.00000000E+00  0.00000000E+00
0.00000000E+00  0.00000000E+00  0.00000000E+00
