Mo3N2Br2  (n=2)
1.00000000000000
3.0131830032070068  0.0000000000000003  0.0000000000000000
-1.5065915016035036  2.6094930272814949  0.0000000000000000
0.0000000000000000  0.0000000000000000  34.6065616330495516
Mo  N  Br
3  2  2
Selective  dynamics
Direct
-0.0000000000000000  0.0000000000000000  0.0594995361732662  T  T  T
-0.0000000000000000  0.0000000000000000  0.1387968231994980  T  T  T
-0.0000000000000000  0.0000000000000000  0.2180941102257221  T  T  T
0.3333333333333357  0.6666666666666643  0.0984919535588365  T  T  T
0.3333333333333357  0.6666666666666643  0.1791016928401593  T  T  T
0.3333333333333357  0.6666666666666643  0.0000000000000000  T  T  T
0.3333333333333357  0.6666666666666643  0.2775936463989883  T  T  T

0.00000000E+00  0.00000000E+00  0.00000000E+00
0.00000000E+00  0.00000000E+00  0.00000000E+00
0.00000000E+00  0.00000000E+00  0.00000000E+00
0.00000000E+00  0.00000000E+00  0.00000000E+00
0.00000000E+00  0.00000000E+00  0.00000000E+00
0.00000000E+00  0.00000000E+00  0.00000000E+00
0.00000000E+00  0.00000000E+00  0.00000000E+00
