Cr3N2Br2  (n=2)
1.00000000000000
2.9330868704534598  0.0000000000000000  0.0000000000000000
-1.4665434352267299  2.5401277414044539  0.0000000000000000
0.0000000000000000  0.0000000000000000  33.7254649625529197
Cr  N  Br
3  2  2
Selective  dynamics
Direct
-0.0000000000000000  -0.0000000000000000  0.0563447540778898  T  T  T
-0.0000000000000000  -0.0000000000000000  0.1293601878023256  T  T  T
-0.0000000000000000  -0.0000000000000000  0.2023756215267533  T  T  T
0.3333333333333357  0.6666666666666643  0.0903090066800132  T  T  T
0.3333333333333357  0.6666666666666643  0.1684113689246380  T  T  T
0.3333333333333357  0.6666666666666643  0.0000000000000000  T  T  T
0.3333333333333357  0.6666666666666643  0.2587203756046431  T  T  T

0.00000000E+00  0.00000000E+00  0.00000000E+00
0.00000000E+00  0.00000000E+00  0.00000000E+00
0.00000000E+00  0.00000000E+00  0.00000000E+00
0.00000000E+00  0.00000000E+00  0.00000000E+00
0.00000000E+00  0.00000000E+00  0.00000000E+00
0.00000000E+00  0.00000000E+00  0.00000000E+00
0.00000000E+00  0.00000000E+00  0.00000000E+00
