Nb3C2Br2  (n=2)
1.00000000000000
3.1866573940085656  0.0000000000000003  -0.0000000000000000
-1.5933286970042828  2.7597262571407999  0.0000000000000000
0.0000000000000000  0.0000000000000000  34.4913276601073591
Nb  C  Br
3  2  2
Selective  dynamics
Direct
0.0000000000000000  0.0000000000000000  0.0560849637376432  T  T  T
0.0000000000000000  0.0000000000000000  0.1375900596468667  T  T  T
0.0000000000000000  0.0000000000000000  0.2190951555560834  T  T  T
0.3333333333333357  0.6666666666666643  0.0946311853766735  T  T  T
0.3333333333333357  0.6666666666666643  0.1805489339170600  T  T  T
0.3333333333333357  0.6666666666666643  0.0000000000000000  T  T  T
0.3333333333333357  0.6666666666666643  0.2751801192937267  T  T  T

0.00000000E+00  0.00000000E+00  0.00000000E+00
0.00000000E+00  0.00000000E+00  0.00000000E+00
0.00000000E+00  0.00000000E+00  0.00000000E+00
0.00000000E+00  0.00000000E+00  0.00000000E+00
0.00000000E+00  0.00000000E+00  0.00000000E+00
0.00000000E+00  0.00000000E+00  0.00000000E+00
0.00000000E+00  0.00000000E+00  0.00000000E+00
