Hf3N2Br2  (n=2)
1.00000000000000
3.2246279544336827  0.0000000000000000  0.0000000000000000
-1.6123139772168413  2.7926097268583518  0.0000000000000000
0.0000000000000000  0.0000000000000000  34.6620810824103245
Hf  N  Br
3  2  2
Selective  dynamics
Direct
0.0000000000000000  0.0000000000000000  0.0565846696109475  T  T  T
0.0000000000000000  -0.0000000000000000  0.1393753747710446  T  T  T
0.0000000000000000  -0.0000000000000000  0.2221660799311353  T  T  T
0.3333333333333357  0.6666666666666643  0.0970527355882893  T  T  T
0.3333333333333357  0.6666666666666643  0.1816980139538001  T  T  T
0.3333333333333357  0.6666666666666643  0.0000000000000000  T  T  T
0.3333333333333357  0.6666666666666643  0.2787507495420828  T  T  T

0.00000000E+00  0.00000000E+00  0.00000000E+00
0.00000000E+00  0.00000000E+00  0.00000000E+00
0.00000000E+00  0.00000000E+00  0.00000000E+00
0.00000000E+00  0.00000000E+00  0.00000000E+00
0.00000000E+00  0.00000000E+00  0.00000000E+00
0.00000000E+00  0.00000000E+00  0.00000000E+00
0.00000000E+00  0.00000000E+00  0.00000000E+00
