Ti3C2Br2  (n=2)
1.00000000000000
3.1943396838050853  0.0000000000000002  0.0000000000000000
-1.5971698419025426  2.7663793149601075  -0.0000000000000000
-0.0000000000000000  -0.0000000000000000  33.9503253320343177
Ti  C  Br
3  2  2
Selective  dynamics
Direct
-0.0000000000000000  -0.0000000000000000  0.0561304745112944  T  T  T
-0.0000000000000000  0.0000000000000000  0.1318150156810035  T  T  T
0.0000000000000000  0.0000000000000000  0.2074995568507057  T  T  T
0.3333333333333357  0.6666666666666643  0.0903000317861261  T  T  T
0.3333333333333357  0.6666666666666643  0.1733299995758810  T  T  T
0.3333333333333357  0.6666666666666643  0.0000000000000000  T  T  T
0.3333333333333357  0.6666666666666643  0.2636300313620002  T  T  T

0.00000000E+00  0.00000000E+00  0.00000000E+00
0.00000000E+00  0.00000000E+00  0.00000000E+00
0.00000000E+00  0.00000000E+00  0.00000000E+00
0.00000000E+00  0.00000000E+00  0.00000000E+00
0.00000000E+00  0.00000000E+00  0.00000000E+00
0.00000000E+00  0.00000000E+00  0.00000000E+00
0.00000000E+00  0.00000000E+00  0.00000000E+00
