Nb3N2Br2  (n=2)
1.00000000000000
3.1176470045637910  -0.0000000000000004  0.0000000000000000
-1.5588235022818955  2.6999615065127371  0.0000000000000000
0.0000000000000000  0.0000000000000000  34.6024206492477759
Nb  N  Br
3  2  2
Selective  dynamics
Direct
0.0000000000000000  -0.0000000000000000  0.0564878497211880  T  T  T
0.0000000000000000  -0.0000000000000000  0.1387535968449185  T  T  T
0.0000000000000000  -0.0000000000000000  0.2210193439686420  T  T  T
0.3333333333333357  0.6666666666666643  0.0976413164547640  T  T  T
0.3333333333333357  0.6666666666666643  0.1798658772350729  T  T  T
0.3333333333333357  0.6666666666666643  0.0000000000000000  T  T  T
0.3333333333333357  0.6666666666666643  0.2775071936898300  T  T  T

0.00000000E+00  0.00000000E+00  0.00000000E+00
0.00000000E+00  0.00000000E+00  0.00000000E+00
0.00000000E+00  0.00000000E+00  0.00000000E+00
0.00000000E+00  0.00000000E+00  0.00000000E+00
0.00000000E+00  0.00000000E+00  0.00000000E+00
0.00000000E+00  0.00000000E+00  0.00000000E+00
0.00000000E+00  0.00000000E+00  0.00000000E+00
