Ta3N2Br2  (n=2)
1.00000000000000
3.0813441115648783  0.0000000000000005  0.0000000000000000
-1.5406720557824392  2.6685222787461442  0.0000000000000000
0.0000000000000000  0.0000000000000000  34.6763835293807716
Ta  N  Br
3  2  2
Selective  dynamics
Direct
0.0000000000000000  0.0000000000000000  0.0571810703465628  T  T  T
0.0000000000000000  0.0000000000000000  0.1395241161925431  T  T  T
0.0000000000000000  0.0000000000000000  0.2218671620385163  T  T  T
0.3333333333333357  0.6666666666666643  0.0984202687832286  T  T  T
0.3333333333333357  0.6666666666666643  0.1806279636018575  T  T  T
0.3333333333333357  0.6666666666666643  0.0000000000000000  T  T  T
0.3333333333333357  0.6666666666666643  0.2790482323850790  T  T  T

0.00000000E+00  0.00000000E+00  0.00000000E+00
0.00000000E+00  0.00000000E+00  0.00000000E+00
0.00000000E+00  0.00000000E+00  0.00000000E+00
0.00000000E+00  0.00000000E+00  0.00000000E+00
0.00000000E+00  0.00000000E+00  0.00000000E+00
0.00000000E+00  0.00000000E+00  0.00000000E+00
0.00000000E+00  0.00000000E+00  0.00000000E+00
