Hf3C2Br2  (n=2)
1.00000000000000
3.3285446983798921  -0.0000000000000002  0.0000000000000000
-1.6642723491899463  2.8826042669209664  -0.0000000000000000
-0.0000000000000000  -0.0000000000000000  34.6237314850573625
Hf  C  Br
3  2  2
Selective  dynamics
Direct
-0.0000000000000000  -0.0000000000000000  0.0580560483829956  T  T  T
-0.0000000000000000  -0.0000000000000000  0.1389759432661224  T  T  T
-0.0000000000000000  -0.0000000000000000  0.2198958381492431  T  T  T
0.3333333333333357  0.6666666666666643  0.0943967789334236  T  T  T
0.3333333333333357  0.6666666666666643  0.1835551075988212  T  T  T
0.3333333333333357  0.6666666666666643  0.0000000000000000  T  T  T
0.3333333333333357  0.6666666666666643  0.2779518865322386  T  T  T

0.00000000E+00  0.00000000E+00  0.00000000E+00
0.00000000E+00  0.00000000E+00  0.00000000E+00
0.00000000E+00  0.00000000E+00  0.00000000E+00
0.00000000E+00  0.00000000E+00  0.00000000E+00
0.00000000E+00  0.00000000E+00  0.00000000E+00
0.00000000E+00  0.00000000E+00  0.00000000E+00
0.00000000E+00  0.00000000E+00  0.00000000E+00
