Zr3N2Br2  (n=2)
1.00000000000000
3.2759780198554629  -0.0000000000000013  0.0000000000000000
-1.6379890099277319  2.8370801880762593  0.0000000000000000
0.0000000000000000  0.0000000000000000  34.7261853841842836
Zr  N  Br
3  2  2
Selective  dynamics
Direct
-0.0000000000000000  -0.0000000000000000  0.0566032256020023  T  T  T
-0.0000000000000000  -0.0000000000000000  0.1400410853737797  T  T  T
-0.0000000000000000  -0.0000000000000000  0.2234789451455506  T  T  T
0.3333333333333357  0.6666666666666643  0.0975145878973457  T  T  T
0.3333333333333357  0.6666666666666643  0.1825675828502135  T  T  T
0.3333333333333357  0.6666666666666643  0.0000000000000000  T  T  T
0.3333333333333357  0.6666666666666643  0.2800821707475530  T  T  T

0.00000000E+00  0.00000000E+00  0.00000000E+00
0.00000000E+00  0.00000000E+00  0.00000000E+00
0.00000000E+00  0.00000000E+00  0.00000000E+00
0.00000000E+00  0.00000000E+00  0.00000000E+00
0.00000000E+00  0.00000000E+00  0.00000000E+00
0.00000000E+00  0.00000000E+00  0.00000000E+00
0.00000000E+00  0.00000000E+00  0.00000000E+00
