Sc3N2Br2  (n=2)
1.00000000000000
3.2824215490790221  0.0000000000000001  0.0000000000000000
-1.6412107745395113  2.8426604481833855  0.0000000000000000
0.0000000000000000  0.0000000000000000  34.3496838083551239
Sc  N  Br
3  2  2
Selective  dynamics
Direct
-0.0000000000000000  0.0000000000000000  0.0567977203207865  T  T  T
-0.0000000000000000  0.0000000000000000  0.1360956313385503  T  T  T
-0.0000000000000000  0.0000000000000000  0.2153935423563077  T  T  T
0.3333333333333357  0.6666666666666643  0.0930295004989925  T  T  T
0.3333333333333357  0.6666666666666643  0.1791617621781080  T  T  T
0.3333333333333357  0.6666666666666643  0.0000000000000000  T  T  T
0.3333333333333357  0.6666666666666643  0.2721912626770943  T  T  T

0.00000000E+00  0.00000000E+00  0.00000000E+00
0.00000000E+00  0.00000000E+00  0.00000000E+00
0.00000000E+00  0.00000000E+00  0.00000000E+00
0.00000000E+00  0.00000000E+00  0.00000000E+00
0.00000000E+00  0.00000000E+00  0.00000000E+00
0.00000000E+00  0.00000000E+00  0.00000000E+00
0.00000000E+00  0.00000000E+00  0.00000000E+00
