Mo3C2Br2  (n=2)
1.00000000000000
3.0704924644186922  -0.0000000000000001  0.0000000000000000
-1.5352462322093463  2.6591244767537119  0.0000000000000000
0.0000000000000000  0.0000000000000000  34.4300442839624807
Mo  C  Br
3  2  2
Selective  dynamics
Direct
-0.0000000000000000  0.0000000000000000  0.0577579036717653  T  T  T
-0.0000000000000000  0.0000000000000000  0.1369449920858111  T  T  T
-0.0000000000000000  0.0000000000000000  0.2161320804998496  T  T  T
0.3333333333333357  0.6666666666666643  0.0955406766124239  T  T  T
0.3333333333333357  0.6666666666666643  0.1783493075591983  T  T  T
0.3333333333333357  0.6666666666666643  0.0000000000000000  T  T  T
0.3333333333333357  0.6666666666666643  0.2738899841716149  T  T  T

0.00000000E+00  0.00000000E+00  0.00000000E+00
0.00000000E+00  0.00000000E+00  0.00000000E+00
0.00000000E+00  0.00000000E+00  0.00000000E+00
0.00000000E+00  0.00000000E+00  0.00000000E+00
0.00000000E+00  0.00000000E+00  0.00000000E+00
0.00000000E+00  0.00000000E+00  0.00000000E+00
0.00000000E+00  0.00000000E+00  0.00000000E+00
