Cr3C2Br2  (n=2)
1.00000000000000
2.9447685548598441  -0.0000000000000001  0.0000000000000000
-1.4723842774299221  2.5502443768870919  0.0000000000000000
0.0000000000000000  0.0000000000000000  33.6679963209087489
Cr  C  Br
3  2  2
Selective  dynamics
Direct
-0.0000000000000000  0.0000000000000000  0.0549487034587176  T  T  T
-0.0000000000000000  0.0000000000000000  0.1287275345745175  T  T  T
-0.0000000000000000  0.0000000000000000  0.2025063656903095  T  T  T
0.3333333333333357  0.6666666666666643  0.0902900516408267  T  T  T
0.3333333333333357  0.6666666666666643  0.1671650175082083  T  T  T
0.3333333333333357  0.6666666666666643  0.0000000000000000  T  T  T
0.3333333333333357  0.6666666666666643  0.2574550691490270  T  T  T

0.00000000E+00  0.00000000E+00  0.00000000E+00
0.00000000E+00  0.00000000E+00  0.00000000E+00
0.00000000E+00  0.00000000E+00  0.00000000E+00
0.00000000E+00  0.00000000E+00  0.00000000E+00
0.00000000E+00  0.00000000E+00  0.00000000E+00
0.00000000E+00  0.00000000E+00  0.00000000E+00
0.00000000E+00  0.00000000E+00  0.00000000E+00
