Zr3C2Br2  (n=2)
1.00000000000000
3.3726029522784997  0.0000000000000000  -0.0000000000000000
-1.6863014761392503  2.9207598340280612  -0.0000000000000000
0.0000000000000000  -0.0000000000000000  34.7228503232868633
Zr  C  Br
3  2  2
Selective  dynamics
Direct
-0.0000000000000000  0.0000000000000000  0.0582225310219561  T  T  T
0.0000000000000000  0.0000000000000000  0.1400065120340429  T  T  T
0.0000000000000000  0.0000000000000000  0.2217904930461238  T  T  T
0.3333333333333357  0.6666666666666643  0.0949812099475454  T  T  T
0.3333333333333357  0.6666666666666643  0.1850318141205405  T  T  T
0.3333333333333357  0.6666666666666643  0.0000000000000000  T  T  T
0.3333333333333357  0.6666666666666643  0.2800130240680799  T  T  T

0.00000000E+00  0.00000000E+00  0.00000000E+00
0.00000000E+00  0.00000000E+00  0.00000000E+00
0.00000000E+00  0.00000000E+00  0.00000000E+00
0.00000000E+00  0.00000000E+00  0.00000000E+00
0.00000000E+00  0.00000000E+00  0.00000000E+00
0.00000000E+00  0.00000000E+00  0.00000000E+00
0.00000000E+00  0.00000000E+00  0.00000000E+00
