Ta2C  (n=1)
1.00000000000000
3.1624783891572124  0.0000000000000001  0.0000000000000004
-1.5812391945786062  2.7387866240853702  -0.0000000000000012
0.0000000000000040  -0.0000000000000087  32.0158533853814760
Ta  C  O  H
2  1  2  2
Selective  dynamics
Direct
0.0000000000000000  0.0000000000000000  0.0740767139862060  T  T  T
0.6666666666666643  0.3333333333333357  0.1450601399008416  T  T  T
0.3333333333333357  0.6666666666666643  0.1095684269435200  T  T  T
0.6666666666666643  0.3333333333333357  0.0307308676989503  T  T  T
-0.0000000000000000  -0.0000000000000000  0.1884059861880974  T  T  T
0.6666666666666643  0.3333333333333357  0.0000000000000000  T  T  T
0.0000000000000000  0.0000000000000000  0.2191368538870476  T  T  T

0.00000000E+00  0.00000000E+00  0.00000000E+00
0.00000000E+00  0.00000000E+00  0.00000000E+00
0.00000000E+00  0.00000000E+00  0.00000000E+00
0.00000000E+00  0.00000000E+00  0.00000000E+00
0.00000000E+00  0.00000000E+00  0.00000000E+00
0.00000000E+00  0.00000000E+00  0.00000000E+00
0.00000000E+00  0.00000000E+00  0.00000000E+00
