Ta2N  (n=1)
1.00000000000000
3.2536082215154263  0.0000000000000000  0.0000000000000000
-1.6268041107577131  2.8177073739388820  0.0000000000000000
-0.0000000000000003  -0.0000000000000001  31.6439516551292606
Ta  N  O  H
2  1  2  2
Selective  dynamics
Direct
-0.0000000000000000  0.0000000000000000  0.0721970988388105  T  T  T
0.6666666666666643  0.3333333333333357  0.1377625082146382  T  T  T
0.3333333333333357  0.6666666666666643  0.1049798035267243  T  T  T
0.6666666666666643  0.3333333333333357  0.0311551227251470  T  T  T
0.0000000000000000  0.0000000000000000  0.1788044843283016  T  T  T
0.6666666666666643  0.3333333333333357  0.0000000000000000  T  T  T
0.0000000000000000  0.0000000000000000  0.2099596070534485  T  T  T

0.00000000E+00  0.00000000E+00  0.00000000E+00
0.00000000E+00  0.00000000E+00  0.00000000E+00
0.00000000E+00  0.00000000E+00  0.00000000E+00
0.00000000E+00  0.00000000E+00  0.00000000E+00
0.00000000E+00  0.00000000E+00  0.00000000E+00
0.00000000E+00  0.00000000E+00  0.00000000E+00
0.00000000E+00  0.00000000E+00  0.00000000E+00
