Sc2N
1.00000000000000
3.1825199042395895  -0.0000000000000002  0.0000000000000002
-1.5912599521197950  2.7561430851862054  -0.0000000000000001
0.0000000000000012  0.0000000000000010  31.9316691267515615
Sc  N  O  H
2  1  2  2
Selective  dynamics
Direct
0.0000000000000000  0.0000000000000000  0.0697494785368762  T  T  T
0.6666666666666643  0.3333333333333357  0.1473287173831934  T  T  T
0.3333333333333357  0.6666666666666643  0.1085390979600348  T  T  T
0.6666666666666643  0.3333333333333357  0.0304457595194404  T  T  T
0.0000000000000000  -0.0000000000000000  0.1866324364006292  T  T  T
0.6666666666666643  0.3333333333333357  0.0000000000000000  T  T  T
-0.0000000000000000  0.0000000000000000  0.2170781959200617  T  T  T

0.00000000E+00  0.00000000E+00  0.00000000E+00
0.00000000E+00  0.00000000E+00  0.00000000E+00
0.00000000E+00  0.00000000E+00  0.00000000E+00
0.00000000E+00  0.00000000E+00  0.00000000E+00
0.00000000E+00  0.00000000E+00  0.00000000E+00
0.00000000E+00  0.00000000E+00  0.00000000E+00
0.00000000E+00  0.00000000E+00  0.00000000E+00
