Hf2C  (n=1)
1.00000000000000
3.2432724542704716  0.0000000000000003  0.0000000000000000
-1.6216362271352356  2.8087563369122814  -0.0000000000000001
-0.0000000000000001  -0.0000000000000043  32.1140211285809585
Hf  C  O  H
2  1  2  2
Selective  dynamics
Direct
0.0000000000000000  0.0000000000000000  0.0723954231995021  T  T  T
0.6666666666666643  0.3333333333333357  0.1491284121401215  T  T  T
0.3333333333333357  0.6666666666666643  0.1107619176698118  T  T  T
0.6666666666666643  0.3333333333333357  0.0305532476355473  T  T  T
-0.0000000000000000  0.0000000000000000  0.1909705877040763  T  T  T
0.6666666666666643  0.3333333333333357  0.0000000000000000  T  T  T
0.0000000000000000  0.0000000000000000  0.2215238353396236  T  T  T

0.00000000E+00  0.00000000E+00  0.00000000E+00
0.00000000E+00  0.00000000E+00  0.00000000E+00
0.00000000E+00  0.00000000E+00  0.00000000E+00
0.00000000E+00  0.00000000E+00  0.00000000E+00
0.00000000E+00  0.00000000E+00  0.00000000E+00
0.00000000E+00  0.00000000E+00  0.00000000E+00
0.00000000E+00  0.00000000E+00  0.00000000E+00
