Zr2N  (n=1)
1.00000000000000
3.2406834853355666  0.0000000000000004  -0.0000000000000002
-1.6203417426677831  2.8065142240612042  0.0000000000000003
-0.0000000000000011  0.0000000000000020  32.1959794542593372
Zr  N  O  H
2  1  2  2
Selective  dynamics
Direct
-0.0000000000000000  -0.0000000000000000  0.0731875781268382  T  T  T
0.6666666666666643  0.3333333333333357  0.1503179519497471  T  T  T
0.3333333333333357  0.6666666666666643  0.1117527650382966  T  T  T
0.6666666666666643  0.3333333333333357  0.0304399731685850  T  T  T
0.0000000000000000  0.0000000000000000  0.1930655569080083  T  T  T
0.6666666666666643  0.3333333333333357  0.0000000000000000  T  T  T
0.0000000000000000  0.0000000000000000  0.2235055300765932  T  T  T

0.00000000E+00  0.00000000E+00  0.00000000E+00
0.00000000E+00  0.00000000E+00  0.00000000E+00
0.00000000E+00  0.00000000E+00  0.00000000E+00
0.00000000E+00  0.00000000E+00  0.00000000E+00
0.00000000E+00  0.00000000E+00  0.00000000E+00
0.00000000E+00  0.00000000E+00  0.00000000E+00
0.00000000E+00  0.00000000E+00  0.00000000E+00
