Cr2N  (n=1)
1.00000000000000
2.9750081524495648  0.0000000000000000  0.0000000000000000
-1.4875040762247826  2.5764326366238910  0.0000000000000000
0.0000000000000000  0.0000000000000000  31.5927514697280216
Cr  N  O  H
2  1  2  2
Selective  dynamics
Direct
-0.0000000000000000  -0.0000000000000000  0.0679940864981056  T  T  T
0.6666666666666643  0.3333333333333357  0.1406851567784780  T  T  T
0.3333333333333357  0.6666666666666643  0.1043396216382955  T  T  T
0.6666666666666643  0.3333333333333357  0.0308893701152782  T  T  T
0.0000000000000000  0.0000000000000000  0.1777898731613054  T  T  T
0.6666666666666643  0.3333333333333357  0.0000000000000000  T  T  T
0.0000000000000000  -0.0000000000000000  0.2086792432765837  T  T  T

0.00000000E+00  0.00000000E+00  0.00000000E+00
0.00000000E+00  0.00000000E+00  0.00000000E+00
0.00000000E+00  0.00000000E+00  0.00000000E+00
0.00000000E+00  0.00000000E+00  0.00000000E+00
0.00000000E+00  0.00000000E+00  0.00000000E+00
0.00000000E+00  0.00000000E+00  0.00000000E+00
0.00000000E+00  0.00000000E+00  0.00000000E+00
