Mo2N  (n=1)
1.00000000000000
2.8213557497224477  0.0000000000000001  0.0000000000000002
-1.4106778748612234  2.4433657524793784  -0.0000000000000005
0.0000000000000004  -0.0000000000000057  32.7729456899213645
Mo  N  O  H
2  1  2  2
Selective  dynamics
Direct
0.0000000000000000  0.0000000000000000  0.0742763884359274  T  T  T
0.6666666666666643  0.3333333333333357  0.1628992918786976  T  T  T
0.3333333333333357  0.6666666666666643  0.1185878401573164  T  T  T
0.6666666666666643  0.3333333333333357  0.0299247658784386  T  T  T
-0.0000000000000000  -0.0000000000000000  0.2072509144361864  T  T  T
0.6666666666666643  0.3333333333333357  0.0000000000000000  T  T  T
0.0000000000000000  0.0000000000000000  0.2371756803146252  T  T  T

0.00000000E+00  0.00000000E+00  0.00000000E+00
0.00000000E+00  0.00000000E+00  0.00000000E+00
0.00000000E+00  0.00000000E+00  0.00000000E+00
0.00000000E+00  0.00000000E+00  0.00000000E+00
0.00000000E+00  0.00000000E+00  0.00000000E+00
0.00000000E+00  0.00000000E+00  0.00000000E+00
0.00000000E+00  0.00000000E+00  0.00000000E+00
