Mo2C  (n=1)
1.00000000000000
2.9294634837008644  0.0000000000000000  0.0000000000000000
-1.4647317418504322  2.5369897964286592  0.0000000000000001
-0.0000000000000003  -0.0000000000000002  32.5248818185419424
Mo  C  O  H
2  1  2  2
Selective  dynamics
Direct
0.0000000000000000  0.0000000000000000  0.0752815953658321  T  T  T
0.6666666666666643  0.3333333333333357  0.1560761036574471  T  T  T
0.3333333333333357  0.6666666666666643  0.1156788495116395  T  T  T
0.6666666666666643  0.3333333333333357  0.0302222746719164  T  T  T
-0.0000000000000000  0.0000000000000000  0.2011354243513627  T  T  T
0.6666666666666643  0.3333333333333357  0.0000000000000000  T  T  T
0.0000000000000000  0.0000000000000000  0.2313576990232790  T  T  T

0.00000000E+00  0.00000000E+00  0.00000000E+00
0.00000000E+00  0.00000000E+00  0.00000000E+00
0.00000000E+00  0.00000000E+00  0.00000000E+00
0.00000000E+00  0.00000000E+00  0.00000000E+00
0.00000000E+00  0.00000000E+00  0.00000000E+00
0.00000000E+00  0.00000000E+00  0.00000000E+00
0.00000000E+00  0.00000000E+00  0.00000000E+00
