Ti2N  (n=1)
1.00000000000000
3.0164834506717413  -0.0000000000000001  0.0000000000000000
-1.5082417253358706  2.6123512984454180  0.0000000000000000
0.0000000000000001  -0.0000000000000001  31.7280640510794356
Ti  N  O  H
2  1  2  2
Selective  dynamics
Direct
-0.0000000000000000  0.0000000000000000  0.0708396814950906  T  T  T
0.6666666666666643  0.3333333333333357  0.1412143549644879  T  T  T
0.3333333333333357  0.6666666666666643  0.1060270182297893  T  T  T
0.6666666666666643  0.3333333333333357  0.0308144834024648  T  T  T
0.0000000000000000  0.0000000000000000  0.1812395530571137  T  T  T
0.6666666666666643  0.3333333333333357  0.0000000000000000  T  T  T
-0.0000000000000000  -0.0000000000000000  0.2120540364595783  T  T  T

0.00000000E+00  0.00000000E+00  0.00000000E+00
0.00000000E+00  0.00000000E+00  0.00000000E+00
0.00000000E+00  0.00000000E+00  0.00000000E+00
0.00000000E+00  0.00000000E+00  0.00000000E+00
0.00000000E+00  0.00000000E+00  0.00000000E+00
0.00000000E+00  0.00000000E+00  0.00000000E+00
0.00000000E+00  0.00000000E+00  0.00000000E+00
