Nb2N  (n=1)
1.00000000000000
3.2612722287455189  -0.0000000000000001  0.0000000000000000
-1.6306361143727597  2.8243445988988607  -0.0000000000000001
0.0000000000000003  -0.0000000000000007  31.7225966043623941
Nb  N  O  H
2  1  2  2
Selective  dynamics
Direct
-0.0000000000000000  -0.0000000000000000  0.0728245521222792  T  T  T
0.6666666666666643  0.3333333333333357  0.1390936804299048  T  T  T
0.3333333333333357  0.6666666666666643  0.1059591162760920  T  T  T
0.6666666666666643  0.3333333333333357  0.0308579228873463  T  T  T
-0.0000000000000000  -0.0000000000000000  0.1810603096648377  T  T  T
0.6666666666666643  0.3333333333333357  0.0000000000000000  T  T  T
0.0000000000000000  0.0000000000000000  0.2119182325521840  T  T  T

0.00000000E+00  0.00000000E+00  0.00000000E+00
0.00000000E+00  0.00000000E+00  0.00000000E+00
0.00000000E+00  0.00000000E+00  0.00000000E+00
0.00000000E+00  0.00000000E+00  0.00000000E+00
0.00000000E+00  0.00000000E+00  0.00000000E+00
0.00000000E+00  0.00000000E+00  0.00000000E+00
0.00000000E+00  0.00000000E+00  0.00000000E+00
