Ti2C  (n=1)
1.00000000000000
3.0388485098577527  0.0000000000000000  0.0000000000000000
-1.5194242549288763  2.6317200078546907  0.0000000000000000
-0.0000000000000001  -0.0000000000000001  31.8247054978824835
Ti  C  O  H
2  1  2  2
Selective  dynamics
Direct
-0.0000000000000000  -0.0000000000000000  0.0707789574604632  T  T  T
0.6666666666666643  0.3333333333333357  0.1436678187504455  T  T  T
0.3333333333333357  0.6666666666666643  0.1072233881054584  T  T  T
0.6666666666666643  0.3333333333333357  0.0306170357736119  T  T  T
-0.0000000000000000  -0.0000000000000000  0.1838297404372970  T  T  T
0.6666666666666643  0.3333333333333357  0.0000000000000000  T  T  T
-0.0000000000000000  -0.0000000000000000  0.2144467762109087  T  T  T

0.00000000E+00  0.00000000E+00  0.00000000E+00
0.00000000E+00  0.00000000E+00  0.00000000E+00
0.00000000E+00  0.00000000E+00  0.00000000E+00
0.00000000E+00  0.00000000E+00  0.00000000E+00
0.00000000E+00  0.00000000E+00  0.00000000E+00
0.00000000E+00  0.00000000E+00  0.00000000E+00
0.00000000E+00  0.00000000E+00  0.00000000E+00
