Hf2N  (n=1)
1.00000000000000
3.1842811027030749  -0.0000000000000008  0.0000000000000000
-1.5921405513515376  2.7576683278393119  0.0000000000000000
0.0000000000000001  -0.0000000000000001  32.1067806329372161
Hf  N  O  H
2  1  2  2
Selective  dynamics
Direct
-0.0000000000000000  -0.0000000000000000  0.0726924007741415  T  T  T
0.6666666666666643  0.3333333333333357  0.1486558780890036  T  T  T
0.3333333333333357  0.6666666666666643  0.1106741394315765  T  T  T
0.6666666666666643  0.3333333333333357  0.0307448082258890  T  T  T
0.0000000000000000  0.0000000000000000  0.1906034706372563  T  T  T
0.6666666666666643  0.3333333333333357  0.0000000000000000  T  T  T
0.0000000000000000  0.0000000000000000  0.2213482788631453  T  T  T

0.00000000E+00  0.00000000E+00  0.00000000E+00
0.00000000E+00  0.00000000E+00  0.00000000E+00
0.00000000E+00  0.00000000E+00  0.00000000E+00
0.00000000E+00  0.00000000E+00  0.00000000E+00
0.00000000E+00  0.00000000E+00  0.00000000E+00
0.00000000E+00  0.00000000E+00  0.00000000E+00
0.00000000E+00  0.00000000E+00  0.00000000E+00
