Sc2C  (n=1)
1.00000000000000
3.2733065896397764  0.0000000000000000  0.0000000000000000
-1.6366532948198882  2.8347666611105424  0.0000000000000000
-0.0000000000000003  0.0000000000000001  31.9746017964339018
Sc  C  O  H
2  1  2  2
Selective  dynamics
Direct
0.0000000000000000  -0.0000000000000000  0.0693789843809126  T  T  T
0.6666666666666643  0.3333333333333357  0.1487504497505161  T  T  T
0.3333333333333357  0.6666666666666643  0.1090647170657144  T  T  T
0.6666666666666643  0.3333333333333357  0.0303386832014904  T  T  T
0.0000000000000000  0.0000000000000000  0.1877907509299385  T  T  T
0.6666666666666643  0.3333333333333357  0.0000000000000000  T  T  T
0.0000000000000000  0.0000000000000000  0.2181294341314290  T  T  T

0.00000000E+00  0.00000000E+00  0.00000000E+00
0.00000000E+00  0.00000000E+00  0.00000000E+00
0.00000000E+00  0.00000000E+00  0.00000000E+00
0.00000000E+00  0.00000000E+00  0.00000000E+00
0.00000000E+00  0.00000000E+00  0.00000000E+00
0.00000000E+00  0.00000000E+00  0.00000000E+00
0.00000000E+00  0.00000000E+00  0.00000000E+00
