Zr2C  (n=1)
1.00000000000000
3.2905171100045556  -0.0000000000000011  0.0000000000000003
-1.6452585550022785  2.8496714089860311  -0.0000000000000001
0.0000000000000019  -0.0000000000000022  32.2379861658384002
Zr  C  O  H
2  1  2  2
Selective  dynamics
Direct
-0.0000000000000000  0.0000000000000000  0.0730789982306844  T  T  T
0.6666666666666643  0.3333333333333357  0.1514383189678702  T  T  T
0.3333333333333357  0.6666666666666643  0.1122586585992810  T  T  T
0.6666666666666643  0.3333333333333357  0.0302525333238793  T  T  T
0.0000000000000000  0.0000000000000000  0.1942647838746752  T  T  T
0.6666666666666643  0.3333333333333357  0.0000000000000000  T  T  T
-0.0000000000000000  -0.0000000000000000  0.2245173171985622  T  T  T

0.00000000E+00  0.00000000E+00  0.00000000E+00
0.00000000E+00  0.00000000E+00  0.00000000E+00
0.00000000E+00  0.00000000E+00  0.00000000E+00
0.00000000E+00  0.00000000E+00  0.00000000E+00
0.00000000E+00  0.00000000E+00  0.00000000E+00
0.00000000E+00  0.00000000E+00  0.00000000E+00
0.00000000E+00  0.00000000E+00  0.00000000E+00
