Nb2C  (n=1)
1.00000000000000
3.1862098682940441  -0.0000000000000001  0.0000000000000000
-1.5931049341470220  2.7593386878904211  0.0000000000000000
0.0000000000000001  0.0000000000000001  32.0380144010449257
Nb  C  O  H
2  1  2  2
Selective  dynamics
Direct
-0.0000000000000000  0.0000000000000000  0.0741790357893633  T  T  T
0.6666666666666643  0.3333333333333357  0.1454979489620663  T  T  T
0.3333333333333357  0.6666666666666643  0.1098384923757186  T  T  T
0.6666666666666643  0.3333333333333357  0.0305299642865320  T  T  T
-0.0000000000000000  -0.0000000000000000  0.1891470204648976  T  T  T
0.6666666666666643  0.3333333333333357  0.0000000000000000  T  T  T
0.0000000000000000  0.0000000000000000  0.2196769847514451  T  T  T

0.00000000E+00  0.00000000E+00  0.00000000E+00
0.00000000E+00  0.00000000E+00  0.00000000E+00
0.00000000E+00  0.00000000E+00  0.00000000E+00
0.00000000E+00  0.00000000E+00  0.00000000E+00
0.00000000E+00  0.00000000E+00  0.00000000E+00
0.00000000E+00  0.00000000E+00  0.00000000E+00
0.00000000E+00  0.00000000E+00  0.00000000E+00
