Cr2C  (n=1)
1.00000000000000
2.9828963919229698  0.0000000000000000  0.0000000000000000
-1.4914481959614849  2.5832640522856205  0.0000000000000000
-0.0000000000000001  -0.0000000000000003  31.5258973342772393
Cr  C  O  H
2  1  2  2
Selective  dynamics
Direct
-0.0000000000000000  -0.0000000000000000  0.0701238726478614  T  T  T
0.6666666666666643  0.3333333333333357  0.1368772878609566  T  T  T
0.3333333333333357  0.6666666666666643  0.1035005802544090  T  T  T
0.6666666666666643  0.3333333333333357  0.0309514493159465  T  T  T
-0.0000000000000000  0.0000000000000000  0.1760497111928714  T  T  T
0.6666666666666643  0.3333333333333357  0.0000000000000000  T  T  T
0.0000000000000000  0.0000000000000000  0.2070011605088180  T  T  T

0.00000000E+00  0.00000000E+00  0.00000000E+00
0.00000000E+00  0.00000000E+00  0.00000000E+00
0.00000000E+00  0.00000000E+00  0.00000000E+00
0.00000000E+00  0.00000000E+00  0.00000000E+00
0.00000000E+00  0.00000000E+00  0.00000000E+00
0.00000000E+00  0.00000000E+00  0.00000000E+00
0.00000000E+00  0.00000000E+00  0.00000000E+00
