Ti3N2  (n=2)
1.00000000000000
2.8701950784444343  0.0000000000000000  0.0000000000000000
-1.4350975392222172  2.4856618517960825  0.0000000000000000
0.0000000000000000  0.0000000000000000  32.9730145619967985
Ti  N  F
3  2  2
Selective  dynamics
Direct
0.0000000000000000  -0.0000000000000000  0.0396543752755839  T  T  T
0.0000000000000000  -0.0000000000000000  0.1209021175028706  T  T  T
0.0000000000000000  -0.0000000000000000  0.2021498597301572  T  T  T
0.3333333333333357  0.6666666666666643  0.0784002365201709  T  T  T
0.3333333333333357  0.6666666666666643  0.1634039984855624  T  T  T
0.6666666666666643  0.3333333333333357  0.0000000000000000  T  T  T
0.6666666666666643  0.3333333333333357  0.2418042350057412  T  T  T

0.00000000E+00  0.00000000E+00  0.00000000E+00
0.00000000E+00  0.00000000E+00  0.00000000E+00
0.00000000E+00  0.00000000E+00  0.00000000E+00
0.00000000E+00  0.00000000E+00  0.00000000E+00
0.00000000E+00  0.00000000E+00  0.00000000E+00
0.00000000E+00  0.00000000E+00  0.00000000E+00
0.00000000E+00  0.00000000E+00  0.00000000E+00
