Sc3C2  (n=2)
1.00000000000000
3.1921377573111851  0.0000000000000000  0.0000000000000000
-1.5960688786555925  2.7644723903883452  0.0000000000000000
0.0000000000000000  0.0000000000000000  33.1294274043823478
Sc  C  F
3  2  2
Selective  dynamics
Direct
-0.0000000000000000  -0.0000000000000000  0.0351990202922550  T  T  T
-0.0000000000000000  -0.0000000000000000  0.1226919394825769  T  T  T
-0.0000000000000000  -0.0000000000000000  0.2101848586729069  T  T  T
0.3333333333333357  0.6666666666666643  0.0758501804197165  T  T  T
0.3333333333333357  0.6666666666666643  0.1695336985454374  T  T  T
0.6666666666666643  0.3333333333333357  0.0000000000000000  T  T  T
0.6666666666666643  0.3333333333333357  0.2453838789651701  T  T  T

0.00000000E+00  0.00000000E+00  0.00000000E+00
0.00000000E+00  0.00000000E+00  0.00000000E+00
0.00000000E+00  0.00000000E+00  0.00000000E+00
0.00000000E+00  0.00000000E+00  0.00000000E+00
0.00000000E+00  0.00000000E+00  0.00000000E+00
0.00000000E+00  0.00000000E+00  0.00000000E+00
0.00000000E+00  0.00000000E+00  0.00000000E+00
