Ta3C2  (n=2)
1.00000000000000
2.9860422408751024  -0.0000000000000001  0.0000000000000000
-1.4930211204375512  2.5859884375488744  0.0000000000000000
0.0000000000000000  0.0000000000000000  33.6838258353969948
Ta  C  F
3  2  2
Selective  dynamics
Direct
0.0000000000000000  0.0000000000000000  0.0438775892078071  T  T  T
0.0000000000000000  0.0000000000000000  0.1289020118710987  T  T  T
0.0000000000000000  0.0000000000000000  0.2139264345343980  T  T  T
0.3333333333333357  0.6666666666666643  0.0843782045017028  T  T  T
0.3333333333333357  0.6666666666666643  0.1734258192404945  T  T  T
0.6666666666666643  0.3333333333333357  0.0000000000000000  T  T  T
0.6666666666666643  0.3333333333333357  0.2578040237422052  T  T  T

0.00000000E+00  0.00000000E+00  0.00000000E+00
0.00000000E+00  0.00000000E+00  0.00000000E+00
0.00000000E+00  0.00000000E+00  0.00000000E+00
0.00000000E+00  0.00000000E+00  0.00000000E+00
0.00000000E+00  0.00000000E+00  0.00000000E+00
0.00000000E+00  0.00000000E+00  0.00000000E+00
0.00000000E+00  0.00000000E+00  0.00000000E+00
