Nb3C2  (n=2)
1.00000000000000
3.0040565924867666  0.0000000000000000  0.0000000000000000
-1.5020282962433833  2.6015893237101664  0.0000000000000000
0.0000000000000000  0.0000000000000000  33.6600063409428003
Nb  C  F
3  2  2
Selective  dynamics
Direct
-0.0000000000000000  -0.0000000000000000  0.0434232779531387  T  T  T
-0.0000000000000000  -0.0000000000000000  0.1286394044793908  T  T  T
-0.0000000000000000  -0.0000000000000000  0.2138555310056428  T  T  T
0.3333333333333357  0.6666666666666643  0.0844215122864680  T  T  T
0.3333333333333357  0.6666666666666643  0.1728572966723136  T  T  T
0.6666666666666643  0.3333333333333357  0.0000000000000000  T  T  T
0.6666666666666643  0.3333333333333357  0.2572788089587816  T  T  T

0.00000000E+00  0.00000000E+00  0.00000000E+00
0.00000000E+00  0.00000000E+00  0.00000000E+00
0.00000000E+00  0.00000000E+00  0.00000000E+00
0.00000000E+00  0.00000000E+00  0.00000000E+00
0.00000000E+00  0.00000000E+00  0.00000000E+00
0.00000000E+00  0.00000000E+00  0.00000000E+00
0.00000000E+00  0.00000000E+00  0.00000000E+00
