Mo3C2  (n=2)
1.00000000000000
2.8683153277694173  -0.0000000000000001  0.0000000000000000
-1.4341576638847089  2.4840339399807054  0.0000000000000000
0.0000000000000000  0.0000000000000000  33.6450646323245195
Mo  C  F
3  2  2
Selective  dynamics
Direct
-0.0000000000000000  -0.0000000000000000  0.0446102882194292  T  T  T
-0.0000000000000000  -0.0000000000000000  0.1284744839517785  T  T  T
-0.0000000000000000  -0.0000000000000000  0.2123386796841434  T  T  T
0.3333333333333357  0.6666666666666643  0.0858975262088106  T  T  T
0.3333333333333357  0.6666666666666643  0.1710514416947466  T  T  T
0.6666666666666643  0.3333333333333357  0.0000000000000000  T  T  T
0.6666666666666643  0.3333333333333357  0.2569489679035650  T  T  T

0.00000000E+00  0.00000000E+00  0.00000000E+00
0.00000000E+00  0.00000000E+00  0.00000000E+00
0.00000000E+00  0.00000000E+00  0.00000000E+00
0.00000000E+00  0.00000000E+00  0.00000000E+00
0.00000000E+00  0.00000000E+00  0.00000000E+00
0.00000000E+00  0.00000000E+00  0.00000000E+00
0.00000000E+00  0.00000000E+00  0.00000000E+00
