Hf3N2  (n=2)
1.00000000000000
3.0281977845162817  0.0000000000000000  0.0000000000000000
-1.5140988922581409  2.6224962092614561  0.0000000000000000
0.0000000000000000  0.0000000000000000  33.7128257689713280
Hf  N  F
3  2  2
Selective  dynamics
Direct
-0.0000000000000000  -0.0000000000000000  0.0423351115212383  T  T  T
-0.0000000000000000  -0.0000000000000000  0.1292212321310433  T  T  T
-0.0000000000000000  -0.0000000000000000  0.2161073527408484  T  T  T
0.3333333333333357  0.6666666666666643  0.0843401962674507  T  T  T
0.3333333333333357  0.6666666666666643  0.1741022679946438  T  T  T
0.6666666666666643  0.3333333333333357  0.0000000000000000  T  T  T
0.6666666666666643  0.3333333333333357  0.2584424642620868  T  T  T

0.00000000E+00  0.00000000E+00  0.00000000E+00
0.00000000E+00  0.00000000E+00  0.00000000E+00
0.00000000E+00  0.00000000E+00  0.00000000E+00
0.00000000E+00  0.00000000E+00  0.00000000E+00
0.00000000E+00  0.00000000E+00  0.00000000E+00
0.00000000E+00  0.00000000E+00  0.00000000E+00
0.00000000E+00  0.00000000E+00  0.00000000E+00
