Cr3N2  (n=2)
1.00000000000000
2.6662195199786929  0.0000000000000000  0.0000000000000000
-1.3331097599893464  2.3090138363584933  0.0000000000000000
0.0000000000000000  0.0000000000000000  32.8704079601148464
Cr  N  F
3  2  2
Selective  dynamics
Direct
-0.0000000000000000  0.0000000000000000  0.0418746565776105  T  T  T
-0.0000000000000000  0.0000000000000000  0.1197187447394150  T  T  T
-0.0000000000000000  0.0000000000000000  0.1975628329012194  T  T  T
0.3333333333333357  0.6666666666666643  0.0791937333370816  T  T  T
0.3333333333333357  0.6666666666666643  0.1602437561417482  T  T  T
0.6666666666666643  0.3333333333333357  0.0000000000000000  T  T  T
0.6666666666666643  0.3333333333333357  0.2394374894788299  T  T  T

0.00000000E+00  0.00000000E+00  0.00000000E+00
0.00000000E+00  0.00000000E+00  0.00000000E+00
0.00000000E+00  0.00000000E+00  0.00000000E+00
0.00000000E+00  0.00000000E+00  0.00000000E+00
0.00000000E+00  0.00000000E+00  0.00000000E+00
0.00000000E+00  0.00000000E+00  0.00000000E+00
0.00000000E+00  0.00000000E+00  0.00000000E+00
