Cr3C2  (n=2)
1.00000000000000
2.6797888263882110  0.0000000000000000  0.0000000000000000
-1.3398944131941055  2.3207652004067931  0.0000000000000000
0.0000000000000000  0.0000000000000000  32.8897358003428408
Cr  C  F
3  2  2
Selective  dynamics
Direct
-0.0000000000000000  -0.0000000000000000  0.0410332499883811  T  T  T
-0.0000000000000000  -0.0000000000000000  0.1199422191810385  T  T  T
-0.0000000000000000  -0.0000000000000000  0.1988511883737110  T  T  T
0.3333333333333357  0.6666666666666643  0.0796209443334976  T  T  T
0.3333333333333357  0.6666666666666643  0.1602634940285793  T  T  T
0.6666666666666643  0.3333333333333357  0.0000000000000000  T  T  T
0.6666666666666643  0.3333333333333357  0.2398844383620922  T  T  T

0.00000000E+00  0.00000000E+00  0.00000000E+00
0.00000000E+00  0.00000000E+00  0.00000000E+00
0.00000000E+00  0.00000000E+00  0.00000000E+00
0.00000000E+00  0.00000000E+00  0.00000000E+00
0.00000000E+00  0.00000000E+00  0.00000000E+00
0.00000000E+00  0.00000000E+00  0.00000000E+00
0.00000000E+00  0.00000000E+00  0.00000000E+00
