Zr3C2  (n=2)
1.00000000000000
3.2700117299539424  0.0000000000000002  0.0000000000000000
-1.6350058649769719  2.8319132290969606  0.0000000000000000
0.0000000000000000  0.0000000000000000  33.3324237096608300
Zr  C  F
3  2  2
Selective  dynamics
Direct
0.0000000000000000  0.0000000000000000  0.0398293558047558  T  T  T
0.0000000000000000  0.0000000000000000  0.1249897664544242  T  T  T
0.0000000000000000  0.0000000000000000  0.2101501771040926  T  T  T
0.3333333333333357  0.6666666666666643  0.0776610607701688  T  T  T
0.3333333333333357  0.6666666666666643  0.1723184721386794  T  T  T
0.6666666666666643  0.3333333333333357  0.0000000000000000  T  T  T
0.6666666666666643  0.3333333333333357  0.2499795329088482  T  T  T

0.00000000E+00  0.00000000E+00  0.00000000E+00
0.00000000E+00  0.00000000E+00  0.00000000E+00
0.00000000E+00  0.00000000E+00  0.00000000E+00
0.00000000E+00  0.00000000E+00  0.00000000E+00
0.00000000E+00  0.00000000E+00  0.00000000E+00
0.00000000E+00  0.00000000E+00  0.00000000E+00
0.00000000E+00  0.00000000E+00  0.00000000E+00
