Mo3N2  (n=2)
1.00000000000000
2.8193345226019599  -0.0000000000000001  0.0000000000000000
-1.4096672613009797  2.4416153183982088  0.0000000000000000
0.0000000000000000  0.0000000000000000  33.7235775167252640
Mo  N  F
3  2  2
Selective  dynamics
Direct
-0.0000000000000000  0.0000000000000000  0.0452076785019141  T  T  T
-0.0000000000000000  0.0000000000000000  0.1293394437823032  T  T  T
-0.0000000000000000  0.0000000000000000  0.2134712090626924  T  T  T
0.3333333333333357  0.6666666666666643  0.0869870809622113  T  T  T
0.3333333333333357  0.6666666666666643  0.1716918066023875  T  T  T
0.6666666666666643  0.3333333333333357  0.0000000000000000  T  T  T
0.6666666666666643  0.3333333333333357  0.2586788875646065  T  T  T

0.00000000E+00  0.00000000E+00  0.00000000E+00
0.00000000E+00  0.00000000E+00  0.00000000E+00
0.00000000E+00  0.00000000E+00  0.00000000E+00
0.00000000E+00  0.00000000E+00  0.00000000E+00
0.00000000E+00  0.00000000E+00  0.00000000E+00
0.00000000E+00  0.00000000E+00  0.00000000E+00
0.00000000E+00  0.00000000E+00  0.00000000E+00
