Ti3C2  (n=2)
1.00000000000000
3.0146877003820856  0.0000000000000001  0.0000000000000000
-1.5073438501910428  2.6107961330774683  0.0000000000000000
0.0000000000000000  0.0000000000000000  32.6847371821441541
Ti  C  F
3  2  2
Selective  dynamics
Direct
0.0000000000000000  -0.0000000000000000  0.0379544059525847  T  T  T
0.0000000000000000  0.0000000000000000  0.1175584974007740  T  T  T
0.0000000000000000  -0.0000000000000000  0.1971625888489634  T  T  T
0.3333333333333357  0.6666666666666643  0.0740224151394124  T  T  T
0.3333333333333357  0.6666666666666643  0.1610945796621356  T  T  T
0.6666666666666643  0.3333333333333357  0.0000000000000000  T  T  T
0.6666666666666643  0.3333333333333357  0.2351169948015482  T  T  T

0.00000000E+00  0.00000000E+00  0.00000000E+00
0.00000000E+00  0.00000000E+00  0.00000000E+00
0.00000000E+00  0.00000000E+00  0.00000000E+00
0.00000000E+00  0.00000000E+00  0.00000000E+00
0.00000000E+00  0.00000000E+00  0.00000000E+00
0.00000000E+00  0.00000000E+00  0.00000000E+00
0.00000000E+00  0.00000000E+00  0.00000000E+00
