Zr3N2  (n=2)
1.00000000000000
3.0901835700215452  0.0000000000000000  0.0000000000000000
-1.5450917850107726  2.6761774742047924  0.0000000000000000
0.0000000000000000  0.0000000000000000  33.7664291294974177
Zr  N  F
3  2  2
Selective  dynamics
Direct
-0.0000000000000000  -0.0000000000000000  0.0423050457084264  T  T  T
-0.0000000000000000  -0.0000000000000000  0.1298098341384734  T  T  T
-0.0000000000000000  -0.0000000000000000  0.2173146225685282  T  T  T
0.3333333333333357  0.6666666666666643  0.0846532594416811  T  T  T
0.3333333333333357  0.6666666666666643  0.1749664088352735  T  T  T
0.6666666666666643  0.3333333333333357  0.0000000000000000  T  T  T
0.6666666666666643  0.3333333333333357  0.2596196682769546  T  T  T

0.00000000E+00  0.00000000E+00  0.00000000E+00
0.00000000E+00  0.00000000E+00  0.00000000E+00
0.00000000E+00  0.00000000E+00  0.00000000E+00
0.00000000E+00  0.00000000E+00  0.00000000E+00
0.00000000E+00  0.00000000E+00  0.00000000E+00
0.00000000E+00  0.00000000E+00  0.00000000E+00
0.00000000E+00  0.00000000E+00  0.00000000E+00
