Ta3N2  (n=2)
1.00000000000000
2.8717985317187931  0.0000000000000000  0.0000000000000000
-1.4358992658593965  2.4870504831342592  0.0000000000000000
0.0000000000000000  0.0000000000000000  33.9512027685820286
Ta  N  F
3  2  2
Selective  dynamics
Direct
0.0000000000000000  -0.0000000000000000  0.0448419693042882  T  T  T
0.0000000000000000  -0.0000000000000000  0.1318245310717655  T  T  T
0.0000000000000000  -0.0000000000000000  0.2188070928392506  T  T  T
0.3333333333333357  0.6666666666666643  0.0890218137656281  T  T  T
0.3333333333333357  0.6666666666666643  0.1746272483779107  T  T  T
0.6666666666666643  0.3333333333333357  0.0000000000000000  T  T  T
0.6666666666666643  0.3333333333333357  0.2636490621435464  T  T  T

0.00000000E+00  0.00000000E+00  0.00000000E+00
0.00000000E+00  0.00000000E+00  0.00000000E+00
0.00000000E+00  0.00000000E+00  0.00000000E+00
0.00000000E+00  0.00000000E+00  0.00000000E+00
0.00000000E+00  0.00000000E+00  0.00000000E+00
0.00000000E+00  0.00000000E+00  0.00000000E+00
0.00000000E+00  0.00000000E+00  0.00000000E+00
