Sc3N2  (n=2)
1.00000000000000
3.1295939350540274  0.0000000000000000  0.0000000000000000
-1.5647969675270137  2.7103078514110375  0.0000000000000000
0.0000000000000000  0.0000000000000000  32.8362033967599629
Sc  N  F
3  2  2
Selective  dynamics
Direct
-0.0000000000000000  0.0000000000000000  0.0367261220679878  T  T  T
-0.0000000000000000  0.0000000000000000  0.1193226162914577  T  T  T
-0.0000000000000000  0.0000000000000000  0.2019191105149277  T  T  T
0.3333333333333357  0.6666666666666643  0.0734369157739208  T  T  T
0.3333333333333357  0.6666666666666643  0.1652083168089946  T  T  T
0.6666666666666643  0.3333333333333357  0.0000000000000000  T  T  T
0.6666666666666643  0.3333333333333357  0.2386452325829234  T  T  T

0.00000000E+00  0.00000000E+00  0.00000000E+00
0.00000000E+00  0.00000000E+00  0.00000000E+00
0.00000000E+00  0.00000000E+00  0.00000000E+00
0.00000000E+00  0.00000000E+00  0.00000000E+00
0.00000000E+00  0.00000000E+00  0.00000000E+00
0.00000000E+00  0.00000000E+00  0.00000000E+00
0.00000000E+00  0.00000000E+00  0.00000000E+00
