Nb3N2  (n=2)
1.00000000000000
2.8969229008597921  0.0000000000000001  0.0000000000000000
-1.4484614504298963  2.5088088250665432  0.0000000000000000
0.0000000000000000  0.0000000000000000  33.8859163364633531
Nb  N  F
3  2  2
Selective  dynamics
Direct
0.0000000000000000  0.0000000000000000  0.0442349678868657  T  T  T
0.0000000000000000  0.0000000000000000  0.1311151843767802  T  T  T
0.0000000000000000  0.0000000000000000  0.2179954008667027  T  T  T
0.3333333333333357  0.6666666666666643  0.0883339756874057  T  T  T
0.3333333333333357  0.6666666666666643  0.1738963930661549  T  T  T
0.6666666666666643  0.3333333333333357  0.0000000000000000  T  T  T
0.6666666666666643  0.3333333333333357  0.2622303687535684  T  T  T

0.00000000E+00  0.00000000E+00  0.00000000E+00
0.00000000E+00  0.00000000E+00  0.00000000E+00
0.00000000E+00  0.00000000E+00  0.00000000E+00
0.00000000E+00  0.00000000E+00  0.00000000E+00
0.00000000E+00  0.00000000E+00  0.00000000E+00
0.00000000E+00  0.00000000E+00  0.00000000E+00
0.00000000E+00  0.00000000E+00  0.00000000E+00
