Hf3C2  (n=2)
1.00000000000000
3.2267132705358335  0.0000000000000000  0.0000000000000000
-1.6133566352679167  2.7944156633021677  0.0000000000000000
0.0000000000000000  0.0000000000000000  33.2098627626474467
Hf  C  F
3  2  2
Selective  dynamics
Direct
0.0000000000000000  -0.0000000000000000  0.0397842060824553  T  T  T
0.0000000000000000  -0.0000000000000000  0.1236057917691988  T  T  T
0.0000000000000000  0.0000000000000000  0.2074273774559499  T  T  T
0.3333333333333357  0.6666666666666643  0.0762557986617109  T  T  T
0.3333333333333357  0.6666666666666643  0.1709557848766788  T  T  T
0.6666666666666643  0.3333333333333357  0.0000000000000000  T  T  T
0.6666666666666643  0.3333333333333357  0.2472115835384130  T  T  T

0.00000000E+00  0.00000000E+00  0.00000000E+00
0.00000000E+00  0.00000000E+00  0.00000000E+00
0.00000000E+00  0.00000000E+00  0.00000000E+00
0.00000000E+00  0.00000000E+00  0.00000000E+00
0.00000000E+00  0.00000000E+00  0.00000000E+00
0.00000000E+00  0.00000000E+00  0.00000000E+00
0.00000000E+00  0.00000000E+00  0.00000000E+00
