Ta3N2  (n=2)
1.00000000000000
2.9124162032030565  0.0000000000000000  0.0000000000000000
-1.4562081016015282  2.5222264184465120  0.0000000000000000
0.0000000000000000  0.0000000000000000  33.0439411138149097
Ta  N  H
3  2  2
Selective  dynamics
Direct
0.0000000000000000  0.0000000000000000  0.0333412776493748  T  T  T
0.0000000000000000  0.0000000000000000  0.1217158250904187  T  T  T
0.0000000000000000  0.0000000000000000  0.2100903725314706  T  T  T
0.3333333333333357  0.6666666666666643  0.0783047272888314  T  T  T
0.3333333333333357  0.6666666666666643  0.1651269228920140  T  T  T
0.6666666666666643  0.3333333333333357  0.0000000000000000  T  T  T
0.6666666666666643  0.3333333333333357  0.2434316501808534  T  T  T

0.00000000E+00  0.00000000E+00  0.00000000E+00
0.00000000E+00  0.00000000E+00  0.00000000E+00
0.00000000E+00  0.00000000E+00  0.00000000E+00
0.00000000E+00  0.00000000E+00  0.00000000E+00
0.00000000E+00  0.00000000E+00  0.00000000E+00
0.00000000E+00  0.00000000E+00  0.00000000E+00
0.00000000E+00  0.00000000E+00  0.00000000E+00
