Zr3C2  (n=2)
1.00000000000000
3.3037103165915229  0.0000000000000000  0.0000000000000000
-1.6518551582957615  2.8610970611901334  0.0000000000000000
0.0000000000000000  0.0000000000000000  32.7717827737314096
Zr  C  H
3  2  2
Selective  dynamics
Direct
0.0000000000000000  0.0000000000000000  0.0323748343864345  T  T  T
0.0000000000000000  0.0000000000000000  0.1185743056365089  T  T  T
0.0000000000000000  0.0000000000000000  0.2047737768865832  T  T  T
0.3333333333333357  0.6666666666666643  0.0711326697885144  T  T  T
0.3333333333333357  0.6666666666666643  0.1660159414845033  T  T  T
0.6666666666666643  0.3333333333333357  0.0000000000000000  T  T  T
0.6666666666666643  0.3333333333333357  0.2371486112730177  T  T  T

0.00000000E+00  0.00000000E+00  0.00000000E+00
0.00000000E+00  0.00000000E+00  0.00000000E+00
0.00000000E+00  0.00000000E+00  0.00000000E+00
0.00000000E+00  0.00000000E+00  0.00000000E+00
0.00000000E+00  0.00000000E+00  0.00000000E+00
0.00000000E+00  0.00000000E+00  0.00000000E+00
0.00000000E+00  0.00000000E+00  0.00000000E+00
