Sc3N2  (n=2)
1.00000000000000
3.1522858669527274  0.0000000000000000  0.0000000000000000
-1.5761429334763637  2.7299596408905016  0.0000000000000000
0.0000000000000000  0.0000000000000000  32.5417751227494207
Sc  N  H
3  2  2
Selective  dynamics
Direct
-0.0000000000000000  -0.0000000000000000  0.0326016285042369  T  T  T
-0.0000000000000000  -0.0000000000000000  0.1158783608807625  T  T  T
-0.0000000000000000  -0.0000000000000000  0.1991550932572881  T  T  T
0.3333333333333357  0.6666666666666643  0.0702813506242351  T  T  T
0.3333333333333357  0.6666666666666643  0.1614753711372901  T  T  T
0.6666666666666643  0.3333333333333357  0.0000000000000000  T  T  T
0.6666666666666643  0.3333333333333357  0.2317567217615331  T  T  T

0.00000000E+00  0.00000000E+00  0.00000000E+00
0.00000000E+00  0.00000000E+00  0.00000000E+00
0.00000000E+00  0.00000000E+00  0.00000000E+00
0.00000000E+00  0.00000000E+00  0.00000000E+00
0.00000000E+00  0.00000000E+00  0.00000000E+00
0.00000000E+00  0.00000000E+00  0.00000000E+00
0.00000000E+00  0.00000000E+00  0.00000000E+00
