Sc3C2  (n=2)
1.00000000000000
3.2423082256500355  0.0000000000000000  0.0000000000000000
-1.6211541128250178  2.8079212905068274  0.0000000000000000
0.0000000000000000  0.0000000000000000  32.7816048552977506
Sc  C  H
3  2  2
Selective  dynamics
Direct
0.0000000000000000  -0.0000000000000000  0.0311112055754568  T  T  T
0.0000000000000000  -0.0000000000000000  0.1186885890676525  T  T  T
0.0000000000000000  -0.0000000000000000  0.2062659725598567  T  T  T
0.3333333333333357  0.6666666666666643  0.0713475309443745  T  T  T
0.3333333333333357  0.6666666666666643  0.1660296471909305  T  T  T
0.6666666666666643  0.3333333333333357  0.0000000000000000  T  T  T
0.6666666666666643  0.3333333333333357  0.2373771781353220  T  T  T

0.00000000E+00  0.00000000E+00  0.00000000E+00
0.00000000E+00  0.00000000E+00  0.00000000E+00
0.00000000E+00  0.00000000E+00  0.00000000E+00
0.00000000E+00  0.00000000E+00  0.00000000E+00
0.00000000E+00  0.00000000E+00  0.00000000E+00
0.00000000E+00  0.00000000E+00  0.00000000E+00
0.00000000E+00  0.00000000E+00  0.00000000E+00
