Ti3N2  (n=2)
1.00000000000000
2.8940867135603265  0.0000000000000000  0.0000000000000000
-1.4470433567801633  2.5063526147322799  0.0000000000000000
0.0000000000000000  0.0000000000000000  32.3403496047288357
Ti  N  H
3  2  2
Selective  dynamics
Direct
0.0000000000000000  -0.0000000000000000  0.0308808622870634  T  T  T
0.0000000000000000  -0.0000000000000000  0.1134859346674397  T  T  T
0.0000000000000000  -0.0000000000000000  0.1960910070478160  T  T  T
0.3333333333333357  0.6666666666666643  0.0708883632296560  T  T  T
0.3333333333333357  0.6666666666666643  0.1560835061052152  T  T  T
0.6666666666666643  0.3333333333333357  0.0000000000000000  T  T  T
0.6666666666666643  0.3333333333333357  0.2269718693348795  T  T  T

0.00000000E+00  0.00000000E+00  0.00000000E+00
0.00000000E+00  0.00000000E+00  0.00000000E+00
0.00000000E+00  0.00000000E+00  0.00000000E+00
0.00000000E+00  0.00000000E+00  0.00000000E+00
0.00000000E+00  0.00000000E+00  0.00000000E+00
0.00000000E+00  0.00000000E+00  0.00000000E+00
0.00000000E+00  0.00000000E+00  0.00000000E+00
