Ti3C2  (n=2)
1.00000000000000
3.0468833979069827  0.0000000000000000  0.0000000000000000
-1.5234416989534914  2.6386784250232878  0.0000000000000000
0.0000000000000000  0.0000000000000000  32.1524693577989851
Ti  C  H
3  2  2
Selective  dynamics
Direct
0.0000000000000000  -0.0000000000000000  0.0309564503499430  T  T  T
0.0000000000000000  -0.0000000000000000  0.1112273722774588  T  T  T
0.0000000000000000  -0.0000000000000000  0.1914982942049746  T  T  T
0.3333333333333357  0.6666666666666643  0.0672112812993440  T  T  T
0.3333333333333357  0.6666666666666643  0.1552434632555735  T  T  T
0.6666666666666643  0.3333333333333357  0.0000000000000000  T  T  T
0.6666666666666643  0.3333333333333357  0.2224547445549175  T  T  T

0.00000000E+00  0.00000000E+00  0.00000000E+00
0.00000000E+00  0.00000000E+00  0.00000000E+00
0.00000000E+00  0.00000000E+00  0.00000000E+00
0.00000000E+00  0.00000000E+00  0.00000000E+00
0.00000000E+00  0.00000000E+00  0.00000000E+00
0.00000000E+00  0.00000000E+00  0.00000000E+00
0.00000000E+00  0.00000000E+00  0.00000000E+00
