Nb3N2  (n=2)
1.00000000000000
2.9387067711241128  0.0000000000000000  0.0000000000000000
-1.4693533855620564  2.5449947181478350  0.0000000000000000
0.0000000000000000  0.0000000000000000  33.0129972209408180
Nb  N  H
3  2  2
Selective  dynamics
Direct
0.0000000000000000  0.0000000000000000  0.0331476113965624  T  T  T
0.0000000000000000  0.0000000000000000  0.1213612500451449  T  T  T
0.0000000000000000  0.0000000000000000  0.2095748886937356  T  T  T
0.3333333333333357  0.6666666666666643  0.0779491034096121  T  T  T
0.3333333333333357  0.6666666666666643  0.1647733966806778  T  T  T
0.6666666666666643  0.3333333333333357  0.0000000000000000  T  T  T
0.6666666666666643  0.3333333333333357  0.2427225000902981  T  T  T

0.00000000E+00  0.00000000E+00  0.00000000E+00
0.00000000E+00  0.00000000E+00  0.00000000E+00
0.00000000E+00  0.00000000E+00  0.00000000E+00
0.00000000E+00  0.00000000E+00  0.00000000E+00
0.00000000E+00  0.00000000E+00  0.00000000E+00
0.00000000E+00  0.00000000E+00  0.00000000E+00
0.00000000E+00  0.00000000E+00  0.00000000E+00
