Cr3C2  (n=2)
1.00000000000000
2.6688487708194315  0.0000000000000000  0.0000000000000000
-1.3344243854097158  2.3112908343726963  0.0000000000000000
0.0000000000000000  0.0000000000000000  32.1645790383171644
Cr  C  H
3  2  2
Selective  dynamics
Direct
0.0000000000000000  -0.0000000000000000  0.0302077550472112  T  T  T
0.0000000000000000  -0.0000000000000000  0.1113737417452533  T  T  T
0.0000000000000000  -0.0000000000000000  0.1925397284433115  T  T  T
0.3333333333333357  0.6666666666666643  0.0698469678937465  T  T  T
0.3333333333333357  0.6666666666666643  0.1529005155967602  T  T  T
0.6666666666666643  0.3333333333333357  0.0000000000000000  T  T  T
0.6666666666666643  0.3333333333333357  0.2227474834905227  T  T  T

0.00000000E+00  0.00000000E+00  0.00000000E+00
0.00000000E+00  0.00000000E+00  0.00000000E+00
0.00000000E+00  0.00000000E+00  0.00000000E+00
0.00000000E+00  0.00000000E+00  0.00000000E+00
0.00000000E+00  0.00000000E+00  0.00000000E+00
0.00000000E+00  0.00000000E+00  0.00000000E+00
0.00000000E+00  0.00000000E+00  0.00000000E+00
