Hf3C2  (n=2)
1.00000000000000
3.2483119575938182  0.0000000000000000  0.0000000000000000
-1.6241559787969091  2.8131206749176383  0.0000000000000000
0.0000000000000000  0.0000000000000000  32.6717199134374567
Hf  C  H
3  2  2
Selective  dynamics
Direct
-0.0000000000000000  -0.0000000000000000  0.0322787339092052  T  T  T
-0.0000000000000000  -0.0000000000000000  0.1174061226920887  T  T  T
-0.0000000000000000  -0.0000000000000000  0.2025335114749804  T  T  T
0.3333333333333357  0.6666666666666643  0.0705782534832271  T  T  T
0.3333333333333357  0.6666666666666643  0.1642339919009421  T  T  T
0.6666666666666643  0.3333333333333357  0.0000000000000000  T  T  T
0.6666666666666643  0.3333333333333357  0.2348122453841855  T  T  T

0.00000000E+00  0.00000000E+00  0.00000000E+00
0.00000000E+00  0.00000000E+00  0.00000000E+00
0.00000000E+00  0.00000000E+00  0.00000000E+00
0.00000000E+00  0.00000000E+00  0.00000000E+00
0.00000000E+00  0.00000000E+00  0.00000000E+00
0.00000000E+00  0.00000000E+00  0.00000000E+00
0.00000000E+00  0.00000000E+00  0.00000000E+00
