Cr3N2  (n=2)
1.00000000000000
2.6498765197315675  0.0000000000000000  0.0000000000000000
-1.3249382598657837  2.2948603829721366  0.0000000000000000
0.0000000000000000  0.0000000000000000  32.1844602823112709
Cr  N  H
3  2  2
Selective  dynamics
Direct
-0.0000000000000000  -0.0000000000000000  0.0314788415690243  T  T  T
-0.0000000000000000  -0.0000000000000000  0.1116138070872030  T  T  T
-0.0000000000000000  -0.0000000000000000  0.1917487726053818  T  T  T
0.3333333333333357  0.6666666666666643  0.0704506172834255  T  T  T
0.3333333333333357  0.6666666666666643  0.1527769968909804  T  T  T
0.6666666666666643  0.3333333333333357  0.0000000000000000  T  T  T
0.6666666666666643  0.3333333333333357  0.2232276141744059  T  T  T

0.00000000E+00  0.00000000E+00  0.00000000E+00
0.00000000E+00  0.00000000E+00  0.00000000E+00
0.00000000E+00  0.00000000E+00  0.00000000E+00
0.00000000E+00  0.00000000E+00  0.00000000E+00
0.00000000E+00  0.00000000E+00  0.00000000E+00
0.00000000E+00  0.00000000E+00  0.00000000E+00
0.00000000E+00  0.00000000E+00  0.00000000E+00
