Zr3N2  (n=2)
1.00000000000000
3.1394704869310561  0.0000000000000000  0.0000000000000000
-1.5697352434655281  2.7188611962824685  0.0000000000000000
0.0000000000000000  0.0000000000000000  32.9840811056768430
Zr  N  H
3  2  2
Selective  dynamics
Direct
-0.0000000000000000  -0.0000000000000000  0.0319309087657122  T  T  T
-0.0000000000000000  -0.0000000000000000  0.1210293092612856  T  T  T
-0.0000000000000000  -0.0000000000000000  0.2101277097568670  T  T  T
0.3333333333333357  0.6666666666666643  0.0761114714053228  T  T  T
0.3333333333333357  0.6666666666666643  0.1659471471172563  T  T  T
0.6666666666666643  0.3333333333333357  0.0000000000000000  T  T  T
0.6666666666666643  0.3333333333333357  0.2420586185225792  T  T  T

0.00000000E+00  0.00000000E+00  0.00000000E+00
0.00000000E+00  0.00000000E+00  0.00000000E+00
0.00000000E+00  0.00000000E+00  0.00000000E+00
0.00000000E+00  0.00000000E+00  0.00000000E+00
0.00000000E+00  0.00000000E+00  0.00000000E+00
0.00000000E+00  0.00000000E+00  0.00000000E+00
0.00000000E+00  0.00000000E+00  0.00000000E+00
