Ta3C2  (n=2)
1.00000000000000
3.0123259306244234  0.0000000000000000  0.0000000000000000
-1.5061629653122115  2.6087507805101255  0.0000000000000000
0.0000000000000000  0.0000000000000000  32.7498245066204490
Ta  C  H
3  2  2
Selective  dynamics
Direct
0.0000000000000000  0.0000000000000000  0.0309258594680606  T  T  T
0.0000000000000000  0.0000000000000000  0.1183185654178626  T  T  T
0.0000000000000000  0.0000000000000000  0.2057112713676726  T  T  T
0.3333333333333357  0.6666666666666643  0.0734218333387724  T  T  T
0.3333333333333357  0.6666666666666643  0.1632152974969528  T  T  T
0.6666666666666643  0.3333333333333357  0.0000000000000000  T  T  T
0.6666666666666643  0.3333333333333357  0.2366371308357333  T  T  T

0.00000000E+00  0.00000000E+00  0.00000000E+00
0.00000000E+00  0.00000000E+00  0.00000000E+00
0.00000000E+00  0.00000000E+00  0.00000000E+00
0.00000000E+00  0.00000000E+00  0.00000000E+00
0.00000000E+00  0.00000000E+00  0.00000000E+00
0.00000000E+00  0.00000000E+00  0.00000000E+00
0.00000000E+00  0.00000000E+00  0.00000000E+00
