Mo3C2  (n=2)
1.00000000000000
2.8934718370146020  -0.0000000000000001  0.0000000000000000
-1.4467359185073010  2.5058201160443190  0.0000000000000000
0.0000000000000000  0.0000000000000000  32.7408018215626910
Mo  C  H
3  2  2
Selective  dynamics
Direct
-0.0000000000000000  0.0000000000000000  0.0321439228430065  T  T  T
-0.0000000000000000  0.0000000000000000  0.1182133819408238  T  T  T
-0.0000000000000000  0.0000000000000000  0.2042828410386572  T  T  T
0.3333333333333357  0.6666666666666643  0.0745848174800979  T  T  T
0.3333333333333357  0.6666666666666643  0.1618419464015498  T  T  T
0.6666666666666643  0.3333333333333357  0.0000000000000000  T  T  T
0.6666666666666643  0.3333333333333357  0.2364267638816558  T  T  T

0.00000000E+00  0.00000000E+00  0.00000000E+00
0.00000000E+00  0.00000000E+00  0.00000000E+00
0.00000000E+00  0.00000000E+00  0.00000000E+00
0.00000000E+00  0.00000000E+00  0.00000000E+00
0.00000000E+00  0.00000000E+00  0.00000000E+00
0.00000000E+00  0.00000000E+00  0.00000000E+00
0.00000000E+00  0.00000000E+00  0.00000000E+00
