Nb3C2  (n=2)
1.00000000000000
3.0309034182755883  0.0000000000000000  0.0000000000000000
-1.5154517091377941  2.6248393567784052  0.0000000000000000
0.0000000000000000  0.0000000000000000  32.7797439832229287
Nb  C  H
3  2  2
Selective  dynamics
Direct
0.0000000000000000  -0.0000000000000000  0.0311072447224257  T  T  T
0.0000000000000000  -0.0000000000000000  0.1186669424142649  T  T  T
0.0000000000000000  -0.0000000000000000  0.2062266401061041  T  T  T
0.3333333333333357  0.6666666666666643  0.0737699695322492  T  T  T
0.3333333333333357  0.6666666666666643  0.1635639152962807  T  T  T
0.6666666666666643  0.3333333333333357  0.0000000000000000  T  T  T
0.6666666666666643  0.3333333333333357  0.2373338848285299  T  T  T

0.00000000E+00  0.00000000E+00  0.00000000E+00
0.00000000E+00  0.00000000E+00  0.00000000E+00
0.00000000E+00  0.00000000E+00  0.00000000E+00
0.00000000E+00  0.00000000E+00  0.00000000E+00
0.00000000E+00  0.00000000E+00  0.00000000E+00
0.00000000E+00  0.00000000E+00  0.00000000E+00
0.00000000E+00  0.00000000E+00  0.00000000E+00
