Hf3N2  (n=2)
1.00000000000000
3.0766952360892210  0.0000000000000000  0.0000000000000000
-1.5383476180446103  2.6644962342983440  0.0000000000000000
0.0000000000000000  0.0000000000000000  32.8956912499545027
Hf  N  H
3  2  2
Selective  dynamics
Direct
-0.0000000000000000  -0.0000000000000000  0.0314854730135986  T  T  T
-0.0000000000000000  -0.0000000000000000  0.1200110249995950  T  T  T
-0.0000000000000000  -0.0000000000000000  0.2085365769855914  T  T  T
0.3333333333333357  0.6666666666666643  0.0753810595377212  T  T  T
0.3333333333333357  0.6666666666666643  0.1646409904614769  T  T  T
0.6666666666666643  0.3333333333333357  0.0000000000000000  T  T  T
0.6666666666666643  0.3333333333333357  0.2400220499991902  T  T  T

0.00000000E+00  0.00000000E+00  0.00000000E+00
0.00000000E+00  0.00000000E+00  0.00000000E+00
0.00000000E+00  0.00000000E+00  0.00000000E+00
0.00000000E+00  0.00000000E+00  0.00000000E+00
0.00000000E+00  0.00000000E+00  0.00000000E+00
0.00000000E+00  0.00000000E+00  0.00000000E+00
0.00000000E+00  0.00000000E+00  0.00000000E+00
