Mo3N2  (n=2)
1.00000000000000
2.8361268633557035  0.0000000000000000  0.0000000000000000
-1.4180634316778518  2.4561579120732695  0.0000000000000000
0.0000000000000000  0.0000000000000000  32.9644587194518977
Mo  N  H
3  2  2
Selective  dynamics
Direct
0.0000000000000000  0.0000000000000000  0.0347440272881286  T  T  T
0.0000000000000000  0.0000000000000000  0.1208037235987161  T  T  T
0.0000000000000000  0.0000000000000000  0.2068634199093033  T  T  T
0.3333333333333357  0.6666666666666643  0.0778725357088814  T  T  T
0.3333333333333357  0.6666666666666643  0.1637349114885507  T  T  T
0.6666666666666643  0.3333333333333357  0.0000000000000000  T  T  T
0.6666666666666643  0.3333333333333357  0.2416074471974320  T  T  T

0.00000000E+00  0.00000000E+00  0.00000000E+00
0.00000000E+00  0.00000000E+00  0.00000000E+00
0.00000000E+00  0.00000000E+00  0.00000000E+00
0.00000000E+00  0.00000000E+00  0.00000000E+00
0.00000000E+00  0.00000000E+00  0.00000000E+00
0.00000000E+00  0.00000000E+00  0.00000000E+00
0.00000000E+00  0.00000000E+00  0.00000000E+00
