Cr4N3  (n=3)
1.00000000000000
2.8106736781495916  0.0000000000000000  0.0000000000000000
-1.4053368390747958  2.4341148070317891  0.0000000000000000
0.0000000000000000  0.0000000000000000  36.1098472844145633
Cr  N  Se
4  3  2
Selective  dynamics
Direct
-0.0000000000000000  -0.0000000000000000  0.0483277048293253  T  T  T
-0.0000000000000000  -0.0000000000000000  0.1185118785030733  T  T  T
-0.0000000000000000  -0.0000000000000000  0.1891561987643071  T  T  T
-0.0000000000000000  -0.0000000000000000  0.2593403724380551  T  T  T
0.3333333333333357  0.6666666666666643  0.0829230494284234  T  T  T
0.3333333333333357  0.6666666666666643  0.1538340386336902  T  T  T
0.3333333333333357  0.6666666666666643  0.2247450278389500  T  T  T
0.3333333333333357  0.6666666666666643  0.0000000000000000  T  T  T
0.3333333333333357  0.6666666666666643  0.3076680772673803  T  T  T

0.00000000E+00  0.00000000E+00  0.00000000E+00
0.00000000E+00  0.00000000E+00  0.00000000E+00
0.00000000E+00  0.00000000E+00  0.00000000E+00
0.00000000E+00  0.00000000E+00  0.00000000E+00
0.00000000E+00  0.00000000E+00  0.00000000E+00
0.00000000E+00  0.00000000E+00  0.00000000E+00
0.00000000E+00  0.00000000E+00  0.00000000E+00
0.00000000E+00  0.00000000E+00  0.00000000E+00
0.00000000E+00  0.00000000E+00  0.00000000E+00
