Ti4N3  (n=3)
1.00000000000000
2.9944271269366887  0.0000000000000002  0.0000000000000000
-1.4972135634683441  2.5932499619743004  0.0000000000000000
0.0000000000000000  0.0000000000000000  36.8076364147437687
Ti  N  Se
4  3  2
Selective  dynamics
Direct
-0.0000000000000000  -0.0000000000000000  0.0519066434008114  T  T  T
-0.0000000000000000  -0.0000000000000000  0.1241605226668973  T  T  T
-0.0000000000000000  -0.0000000000000000  0.1966325943291746  T  T  T
-0.0000000000000000  -0.0000000000000000  0.2688864735952605  T  T  T
0.3333333333333357  0.6666666666666643  0.0869557354037912  T  T  T
0.3333333333333357  0.6666666666666643  0.1603965584980359  T  T  T
0.3333333333333357  0.6666666666666643  0.2338373815922666  T  T  T
0.3333333333333357  0.6666666666666643  0.0000000000000000  T  T  T
0.3333333333333357  0.6666666666666643  0.3207931169960718  T  T  T

0.00000000E+00  0.00000000E+00  0.00000000E+00
0.00000000E+00  0.00000000E+00  0.00000000E+00
0.00000000E+00  0.00000000E+00  0.00000000E+00
0.00000000E+00  0.00000000E+00  0.00000000E+00
0.00000000E+00  0.00000000E+00  0.00000000E+00
0.00000000E+00  0.00000000E+00  0.00000000E+00
0.00000000E+00  0.00000000E+00  0.00000000E+00
0.00000000E+00  0.00000000E+00  0.00000000E+00
0.00000000E+00  0.00000000E+00  0.00000000E+00
