Sc4N3  (n=3)
1.00000000000000
3.1588374638345633  0.0000000000000001  0.0000000000000000
-1.5794187319172817  2.7356334913438674  0.0000000000000000
0.0000000000000000  0.0000000000000000  37.4769825480033489
Sc  N  Se
4  3  2
Selective  dynamics
Direct
0.0000000000000000  0.0000000000000000  0.0554252017104868  T  T  T
0.0000000000000000  0.0000000000000000  0.1295031472729759  T  T  T
0.0000000000000000  0.0000000000000000  0.2034207355935778  T  T  T
-0.0000000000000000  0.0000000000000000  0.2774986811560670  T  T  T
0.3333333333333357  0.6666666666666643  0.0895008752556146  T  T  T
0.3333333333333357  0.6666666666666643  0.1664619414332731  T  T  T
0.3333333333333357  0.6666666666666643  0.2434230076109317  T  T  T
0.3333333333333357  0.6666666666666643  0.0000000000000000  T  T  T
0.3333333333333357  0.6666666666666643  0.3329238828665537  T  T  T

0.00000000E+00  0.00000000E+00  0.00000000E+00
0.00000000E+00  0.00000000E+00  0.00000000E+00
0.00000000E+00  0.00000000E+00  0.00000000E+00
0.00000000E+00  0.00000000E+00  0.00000000E+00
0.00000000E+00  0.00000000E+00  0.00000000E+00
0.00000000E+00  0.00000000E+00  0.00000000E+00
0.00000000E+00  0.00000000E+00  0.00000000E+00
0.00000000E+00  0.00000000E+00  0.00000000E+00
0.00000000E+00  0.00000000E+00  0.00000000E+00
