Ti4C3  (n=3)
1.00000000000000
3.0838964424329118  0.0000000000000000  -0.0000000000000000
-1.5419482212164559  2.6707326626041232  0.0000000000000000
0.0000000000000000  -0.0000000000000000  36.9022906326136209
Ti  C  Se
4  3  2
Selective  dynamics
Direct
-0.0000000000000000  -0.0000000000000000  0.0534986156730198  T  T  T
-0.0000000000000000  -0.0000000000000000  0.1256024164448397  T  T  T
-0.0000000000000000  -0.0000000000000000  0.1969328633053710  T  T  T
-0.0000000000000000  -0.0000000000000000  0.2690366640771909  T  T  T
0.3333333333333357  0.6666666666666643  0.0861212904508439  T  T  T
0.3333333333333357  0.6666666666666643  0.1612676398751054  T  T  T
0.3333333333333357  0.6666666666666643  0.2364139892993593  T  T  T
0.3333333333333357  0.6666666666666643  0.0000000000000000  T  T  T
0.3333333333333357  0.6666666666666643  0.3225352797502108  T  T  T

0.00000000E+00  0.00000000E+00  0.00000000E+00
0.00000000E+00  0.00000000E+00  0.00000000E+00
0.00000000E+00  0.00000000E+00  0.00000000E+00
0.00000000E+00  0.00000000E+00  0.00000000E+00
0.00000000E+00  0.00000000E+00  0.00000000E+00
0.00000000E+00  0.00000000E+00  0.00000000E+00
0.00000000E+00  0.00000000E+00  0.00000000E+00
0.00000000E+00  0.00000000E+00  0.00000000E+00
0.00000000E+00  0.00000000E+00  0.00000000E+00
