Zr4C3  (n=3)
1.00000000000000
3.3134371428410461  -0.0000000000000001  0.0000000000000000
-1.6567185714205230  2.8695207457923688  -0.0000000000000000
-0.0000000000000000  -0.0000000000000000  37.7941531596883209
Zr  C  Se
4  3  2
Selective  dynamics
Direct
0.0000000000000000  -0.0000000000000000  0.0535069909451920  T  T  T
-0.0000000000000000  -0.0000000000000000  0.1309859681494910  T  T  T
-0.0000000000000000  -0.0000000000000000  0.2075360541757696  T  T  T
-0.0000000000000000  -0.0000000000000000  0.2850150313800682  T  T  T
0.3333333333333357  0.6666666666666643  0.0891078300677375  T  T  T
0.3333333333333357  0.6666666666666643  0.1692610111626265  T  T  T
0.3333333333333357  0.6666666666666643  0.2494141922575155  T  T  T
0.3333333333333357  0.6666666666666643  0.0000000000000000  T  T  T
0.3333333333333357  0.6666666666666643  0.3385220223252604  T  T  T

0.00000000E+00  0.00000000E+00  0.00000000E+00
0.00000000E+00  0.00000000E+00  0.00000000E+00
0.00000000E+00  0.00000000E+00  0.00000000E+00
0.00000000E+00  0.00000000E+00  0.00000000E+00
0.00000000E+00  0.00000000E+00  0.00000000E+00
0.00000000E+00  0.00000000E+00  0.00000000E+00
0.00000000E+00  0.00000000E+00  0.00000000E+00
0.00000000E+00  0.00000000E+00  0.00000000E+00
0.00000000E+00  0.00000000E+00  0.00000000E+00
