Sc4C3  (n=3)
1.00000000000000
3.3595225762554310  0.0000000000000000  -0.0000000000000000
-1.6797612881277155  2.9094318978681577  -0.0000000000000000
-0.0000000000000000  -0.0000000000000000  37.1763937083430278
Sc  C  Se
4  3  2
Selective  dynamics
Direct
-0.0000000000000000  -0.0000000000000000  0.0535047362681716  T  T  T
-0.0000000000000000  -0.0000000000000000  0.1271139380306441  T  T  T
-0.0000000000000000  -0.0000000000000000  0.2004163168905167  T  T  T
-0.0000000000000000  0.0000000000000000  0.2740255186529892  T  T  T
0.3333333333333357  0.6666666666666643  0.0906307600072906  T  T  T
0.3333333333333357  0.6666666666666643  0.1637651274605766  T  T  T
0.3333333333333357  0.6666666666666643  0.2368994949138555  T  T  T
0.3333333333333357  0.6666666666666643  0.0000000000000000  T  T  T
0.3333333333333357  0.6666666666666643  0.3275302549211607  T  T  T

0.00000000E+00  0.00000000E+00  0.00000000E+00
0.00000000E+00  0.00000000E+00  0.00000000E+00
0.00000000E+00  0.00000000E+00  0.00000000E+00
0.00000000E+00  0.00000000E+00  0.00000000E+00
0.00000000E+00  0.00000000E+00  0.00000000E+00
0.00000000E+00  0.00000000E+00  0.00000000E+00
0.00000000E+00  0.00000000E+00  0.00000000E+00
0.00000000E+00  0.00000000E+00  0.00000000E+00
0.00000000E+00  0.00000000E+00  0.00000000E+00
