Mo4C3  (n=3)
1.00000000000000
3.0215802316532829  0.0000000000000001  -0.0000000000000000
-1.5107901158266417  2.6167652407415924  -0.0000000000000000
-0.0000000000000000  -0.0000000000000000  36.9633260009178954
Mo  C  Se
4  3  2
Selective  dynamics
Direct
0.0000000000000000  0.0000000000000000  0.0488223099623093  T  T  T
-0.0000000000000000  0.0000000000000000  0.1239644271738375  T  T  T
-0.0000000000000000  0.0000000000000000  0.1996895102619011  T  T  T
0.0000000000000000  0.0000000000000000  0.2748316274734294  T  T  T
0.3333333333333357  0.6666666666666643  0.0861548101650343  T  T  T
0.3333333333333357  0.6666666666666643  0.1618269687178658  T  T  T
0.3333333333333357  0.6666666666666643  0.2374991272706971  T  T  T
0.3333333333333357  0.6666666666666643  0.0000000000000000  T  T  T
0.3333333333333357  0.6666666666666643  0.3236539374357387  T  T  T

0.00000000E+00  0.00000000E+00  0.00000000E+00
0.00000000E+00  0.00000000E+00  0.00000000E+00
0.00000000E+00  0.00000000E+00  0.00000000E+00
0.00000000E+00  0.00000000E+00  0.00000000E+00
0.00000000E+00  0.00000000E+00  0.00000000E+00
0.00000000E+00  0.00000000E+00  0.00000000E+00
0.00000000E+00  0.00000000E+00  0.00000000E+00
0.00000000E+00  0.00000000E+00  0.00000000E+00
0.00000000E+00  0.00000000E+00  0.00000000E+00
