Zr4N3  (n=3)
1.00000000000000
3.2769377465445473  0.0000000000000004  0.0000000000000000
-1.6384688732722728  2.8379113366609960  0.0000000000000000
0.0000000000000000  0.0000000000000000  37.3653400444509032
Zr  N  Se
4  3  2
Selective  dynamics
Direct
-0.0000000000000000  -0.0000000000000000  0.0489981313439662  T  T  T
-0.0000000000000000  -0.0000000000000000  0.1264086265654684  T  T  T
-0.0000000000000000  -0.0000000000000000  0.2045221244926105  T  T  T
-0.0000000000000000  -0.0000000000000000  0.2819326197141126  T  T  T
0.3333333333333357  0.6666666666666643  0.0883737675145224  T  T  T
0.3333333333333357  0.6666666666666643  0.1654653755290394  T  T  T
0.3333333333333357  0.6666666666666643  0.2425569835435566  T  T  T
0.3333333333333357  0.6666666666666643  0.0000000000000000  T  T  T
0.3333333333333357  0.6666666666666643  0.3309307510580856  T  T  T

0.00000000E+00  0.00000000E+00  0.00000000E+00
0.00000000E+00  0.00000000E+00  0.00000000E+00
0.00000000E+00  0.00000000E+00  0.00000000E+00
0.00000000E+00  0.00000000E+00  0.00000000E+00
0.00000000E+00  0.00000000E+00  0.00000000E+00
0.00000000E+00  0.00000000E+00  0.00000000E+00
0.00000000E+00  0.00000000E+00  0.00000000E+00
0.00000000E+00  0.00000000E+00  0.00000000E+00
0.00000000E+00  0.00000000E+00  0.00000000E+00
