Hf4C3  (n=3)
1.00000000000000
3.2678299155435457  0.0000000000000001  0.0000000000000000
-1.6339149577717729  2.8300237262930925  0.0000000000000000
0.0000000000000000  0.0000000000000000  37.6459412751701947
Hf  C  Se
4  3  2
Selective  dynamics
Direct
0.0000000000000000  0.0000000000000000  0.0536287483295271  T  T  T
0.0000000000000000  0.0000000000000000  0.1301098425453986  T  T  T
0.0000000000000000  0.0000000000000000  0.2058079442549268  T  T  T
0.0000000000000000  0.0000000000000000  0.2822890384707983  T  T  T
0.3333333333333357  0.6666666666666643  0.0885369041226844  T  T  T
0.3333333333333357  0.6666666666666643  0.1679588934001628  T  T  T
0.3333333333333357  0.6666666666666643  0.2473808826776334  T  T  T
0.3333333333333357  0.6666666666666643  0.0000000000000000  T  T  T
0.3333333333333357  0.6666666666666643  0.3359177868003255  T  T  T

0.00000000E+00  0.00000000E+00  0.00000000E+00
0.00000000E+00  0.00000000E+00  0.00000000E+00
0.00000000E+00  0.00000000E+00  0.00000000E+00
0.00000000E+00  0.00000000E+00  0.00000000E+00
0.00000000E+00  0.00000000E+00  0.00000000E+00
0.00000000E+00  0.00000000E+00  0.00000000E+00
0.00000000E+00  0.00000000E+00  0.00000000E+00
0.00000000E+00  0.00000000E+00  0.00000000E+00
0.00000000E+00  0.00000000E+00  0.00000000E+00
