Nb4C3  (n=3)
1.00000000000000
3.1643189147860480  0.0000000000000000  0.0000000000000000
-1.5821594573930240  2.7403805673142210  -0.0000000000000000
0.0000000000000000  -0.0000000000000000  37.2013946517694691
Nb  C  Se
4  3  2
Selective  dynamics
Direct
-0.0000000000000000  -0.0000000000000000  0.0495674036481374  T  T  T
-0.0000000000000000  -0.0000000000000000  0.1255306169299146  T  T  T
0.0000000000000000  0.0000000000000000  0.2024515666947286  T  T  T
0.0000000000000000  0.0000000000000000  0.2784147799765057  T  T  T
0.3333333333333357  0.6666666666666643  0.0867640543302812  T  T  T
0.3333333333333357  0.6666666666666643  0.1639910918123180  T  T  T
0.3333333333333357  0.6666666666666643  0.2412181292943548  T  T  T
0.3333333333333357  0.6666666666666643  0.0000000000000000  T  T  T
0.3333333333333357  0.6666666666666643  0.3279821836246431  T  T  T

0.00000000E+00  0.00000000E+00  0.00000000E+00
0.00000000E+00  0.00000000E+00  0.00000000E+00
0.00000000E+00  0.00000000E+00  0.00000000E+00
0.00000000E+00  0.00000000E+00  0.00000000E+00
0.00000000E+00  0.00000000E+00  0.00000000E+00
0.00000000E+00  0.00000000E+00  0.00000000E+00
0.00000000E+00  0.00000000E+00  0.00000000E+00
0.00000000E+00  0.00000000E+00  0.00000000E+00
0.00000000E+00  0.00000000E+00  0.00000000E+00
