Ta4C3  (n=3)
1.00000000000000
3.1520895353839840  -0.0000000000000001  -0.0000000000000000
-1.5760447676919922  2.7297896140384137  -0.0000000000000000
0.0000000000000000  -0.0000000000000000  37.1625359336889431
Ta  C  Se
4  3  2
Selective  dynamics
Direct
0.0000000000000000  -0.0000000000000000  0.0495085926571234  T  T  T
0.0000000000000000  -0.0000000000000000  0.1252898910415871  T  T  T
0.0000000000000000  0.0000000000000000  0.2019896023544287  T  T  T
0.0000000000000000  0.0000000000000000  0.2777709007388924  T  T  T
0.3333333333333357  0.6666666666666643  0.0862178083585805  T  T  T
0.3333333333333357  0.6666666666666643  0.1636397466980078  T  T  T
0.3333333333333357  0.6666666666666643  0.2410616850374281  T  T  T
0.3333333333333357  0.6666666666666643  0.0000000000000000  T  T  T
0.3333333333333357  0.6666666666666643  0.3272794933960157  T  T  T

0.00000000E+00  0.00000000E+00  0.00000000E+00
0.00000000E+00  0.00000000E+00  0.00000000E+00
0.00000000E+00  0.00000000E+00  0.00000000E+00
0.00000000E+00  0.00000000E+00  0.00000000E+00
0.00000000E+00  0.00000000E+00  0.00000000E+00
0.00000000E+00  0.00000000E+00  0.00000000E+00
0.00000000E+00  0.00000000E+00  0.00000000E+00
0.00000000E+00  0.00000000E+00  0.00000000E+00
0.00000000E+00  0.00000000E+00  0.00000000E+00
