Hf4N3  (n=3)
1.00000000000000
3.1840343771380657  -0.0000000000000003  0.0000000000000000
-1.5920171885690328  2.7574546579629482  0.0000000000000000
0.0000000000000000  0.0000000000000000  37.5056496755676250
Hf  N  Se
4  3  2
Selective  dynamics
Direct
-0.0000000000000000  -0.0000000000000000  0.0514932108106286  T  T  T
-0.0000000000000000  -0.0000000000000000  0.1283953347716881  T  T  T
-0.0000000000000000  -0.0000000000000000  0.2050384221087977  T  T  T
-0.0000000000000000  -0.0000000000000000  0.2819405460698573  T  T  T
0.3333333333333357  0.6666666666666643  0.0897407902871079  T  T  T
0.3333333333333357  0.6666666666666643  0.1667168784402394  T  T  T
0.3333333333333357  0.6666666666666643  0.2436929665933708  T  T  T
0.3333333333333357  0.6666666666666643  0.0000000000000000  T  T  T
0.3333333333333357  0.6666666666666643  0.3334337568804789  T  T  T

0.00000000E+00  0.00000000E+00  0.00000000E+00
0.00000000E+00  0.00000000E+00  0.00000000E+00
0.00000000E+00  0.00000000E+00  0.00000000E+00
0.00000000E+00  0.00000000E+00  0.00000000E+00
0.00000000E+00  0.00000000E+00  0.00000000E+00
0.00000000E+00  0.00000000E+00  0.00000000E+00
0.00000000E+00  0.00000000E+00  0.00000000E+00
0.00000000E+00  0.00000000E+00  0.00000000E+00
0.00000000E+00  0.00000000E+00  0.00000000E+00
