Nb4N3  (n=3)
1.00000000000000
3.0829235436866482  0.0000000000000000  0.0000000000000000
-1.5414617718433241  2.6698901079034338  0.0000000000000000
0.0000000000000000  0.0000000000000000  37.2547965592219157
Nb  N  Se
4  3  2
Selective  dynamics
Direct
0.0000000000000000  0.0000000000000000  0.0491915335390884  T  T  T
0.0000000000000000  0.0000000000000000  0.1260003162404882  T  T  T
0.0000000000000000  0.0000000000000000  0.2029451536332000  T  T  T
0.0000000000000000  0.0000000000000000  0.2797539363345998  T  T  T
0.3333333333333357  0.6666666666666643  0.0887995542493731  T  T  T
0.3333333333333357  0.6666666666666643  0.1644727349368406  T  T  T
0.3333333333333357  0.6666666666666643  0.2401459156243081  T  T  T
0.3333333333333357  0.6666666666666643  0.0000000000000000  T  T  T
0.3333333333333357  0.6666666666666643  0.3289454698736883  T  T  T

0.00000000E+00  0.00000000E+00  0.00000000E+00
0.00000000E+00  0.00000000E+00  0.00000000E+00
0.00000000E+00  0.00000000E+00  0.00000000E+00
0.00000000E+00  0.00000000E+00  0.00000000E+00
0.00000000E+00  0.00000000E+00  0.00000000E+00
0.00000000E+00  0.00000000E+00  0.00000000E+00
0.00000000E+00  0.00000000E+00  0.00000000E+00
0.00000000E+00  0.00000000E+00  0.00000000E+00
0.00000000E+00  0.00000000E+00  0.00000000E+00
