Ta4N3  (n=3)
1.00000000000000
3.0674701487529474  -0.0000000000000001  0.0000000000000000
-1.5337350743764737  2.6565070750110698  0.0000000000000000
0.0000000000000000  0.0000000000000000  37.2405054008866756
Ta  N  Se
4  3  2
Selective  dynamics
Direct
0.0000000000000000  0.0000000000000000  0.0489450834035286  T  T  T
0.0000000000000000  0.0000000000000000  0.1257388496874336  T  T  T
0.0000000000000000  0.0000000000000000  0.2029491009491058  T  T  T
0.0000000000000000  0.0000000000000000  0.2797428672330108  T  T  T
0.3333333333333357  0.6666666666666643  0.0884753577396855  T  T  T
0.3333333333333357  0.6666666666666643  0.1643439753182697  T  T  T
0.3333333333333357  0.6666666666666643  0.2402125928968540  T  T  T
0.3333333333333357  0.6666666666666643  0.0000000000000000  T  T  T
0.3333333333333357  0.6666666666666643  0.3286879506365464  T  T  T

0.00000000E+00  0.00000000E+00  0.00000000E+00
0.00000000E+00  0.00000000E+00  0.00000000E+00
0.00000000E+00  0.00000000E+00  0.00000000E+00
0.00000000E+00  0.00000000E+00  0.00000000E+00
0.00000000E+00  0.00000000E+00  0.00000000E+00
0.00000000E+00  0.00000000E+00  0.00000000E+00
0.00000000E+00  0.00000000E+00  0.00000000E+00
0.00000000E+00  0.00000000E+00  0.00000000E+00
0.00000000E+00  0.00000000E+00  0.00000000E+00
