Cr4C3  (n=3)
1.00000000000000
2.8469156543477396  0.0000000000000000  0.0000000000000000
-1.4234578271738698  2.4655012790591053  0.0000000000000000
0.0000000000000000  0.0000000000000000  36.0940942273851206
Cr  C  Se
4  3  2
Selective  dynamics
Direct
0.0000000000000000  0.0000000000000000  0.0479564390793843  T  T  T
0.0000000000000000  0.0000000000000000  0.1181951509183426  T  T  T
0.0000000000000000  0.0000000000000000  0.1891707621170195  T  T  T
0.0000000000000000  0.0000000000000000  0.2594094739559916  T  T  T
0.3333333333333357  0.6666666666666643  0.0824879972098372  T  T  T
0.3333333333333357  0.6666666666666643  0.1536829565176880  T  T  T
0.3333333333333357  0.6666666666666643  0.2248779158255317  T  T  T
0.3333333333333357  0.6666666666666643  0.0000000000000000  T  T  T
0.3333333333333357  0.6666666666666643  0.3073659130353759  T  T  T

0.00000000E+00  0.00000000E+00  0.00000000E+00
0.00000000E+00  0.00000000E+00  0.00000000E+00
0.00000000E+00  0.00000000E+00  0.00000000E+00
0.00000000E+00  0.00000000E+00  0.00000000E+00
0.00000000E+00  0.00000000E+00  0.00000000E+00
0.00000000E+00  0.00000000E+00  0.00000000E+00
0.00000000E+00  0.00000000E+00  0.00000000E+00
0.00000000E+00  0.00000000E+00  0.00000000E+00
0.00000000E+00  0.00000000E+00  0.00000000E+00
