Mo4N3  (n=3)
1.00000000000000
2.9873168671906458  0.0000000000000004  0.0000000000000000
-1.4936584335953229  2.5870922963896512  0.0000000000000000
0.0000000000000000  0.0000000000000000  37.0373891348670128
Mo  N  Se
4  3  2
Selective  dynamics
Direct
-0.0000000000000000  0.0000000000000000  0.0494343976938820  T  T  T
-0.0000000000000000  0.0000000000000000  0.1247316327246276  T  T  T
-0.0000000000000000  0.0000000000000000  0.2002747841973273  T  T  T
-0.0000000000000000  0.0000000000000000  0.2755720192280729  T  T  T
0.3333333333333357  0.6666666666666643  0.0875364752596346  T  T  T
0.3333333333333357  0.6666666666666643  0.1625032084609739  T  T  T
0.3333333333333357  0.6666666666666643  0.2374699416623062  T  T  T
0.3333333333333357  0.6666666666666643  0.0000000000000000  T  T  T
0.3333333333333357  0.6666666666666643  0.3250064169219478  T  T  T

0.00000000E+00  0.00000000E+00  0.00000000E+00
0.00000000E+00  0.00000000E+00  0.00000000E+00
0.00000000E+00  0.00000000E+00  0.00000000E+00
0.00000000E+00  0.00000000E+00  0.00000000E+00
0.00000000E+00  0.00000000E+00  0.00000000E+00
0.00000000E+00  0.00000000E+00  0.00000000E+00
0.00000000E+00  0.00000000E+00  0.00000000E+00
0.00000000E+00  0.00000000E+00  0.00000000E+00
0.00000000E+00  0.00000000E+00  0.00000000E+00
