Ti3N2  (n=2)
1.00000000000000
2.9645187237861697  0.0000000000000000  0.0000000000000000
-1.4822593618930848  2.5673485248283652  0.0000000000000000
-0.0000000000000001  -0.0000000000000005  32.0346101055859478
Ti  N  O
3  2  2
Selective  dynamics
Direct
0.0000000000000000  0.0000000000000000  0.0319039277788881  T  T  T
0.6666666666666643  0.3333333333333357  0.1106744854449492  T  T  T
0.3333333333333357  0.6666666666666643  0.1898716009133754  T  T  T
0.3333333333333357  0.6666666666666643  0.0746566087135494  T  T  T
0.0000000000000000  0.0000000000000000  0.1510455041320085  T  T  T
0.3333333333333357  0.6666666666666643  0.0000000000000000  T  T  T
0.6666666666666643  0.3333333333333357  0.2195940603740735  T  T  T

0.00000000E+00  0.00000000E+00  0.00000000E+00
0.00000000E+00  0.00000000E+00  0.00000000E+00
0.00000000E+00  0.00000000E+00  0.00000000E+00
0.00000000E+00  0.00000000E+00  0.00000000E+00
0.00000000E+00  0.00000000E+00  0.00000000E+00
0.00000000E+00  0.00000000E+00  0.00000000E+00
0.00000000E+00  0.00000000E+00  0.00000000E+00
