Sc3N2  (n=2)
1.00000000000000
3.2116972665454169  0.0000000000000000  0.0000000000000000
-1.6058486332727084  2.7814114222367534  0.0000000000000000
-0.0000000000000001  0.0000000000000003  32.1105771146726227
Sc  N  O
3  2  2
Selective  dynamics
Direct
0.0000000000000000  0.0000000000000000  0.0275603750094987  T  T  T
0.6666666666666643  0.3333333333333357  0.1138309754475995  T  T  T
0.3333333333333357  0.6666666666666643  0.1976117002127901  T  T  T
0.3333333333333357  0.6666666666666643  0.0729271490258422  T  T  T
0.0000000000000000  0.0000000000000000  0.1493099004529002  T  T  T
0.3333333333333357  0.6666666666666643  0.0000000000000000  T  T  T
0.6666666666666643  0.3333333333333357  0.2214403400250165  T  T  T

0.00000000E+00  0.00000000E+00  0.00000000E+00
0.00000000E+00  0.00000000E+00  0.00000000E+00
0.00000000E+00  0.00000000E+00  0.00000000E+00
0.00000000E+00  0.00000000E+00  0.00000000E+00
0.00000000E+00  0.00000000E+00  0.00000000E+00
0.00000000E+00  0.00000000E+00  0.00000000E+00
0.00000000E+00  0.00000000E+00  0.00000000E+00
