Mo3C2  (n=2)
1.00000000000000
3.0133667044661183  0.0000000000000000  0.0000000000000000
-1.5066833522330592  2.6096521170555973  0.0000000000000000
0.0000000000000000  0.0000000000000003  32.4500266149546235
Mo  C  O
3  2  2
Selective  dynamics
Direct
0.0000000000000000  0.0000000000000000  0.0368404868132410  T  T  T
0.6666666666666643  0.3333333333333357  0.1205878932809210  T  T  T
0.3333333333333357  0.6666666666666643  0.1941119755415107  T  T  T
0.3333333333333357  0.6666666666666643  0.0762466863313786  T  T  T
0.0000000000000000  0.0000000000000000  0.1562603495745306  T  T  T
0.3333333333333357  0.6666666666666643  0.0000000000000000  T  T  T
0.6666666666666643  0.3333333333333357  0.2295846072286817  T  T  T

0.00000000E+00  0.00000000E+00  0.00000000E+00
0.00000000E+00  0.00000000E+00  0.00000000E+00
0.00000000E+00  0.00000000E+00  0.00000000E+00
0.00000000E+00  0.00000000E+00  0.00000000E+00
0.00000000E+00  0.00000000E+00  0.00000000E+00
0.00000000E+00  0.00000000E+00  0.00000000E+00
0.00000000E+00  0.00000000E+00  0.00000000E+00
