Cr3C2  (n=2)
1.00000000000000
2.7837030262816955  0.0000000000000000  0.0000000000000000
-1.3918515131408478  2.4107575373550598  0.0000000000000000
-0.0000000000000002  -0.0000000000000003  32.0788735816839932
Cr  C  O
3  2  2
Selective  dynamics
Direct
0.0000000000000000  0.0000000000000000  0.0347631629343225  T  T  T
0.6666666666666643  0.3333333333333357  0.1124146056182760  T  T  T
0.3333333333333357  0.6666666666666643  0.1888870824937323  T  T  T
0.3333333333333357  0.6666666666666643  0.0727079933812355  T  T  T
0.0000000000000000  0.0000000000000000  0.1489145574116645  T  T  T
0.3333333333333357  0.6666666666666643  0.0000000000000000  T  T  T
0.6666666666666643  0.3333333333333357  0.2206708899443965  T  T  T

0.00000000E+00  0.00000000E+00  0.00000000E+00
0.00000000E+00  0.00000000E+00  0.00000000E+00
0.00000000E+00  0.00000000E+00  0.00000000E+00
0.00000000E+00  0.00000000E+00  0.00000000E+00
0.00000000E+00  0.00000000E+00  0.00000000E+00
0.00000000E+00  0.00000000E+00  0.00000000E+00
0.00000000E+00  0.00000000E+00  0.00000000E+00
