Ta3N2  (n=2)
1.00000000000000
3.0598372452724423  0.0000000000000000  0.0000000000000000
-1.5299186226362211  2.6498967859476732  0.0000000000000000
0.0000000000000000  0.0000000000000000  32.4596214836084869
Ta  N  O
3  2  2
Selective  dynamics
Direct
0.0000000000000000  0.0000000000000000  0.0350466720222904  T  T  T
0.6666666666666643  0.3333333333333357  0.1202428422490161  T  T  T
0.3333333333333357  0.6666666666666643  0.1954532409752107  T  T  T
0.3333333333333357  0.6666666666666643  0.0775817844634958  T  T  T
0.0000000000000000  0.0000000000000000  0.1577939017250699  T  T  T
0.3333333333333357  0.6666666666666643  0.0000000000000000  T  T  T
0.6666666666666643  0.3333333333333357  0.2298123373797030  T  T  T

0.00000000E+00  0.00000000E+00  0.00000000E+00
0.00000000E+00  0.00000000E+00  0.00000000E+00
0.00000000E+00  0.00000000E+00  0.00000000E+00
0.00000000E+00  0.00000000E+00  0.00000000E+00
0.00000000E+00  0.00000000E+00  0.00000000E+00
0.00000000E+00  0.00000000E+00  0.00000000E+00
0.00000000E+00  0.00000000E+00  0.00000000E+00
