Ta3C2  (n=2)
1.00000000000000
3.0995553442536812  0.0000000000000000  0.0000000000000000
-1.5497776721268406  2.6842936686832379  0.0000000000000000
0.0000000000000001  0.0000000000000001  32.4693117382477041
Ta  C  O
3  2  2
Selective  dynamics
Direct
0.0000000000000000  0.0000000000000000  0.0352328212893500  T  T  T
0.6666666666666643  0.3333333333333357  0.1160369588536914  T  T  T
0.3333333333333357  0.6666666666666643  0.1962863984589278  T  T  T
0.3333333333333357  0.6666666666666643  0.0768677840597199  T  T  T
0.0000000000000000  0.0000000000000000  0.1568315248498632  T  T  T
0.3333333333333357  0.6666666666666643  0.0000000000000000  T  T  T
0.6666666666666643  0.3333333333333357  0.2300421948719386  T  T  T

0.00000000E+00  0.00000000E+00  0.00000000E+00
0.00000000E+00  0.00000000E+00  0.00000000E+00
0.00000000E+00  0.00000000E+00  0.00000000E+00
0.00000000E+00  0.00000000E+00  0.00000000E+00
0.00000000E+00  0.00000000E+00  0.00000000E+00
0.00000000E+00  0.00000000E+00  0.00000000E+00
0.00000000E+00  0.00000000E+00  0.00000000E+00
