Nb3N2  (n=2)
1.00000000000000
3.0766757542872694  0.0000000000000000  0.0000000000000000
-1.5383378771436347  2.6644793625312171  0.0000000000000000
0.0000000000000001  0.0000000000000001  32.5109210628263412
Nb  N  O
3  2  2
Selective  dynamics
Direct
0.0000000000000000  0.0000000000000000  0.0352141373043517  T  T  T
0.6666666666666643  0.3333333333333357  0.1205928342843013  T  T  T
0.3333333333333357  0.6666666666666643  0.1966880428471373  T  T  T
0.3333333333333357  0.6666666666666643  0.0775590165429661  T  T  T
0.0000000000000000  0.0000000000000000  0.1583466303153193  T  T  T
0.3333333333333357  0.6666666666666643  0.0000000000000000  T  T  T
0.6666666666666643  0.3333333333333357  0.2310276306325411  T  T  T

0.00000000E+00  0.00000000E+00  0.00000000E+00
0.00000000E+00  0.00000000E+00  0.00000000E+00
0.00000000E+00  0.00000000E+00  0.00000000E+00
0.00000000E+00  0.00000000E+00  0.00000000E+00
0.00000000E+00  0.00000000E+00  0.00000000E+00
0.00000000E+00  0.00000000E+00  0.00000000E+00
0.00000000E+00  0.00000000E+00  0.00000000E+00
