Sc3C2  (n=2)
1.00000000000000
3.3600706416432891  0.0000000000000000  0.0000000000000000
-1.6800353208216445  2.9099065343142141  0.0000000000000000
-0.0000000000000002  0.0000000000000003  31.7848067767958540
Sc  C  O
3  2  2
Selective  dynamics
Direct
0.0000000000000000  0.0000000000000000  0.0218191584075334  T  T  T
0.6666666666666643  0.3333333333333357  0.1021442278663725  T  T  T
0.3333333333333357  0.6666666666666643  0.1921672161943050  T  T  T
0.3333333333333357  0.6666666666666643  0.0569390423039264  T  T  T
0.0000000000000000  0.0000000000000000  0.1392631884720850  T  T  T
0.3333333333333357  0.6666666666666643  0.0000000000000000  T  T  T
0.6666666666666643  0.3333333333333357  0.2134606897075438  T  T  T

0.00000000E+00  0.00000000E+00  0.00000000E+00
0.00000000E+00  0.00000000E+00  0.00000000E+00
0.00000000E+00  0.00000000E+00  0.00000000E+00
0.00000000E+00  0.00000000E+00  0.00000000E+00
0.00000000E+00  0.00000000E+00  0.00000000E+00
0.00000000E+00  0.00000000E+00  0.00000000E+00
0.00000000E+00  0.00000000E+00  0.00000000E+00
