Cr3N2  (n=2)
1.00000000000000
2.7536025424469859  0.0000000000000000  0.0000000000000000
-1.3768012712234929  2.3846897536883560  0.0000000000000000
0.0000000000000000  0.0000000000000001  32.3525961329996221
Cr  N  O
3  2  2
Selective  dynamics
Direct
0.0000000000000000  0.0000000000000000  0.0344394047802972  T  T  T
0.6666666666666643  0.3333333333333357  0.1166994137000027  T  T  T
0.3333333333333357  0.6666666666666643  0.1966952577541957  T  T  T
0.3333333333333357  0.6666666666666643  0.0728472001720959  T  T  T
0.0000000000000000  0.0000000000000000  0.1530759317274502  T  T  T
0.3333333333333357  0.6666666666666643  0.0000000000000000  T  T  T
0.6666666666666643  0.3333333333333357  0.2272644860639167  T  T  T

0.00000000E+00  0.00000000E+00  0.00000000E+00
0.00000000E+00  0.00000000E+00  0.00000000E+00
0.00000000E+00  0.00000000E+00  0.00000000E+00
0.00000000E+00  0.00000000E+00  0.00000000E+00
0.00000000E+00  0.00000000E+00  0.00000000E+00
0.00000000E+00  0.00000000E+00  0.00000000E+00
0.00000000E+00  0.00000000E+00  0.00000000E+00
