Ti3C2  (n=2)
1.00000000000000
3.0120062613835352  0.0000000000000000  0.0000000000000000
-1.5060031306917676  2.6084739387671556  0.0000000000000000
0.0000000000000002  -0.0000000000000004  32.1103481657152798
Ti  C  O
3  2  2
Selective  dynamics
Direct
0.0000000000000000  0.0000000000000000  0.0307606287871341  T  T  T
0.6666666666666643  0.3333333333333357  0.1119155487769954  T  T  T
0.3333333333333357  0.6666666666666643  0.1926481607149020  T  T  T
0.3333333333333357  0.6666666666666643  0.0738870136230455  T  T  T
0.0000000000000000  0.0000000000000000  0.1517428613998131  T  T  T
0.3333333333333357  0.6666666666666643  0.0000000000000000  T  T  T
0.6666666666666643  0.3333333333333357  0.2214347888419070  T  T  T

0.00000000E+00  0.00000000E+00  0.00000000E+00
0.00000000E+00  0.00000000E+00  0.00000000E+00
0.00000000E+00  0.00000000E+00  0.00000000E+00
0.00000000E+00  0.00000000E+00  0.00000000E+00
0.00000000E+00  0.00000000E+00  0.00000000E+00
0.00000000E+00  0.00000000E+00  0.00000000E+00
0.00000000E+00  0.00000000E+00  0.00000000E+00
