Hf3N2  (n=2)
1.00000000000000
3.1837100927938549  0.0000000000000000  0.0000000000000000
-1.5918550463969274  2.7571738188039765  0.0000000000000000
0.0000000000000000  0.0000000000000001  32.3886129093395354
Hf  N  O
3  2  2
Selective  dynamics
Direct
0.0000000000000000  0.0000000000000000  0.0325147867090982  T  T  T
0.6666666666666643  0.3333333333333357  0.1141943638912492  T  T  T
0.3333333333333357  0.6666666666666643  0.1978116661819760  T  T  T
0.3333333333333357  0.6666666666666643  0.0774363598095047  T  T  T
0.0000000000000000  0.0000000000000000  0.1581654173118033  T  T  T
0.3333333333333357  0.6666666666666643  0.0000000000000000  T  T  T
0.6666666666666643  0.3333333333333357  0.2281237831956973  T  T  T

0.00000000E+00  0.00000000E+00  0.00000000E+00
0.00000000E+00  0.00000000E+00  0.00000000E+00
0.00000000E+00  0.00000000E+00  0.00000000E+00
0.00000000E+00  0.00000000E+00  0.00000000E+00
0.00000000E+00  0.00000000E+00  0.00000000E+00
0.00000000E+00  0.00000000E+00  0.00000000E+00
0.00000000E+00  0.00000000E+00  0.00000000E+00
