Zr3N2  (n=2)
1.00000000000000
3.2366021626463284  0.0000000000000000  0.0000000000000000
-1.6183010813231642  2.8029796949981862  0.0000000000000000
0.0000000000000000  0.0000000000000000  32.5057686500589611
Zr  N  O
3  2  2
Selective  dynamics
Direct
0.0000000000000000  0.0000000000000000  0.0327295967171806  T  T  T
0.6666666666666643  0.3333333333333357  0.1157640970789356  T  T  T
0.3333333333333357  0.6666666666666643  0.2004021663965925  T  T  T
0.3333333333333357  0.6666666666666643  0.0778789727763790  T  T  T
0.0000000000000000  0.0000000000000000  0.1600359079299666  T  T  T
0.3333333333333357  0.6666666666666643  0.0000000000000000  T  T  T
0.6666666666666643  0.3333333333333357  0.2309057426348645  T  T  T

0.00000000E+00  0.00000000E+00  0.00000000E+00
0.00000000E+00  0.00000000E+00  0.00000000E+00
0.00000000E+00  0.00000000E+00  0.00000000E+00
0.00000000E+00  0.00000000E+00  0.00000000E+00
0.00000000E+00  0.00000000E+00  0.00000000E+00
0.00000000E+00  0.00000000E+00  0.00000000E+00
0.00000000E+00  0.00000000E+00  0.00000000E+00
