Hf3C2  (n=2)
1.00000000000000
3.2350011397654805  0.0000000000000000  0.0000000000000000
-1.6175005698827403  2.8015931684655322  0.0000000000000000
0.0000000000000000  -0.0000000000000009  32.5162991765815121
Hf  C  O
3  2  2
Selective  dynamics
Direct
0.0000000000000000  0.0000000000000000  0.0318208716956681  T  T  T
0.6666666666666643  0.3333333333333357  0.1171630789796048  T  T  T
0.3333333333333357  0.6666666666666643  0.2020304018062241  T  T  T
0.3333333333333357  0.6666666666666643  0.0769711510227315  T  T  T
0.0000000000000000  0.0000000000000000  0.1595757153662977  T  T  T
0.3333333333333357  0.6666666666666643  0.0000000000000000  T  T  T
0.6666666666666643  0.3333333333333357  0.2311548167201884  T  T  T

0.00000000E+00  0.00000000E+00  0.00000000E+00
0.00000000E+00  0.00000000E+00  0.00000000E+00
0.00000000E+00  0.00000000E+00  0.00000000E+00
0.00000000E+00  0.00000000E+00  0.00000000E+00
0.00000000E+00  0.00000000E+00  0.00000000E+00
0.00000000E+00  0.00000000E+00  0.00000000E+00
0.00000000E+00  0.00000000E+00  0.00000000E+00
