Nb3C2  (n=2)
1.00000000000000
3.1234476903571959  0.0000000000000000  0.0000000000000000
-1.5617238451785980  2.7049850473651613  -0.0000000000000001
0.0000000000000001  0.0000000000000008  32.4758346775995079
Nb  C  O
3  2  2
Selective  dynamics
Direct
0.0000000000000000  0.0000000000000000  0.0351285857455633  T  T  T
0.6666666666666643  0.3333333333333357  0.1163172325790533  T  T  T
0.3333333333333357  0.6666666666666643  0.1965789887970799  T  T  T
0.3333333333333357  0.6666666666666643  0.0763620870559275  T  T  T
0.0000000000000000  0.0000000000000000  0.1569620997701214  T  T  T
0.3333333333333357  0.6666666666666643  0.0000000000000000  T  T  T
0.6666666666666643  0.3333333333333357  0.2301968448791257  T  T  T

0.00000000E+00  0.00000000E+00  0.00000000E+00
0.00000000E+00  0.00000000E+00  0.00000000E+00
0.00000000E+00  0.00000000E+00  0.00000000E+00
0.00000000E+00  0.00000000E+00  0.00000000E+00
0.00000000E+00  0.00000000E+00  0.00000000E+00
0.00000000E+00  0.00000000E+00  0.00000000E+00
0.00000000E+00  0.00000000E+00  0.00000000E+00
