Mo3N2  (n=2)
1.00000000000000
2.8281162981817505  0.0000000000000000  0.0000000000000000
-1.4140581490908752  2.4492205591654748  0.0000000000000000
-0.0000000000000002  0.0000000000000007  33.3819520661682532
Mo  N  O
3  2  2
Selective  dynamics
Direct
0.0000000000000000  0.0000000000000000  0.0369369265541361  T  T  T
0.6666666666666643  0.3333333333333357  0.1264815692507367  T  T  T
0.3333333333333357  0.6666666666666643  0.2135592333172635  T  T  T
0.3333333333333357  0.6666666666666643  0.0769862197081441  T  T  T
0.0000000000000000  0.0000000000000000  0.1675555771278316  T  T  T
0.3333333333333357  0.6666666666666643  0.0000000000000000  T  T  T
0.6666666666666643  0.3333333333333357  0.2510923282603100  T  T  T

0.00000000E+00  0.00000000E+00  0.00000000E+00
0.00000000E+00  0.00000000E+00  0.00000000E+00
0.00000000E+00  0.00000000E+00  0.00000000E+00
0.00000000E+00  0.00000000E+00  0.00000000E+00
0.00000000E+00  0.00000000E+00  0.00000000E+00
0.00000000E+00  0.00000000E+00  0.00000000E+00
0.00000000E+00  0.00000000E+00  0.00000000E+00
