Zr3C2  (n=2)
1.00000000000000
3.2917399413120436  0.0000000000000000  0.0000000000000000
-1.6458699706560218  2.8507304120090629  0.0000000000000000
-0.0000000000000001  -0.0000000000000016  32.6101201344421838
Zr  C  O
3  2  2
Selective  dynamics
Direct
0.0000000000000000  0.0000000000000000  0.0316481109375934  T  T  T
0.6666666666666643  0.3333333333333357  0.1181263684260821  T  T  T
0.3333333333333357  0.6666666666666643  0.2041305428518059  T  T  T
0.3333333333333357  0.6666666666666643  0.0775133002287141  T  T  T
0.0000000000000000  0.0000000000000000  0.1609682211352301  T  T  T
0.3333333333333357  0.6666666666666643  0.0000000000000000  T  T  T
0.6666666666666643  0.3333333333333357  0.2333668230312504  T  T  T

0.00000000E+00  0.00000000E+00  0.00000000E+00
0.00000000E+00  0.00000000E+00  0.00000000E+00
0.00000000E+00  0.00000000E+00  0.00000000E+00
0.00000000E+00  0.00000000E+00  0.00000000E+00
0.00000000E+00  0.00000000E+00  0.00000000E+00
0.00000000E+00  0.00000000E+00  0.00000000E+00
0.00000000E+00  0.00000000E+00  0.00000000E+00
