Ti3C2  (n=2)
1.00000000000000
3.3640353295961245  -0.0000000000000001  0.0000000000000000
-1.6820176647980623  2.9133400548208646  0.0000000000000000
0.0000000000000000  0.0000000000000000  34.0347384060854949
Ti  C  I
3  2  2
Selective  dynamics
Direct
-0.0000000000000000  -0.0000000000000000  0.0602251934763485  T  T  T
-0.0000000000000000  -0.0000000000000000  0.1327281893324330  T  T  T
0.0000000000000000  0.0000000000000000  0.2052311851885176  T  T  T
0.3333333333333357  0.6666666666666643  0.0913739230495634  T  T  T
0.3333333333333357  0.6666666666666643  0.1740824556152945  T  T  T
0.6666666666666643  0.3333333333333357  0.0000000000000000  T  T  T
0.6666666666666643  0.3333333333333357  0.2654563786648660  T  T  T

0.00000000E+00  0.00000000E+00  0.00000000E+00
0.00000000E+00  0.00000000E+00  0.00000000E+00
0.00000000E+00  0.00000000E+00  0.00000000E+00
0.00000000E+00  0.00000000E+00  0.00000000E+00
0.00000000E+00  0.00000000E+00  0.00000000E+00
0.00000000E+00  0.00000000E+00  0.00000000E+00
0.00000000E+00  0.00000000E+00  0.00000000E+00
