Ti3N2  (n=2)
1.00000000000000
3.2480515816318478  -0.0000000000000003  0.0000000000000000
-1.6240257908159241  2.8128951827514577  0.0000000000000000
0.0000000000000000  0.0000000000000000  34.2165116075855309
Ti  N  I
3  2  2
Selective  dynamics
Direct
-0.0000000000000000  -0.0000000000000000  0.0602447857823905  T  T  T
-0.0000000000000000  -0.0000000000000000  0.1346792991828845  T  T  T
-0.0000000000000000  -0.0000000000000000  0.2091138125833849  T  T  T
0.3333333333333357  0.6666666666666643  0.0942149468917628  T  T  T
0.3333333333333357  0.6666666666666643  0.1751436514740062  T  T  T
0.6666666666666643  0.3333333333333357  0.0000000000000000  T  T  T
0.6666666666666643  0.3333333333333357  0.2693585983657755  T  T  T

0.00000000E+00  0.00000000E+00  0.00000000E+00
0.00000000E+00  0.00000000E+00  0.00000000E+00
0.00000000E+00  0.00000000E+00  0.00000000E+00
0.00000000E+00  0.00000000E+00  0.00000000E+00
0.00000000E+00  0.00000000E+00  0.00000000E+00
0.00000000E+00  0.00000000E+00  0.00000000E+00
0.00000000E+00  0.00000000E+00  0.00000000E+00
