Zr3C2  (n=2)
1.00000000000000
3.5303211450946539  0.0000000000000002  0.0000000000000000
-1.7651605725473272  3.0573477962778428  0.0000000000000000
0.0000000000000000  0.0000000000000000  34.8607431293215626
Zr  C  I
3  2  2
Selective  dynamics
Direct
0.0000000000000000  -0.0000000000000000  0.0626218114026530  T  T  T
-0.0000000000000000  0.0000000000000000  0.1414304780127758  T  T  T
-0.0000000000000000  -0.0000000000000000  0.2202391446229057  T  T  T
0.3333333333333357  0.6666666666666643  0.0965354665802570  T  T  T
0.3333333333333357  0.6666666666666643  0.1863254894452946  T  T  T
0.6666666666666643  0.3333333333333357  0.0000000000000000  T  T  T
0.6666666666666643  0.3333333333333357  0.2828609560255657  T  T  T

0.00000000E+00  0.00000000E+00  0.00000000E+00
0.00000000E+00  0.00000000E+00  0.00000000E+00
0.00000000E+00  0.00000000E+00  0.00000000E+00
0.00000000E+00  0.00000000E+00  0.00000000E+00
0.00000000E+00  0.00000000E+00  0.00000000E+00
0.00000000E+00  0.00000000E+00  0.00000000E+00
0.00000000E+00  0.00000000E+00  0.00000000E+00
