Nb3N2  (n=2)
1.00000000000000
3.1841573206343630  0.0000000000000001  0.0000000000000000
-1.5920786603171817  2.7575611294518545  0.0000000000000000
0.0000000000000000  0.0000000000000000  35.0126443671479137
Nb  N  I
3  2  2
Selective  dynamics
Direct
0.0000000000000000  0.0000000000000000  0.0622757155418577  T  T  T
0.0000000000000000  0.0000000000000000  0.1429861204162920  T  T  T
0.0000000000000000  0.0000000000000000  0.2236965252907344  T  T  T
0.3333333333333357  0.6666666666666643  0.1036271612093858  T  T  T
0.3333333333333357  0.6666666666666643  0.1823450796231982  T  T  T
0.6666666666666643  0.3333333333333357  0.0000000000000000  T  T  T
0.6666666666666643  0.3333333333333357  0.2859722408325919  T  T  T

0.00000000E+00  0.00000000E+00  0.00000000E+00
0.00000000E+00  0.00000000E+00  0.00000000E+00
0.00000000E+00  0.00000000E+00  0.00000000E+00
0.00000000E+00  0.00000000E+00  0.00000000E+00
0.00000000E+00  0.00000000E+00  0.00000000E+00
0.00000000E+00  0.00000000E+00  0.00000000E+00
0.00000000E+00  0.00000000E+00  0.00000000E+00
