Sc3C2  (n=2)
1.00000000000000
3.4687184376921167  0.0000000000000000  0.0000000000000000
-1.7343592188460584  3.0039982858420413  0.0000000000000000
0.0000000000000000  0.0000000000000000  34.9522135110093188
Sc  C  I
3  2  2
Selective  dynamics
Direct
-0.0000000000000000  0.0000000000000000  0.0627193069163285  T  T  T
-0.0000000000000000  0.0000000000000000  0.1423688589547307  T  T  T
-0.0000000000000000  -0.0000000000000000  0.2220184109931412  T  T  T
0.3333333333333357  0.6666666666666643  0.0968542474884849  T  T  T
0.3333333333333357  0.6666666666666643  0.1878834704209848  T  T  T
0.6666666666666643  0.3333333333333357  0.0000000000000000  T  T  T
0.6666666666666643  0.3333333333333357  0.2847377179094694  T  T  T

0.00000000E+00  0.00000000E+00  0.00000000E+00
0.00000000E+00  0.00000000E+00  0.00000000E+00
0.00000000E+00  0.00000000E+00  0.00000000E+00
0.00000000E+00  0.00000000E+00  0.00000000E+00
0.00000000E+00  0.00000000E+00  0.00000000E+00
0.00000000E+00  0.00000000E+00  0.00000000E+00
0.00000000E+00  0.00000000E+00  0.00000000E+00
