Mo3N2  (n=2)
1.00000000000000
3.0993011971732742  0.0000000000000000  -0.0000000000000000
-1.5496505985866371  2.6840735707884784  0.0000000000000000
0.0000000000000000  0.0000000000000000  34.8829178495405472
Mo  N  I
3  2  2
Selective  dynamics
Direct
-0.0000000000000000  0.0000000000000000  0.0644240719583523  T  T  T
-0.0000000000000000  0.0000000000000000  0.1416584170534082  T  T  T
-0.0000000000000000  0.0000000000000000  0.2188927621484808  T  T  T
0.3333333333333357  0.6666666666666643  0.1024592052817303  T  T  T
0.3333333333333357  0.6666666666666643  0.1808576288250946  T  T  T
0.6666666666666643  0.3333333333333357  0.0000000000000000  T  T  T
0.6666666666666643  0.3333333333333357  0.2833168341068326  T  T  T

0.00000000E+00  0.00000000E+00  0.00000000E+00
0.00000000E+00  0.00000000E+00  0.00000000E+00
0.00000000E+00  0.00000000E+00  0.00000000E+00
0.00000000E+00  0.00000000E+00  0.00000000E+00
0.00000000E+00  0.00000000E+00  0.00000000E+00
0.00000000E+00  0.00000000E+00  0.00000000E+00
0.00000000E+00  0.00000000E+00  0.00000000E+00
