Hf3N2  (n=2)
1.00000000000000
3.3175216081936942  -0.0000000000000003  0.0000000000000000
-1.6587608040968473  2.8730579904842806  0.0000000000000000
0.0000000000000000  0.0000000000000000  35.0120019378725473
Hf  N  I
3  2  2
Selective  dynamics
Direct
-0.0000000000000000  -0.0000000000000000  0.0612896168429423  T  T  T
-0.0000000000000000  -0.0000000000000000  0.1429795696292665  T  T  T
-0.0000000000000000  0.0000000000000000  0.2246695224155967  T  T  T
0.3333333333333357  0.6666666666666643  0.1013531319551407  T  T  T
0.3333333333333357  0.6666666666666643  0.1846060073033983  T  T  T
0.6666666666666643  0.3333333333333357  0.0000000000000000  T  T  T
0.6666666666666643  0.3333333333333357  0.2859591392585450  T  T  T

0.00000000E+00  0.00000000E+00  0.00000000E+00
0.00000000E+00  0.00000000E+00  0.00000000E+00
0.00000000E+00  0.00000000E+00  0.00000000E+00
0.00000000E+00  0.00000000E+00  0.00000000E+00
0.00000000E+00  0.00000000E+00  0.00000000E+00
0.00000000E+00  0.00000000E+00  0.00000000E+00
0.00000000E+00  0.00000000E+00  0.00000000E+00
