Nb3C2  (n=2)
1.00000000000000
3.2603271991291876  0.0000000000000000  0.0000000000000000
-1.6301635995645938  2.8235261792078794  0.0000000000000000
0.0000000000000000  0.0000000000000000  34.9581934123730065
Nb  C  I
3  2  2
Selective  dynamics
Direct
0.0000000000000000  0.0000000000000000  0.0624460898104454  T  T  T
0.0000000000000000  0.0000000000000000  0.1424300348548393  T  T  T
0.0000000000000000  0.0000000000000000  0.2224139798992334  T  T  T
0.3333333333333357  0.6666666666666643  0.1007794331202099  T  T  T
0.3333333333333357  0.6666666666666643  0.1840806365894689  T  T  T
0.6666666666666643  0.3333333333333357  0.0000000000000000  T  T  T
0.6666666666666643  0.3333333333333357  0.2848600697096787  T  T  T

0.00000000E+00  0.00000000E+00  0.00000000E+00
0.00000000E+00  0.00000000E+00  0.00000000E+00
0.00000000E+00  0.00000000E+00  0.00000000E+00
0.00000000E+00  0.00000000E+00  0.00000000E+00
0.00000000E+00  0.00000000E+00  0.00000000E+00
0.00000000E+00  0.00000000E+00  0.00000000E+00
0.00000000E+00  0.00000000E+00  0.00000000E+00
