Ta3C2  (n=2)
1.00000000000000
3.2477512387109471  0.0000000000000000  0.0000000000000000
-1.6238756193554735  2.8126350780181282  0.0000000000000000
0.0000000000000000  0.0000000000000000  34.8951009841043884
Ta  C  I
3  2  2
Selective  dynamics
Direct
0.0000000000000000  0.0000000000000000  0.0619937243785146  T  T  T
0.0000000000000000  0.0000000000000000  0.1417835269857977  T  T  T
0.0000000000000000  0.0000000000000000  0.2215733295930892  T  T  T
0.3333333333333357  0.6666666666666643  0.1000569772054053  T  T  T
0.3333333333333357  0.6666666666666643  0.1835100767661985  T  T  T
0.6666666666666643  0.3333333333333357  0.0000000000000000  T  T  T
0.6666666666666643  0.3333333333333357  0.2835670539716121  T  T  T

0.00000000E+00  0.00000000E+00  0.00000000E+00
0.00000000E+00  0.00000000E+00  0.00000000E+00
0.00000000E+00  0.00000000E+00  0.00000000E+00
0.00000000E+00  0.00000000E+00  0.00000000E+00
0.00000000E+00  0.00000000E+00  0.00000000E+00
0.00000000E+00  0.00000000E+00  0.00000000E+00
0.00000000E+00  0.00000000E+00  0.00000000E+00
