Cr3N2  (n=2)
1.00000000000000
3.2318168982380433  0.0000000000000001  0.0000000000000000
-1.6159084491190219  2.7988355342201388  0.0000000000000000
0.0000000000000000  0.0000000000000000  33.9830984598951034
Cr  N  I
3  2  2
Selective  dynamics
Direct
0.0000000000000000  0.0000000000000000  0.0609805179350601  T  T  T
-0.0000000000000000  0.0000000000000000  0.1321700914131798  T  T  T
-0.0000000000000000  0.0000000000000000  0.2033596648913069  T  T  T
0.3333333333333357  0.6666666666666643  0.0886531403002769  T  T  T
0.3333333333333357  0.6666666666666643  0.1756870425260900  T  T  T
0.6666666666666643  0.3333333333333357  0.0000000000000000  T  T  T
0.6666666666666643  0.3333333333333357  0.2643401828263670  T  T  T

0.00000000E+00  0.00000000E+00  0.00000000E+00
0.00000000E+00  0.00000000E+00  0.00000000E+00
0.00000000E+00  0.00000000E+00  0.00000000E+00
0.00000000E+00  0.00000000E+00  0.00000000E+00
0.00000000E+00  0.00000000E+00  0.00000000E+00
0.00000000E+00  0.00000000E+00  0.00000000E+00
0.00000000E+00  0.00000000E+00  0.00000000E+00
