Mo3C2  (n=2)
1.00000000000000
3.1116953424495342  -0.0000000000000001  0.0000000000000000
-1.5558476712247671  2.6948072155692713  -0.0000000000000000
-0.0000000000000000  -0.0000000000000000  34.9477855625534559
Mo  C  I
3  2  2
Selective  dynamics
Direct
-0.0000000000000000  -0.0000000000000000  0.0646629658290055  T  T  T
-0.0000000000000000  -0.0000000000000000  0.1423235464339732  T  T  T
-0.0000000000000000  -0.0000000000000000  0.2199841270389407  T  T  T
0.3333333333333357  0.6666666666666643  0.1021552365024698  T  T  T
0.3333333333333357  0.6666666666666643  0.1824918563654697  T  T  T
0.6666666666666643  0.3333333333333357  0.0000000000000000  T  T  T
0.6666666666666643  0.3333333333333357  0.2846470928679528  T  T  T

0.00000000E+00  0.00000000E+00  0.00000000E+00
0.00000000E+00  0.00000000E+00  0.00000000E+00
0.00000000E+00  0.00000000E+00  0.00000000E+00
0.00000000E+00  0.00000000E+00  0.00000000E+00
0.00000000E+00  0.00000000E+00  0.00000000E+00
0.00000000E+00  0.00000000E+00  0.00000000E+00
0.00000000E+00  0.00000000E+00  0.00000000E+00
