Zr3N2  (n=2)
1.00000000000000
3.3712000279325474  0.0000000000000000  0.0000000000000000
-1.6856000139662737  2.9195448655991236  0.0000000000000000
0.0000000000000000  0.0000000000000000  35.0931195140111640
Zr  N  I
3  2  2
Selective  dynamics
Direct
0.0000000000000000  -0.0000000000000000  0.0616850427571970  T  T  T
0.0000000000000000  -0.0000000000000000  0.1438048206284543  T  T  T
0.0000000000000000  -0.0000000000000000  0.2259245984997199  T  T  T
0.3333333333333357  0.6666666666666643  0.1020117936344056  T  T  T
0.3333333333333357  0.6666666666666643  0.1855978476225114  T  T  T
0.6666666666666643  0.3333333333333357  0.0000000000000000  T  T  T
0.6666666666666643  0.3333333333333357  0.2876096412569255  T  T  T

0.00000000E+00  0.00000000E+00  0.00000000E+00
0.00000000E+00  0.00000000E+00  0.00000000E+00
0.00000000E+00  0.00000000E+00  0.00000000E+00
0.00000000E+00  0.00000000E+00  0.00000000E+00
0.00000000E+00  0.00000000E+00  0.00000000E+00
0.00000000E+00  0.00000000E+00  0.00000000E+00
0.00000000E+00  0.00000000E+00  0.00000000E+00
