Hf3C2  (n=2)
1.00000000000000
3.4690577096967568  0.0000000000000000  0.0000000000000000
-1.7345288548483784  3.0042921041271606  0.0000000000000000
0.0000000000000000  0.0000000000000000  34.8194712005386506
Hf  C  I
3  2  2
Selective  dynamics
Direct
-0.0000000000000000  -0.0000000000000000  0.0623059218597965  T  T  T
-0.0000000000000000  -0.0000000000000000  0.1410054613406389  T  T  T
-0.0000000000000000  -0.0000000000000000  0.2197050008214895  T  T  T
0.3333333333333357  0.6666666666666643  0.0959702095932349  T  T  T
0.3333333333333357  0.6666666666666643  0.1860407130880511  T  T  T
0.6666666666666643  0.3333333333333357  0.0000000000000000  T  T  T
0.6666666666666643  0.3333333333333357  0.2820109226812941  T  T  T

0.00000000E+00  0.00000000E+00  0.00000000E+00
0.00000000E+00  0.00000000E+00  0.00000000E+00
0.00000000E+00  0.00000000E+00  0.00000000E+00
0.00000000E+00  0.00000000E+00  0.00000000E+00
0.00000000E+00  0.00000000E+00  0.00000000E+00
0.00000000E+00  0.00000000E+00  0.00000000E+00
0.00000000E+00  0.00000000E+00  0.00000000E+00
