Cr3C2  (n=2)
1.00000000000000
3.2207542041764454  0.0000000000000000  0.0000000000000000
-1.6103771020882225  2.7892549601008070  0.0000000000000000
0.0000000000000000  0.0000000000000000  33.7996785302680678
Cr  C  I
3  2  2
Selective  dynamics
Direct
-0.0000000000000000  0.0000000000000000  0.0609383211954568  T  T  T
-0.0000000000000000  -0.0000000000000000  0.1301739974004127  T  T  T
-0.0000000000000000  0.0000000000000000  0.1994096736053764  T  T  T
0.3333333333333357  0.6666666666666643  0.0912831798741777  T  T  T
0.3333333333333357  0.6666666666666643  0.1690648149266477  T  T  T
0.6666666666666643  0.3333333333333357  0.0000000000000000  T  T  T
0.6666666666666643  0.3333333333333357  0.2603479948008333  T  T  T

0.00000000E+00  0.00000000E+00  0.00000000E+00
0.00000000E+00  0.00000000E+00  0.00000000E+00
0.00000000E+00  0.00000000E+00  0.00000000E+00
0.00000000E+00  0.00000000E+00  0.00000000E+00
0.00000000E+00  0.00000000E+00  0.00000000E+00
0.00000000E+00  0.00000000E+00  0.00000000E+00
0.00000000E+00  0.00000000E+00  0.00000000E+00
