Ta3N2  (n=2)
1.00000000000000
3.1511270277999759  0.0000000000000000  -0.0000000000000000
-1.5755635138999879  2.7289560569366520  0.0000000000000000
-0.0000000000000000  0.0000000000000000  35.0497544289510756
Ta  N  I
3  2  2
Selective  dynamics
Direct
-0.0000000000000000  0.0000000000000000  0.0624983853286317  T  T  T
-0.0000000000000000  0.0000000000000000  0.1433641204152057  T  T  T
0.0000000000000000  0.0000000000000000  0.2242298555017796  T  T  T
0.3333333333333357  0.6666666666666643  0.1036941525719537  T  T  T
0.3333333333333357  0.6666666666666643  0.1830340882584508  T  T  T
0.6666666666666643  0.3333333333333357  0.0000000000000000  T  T  T
0.6666666666666643  0.3333333333333357  0.2867282408304117  T  T  T

0.00000000E+00  0.00000000E+00  0.00000000E+00
0.00000000E+00  0.00000000E+00  0.00000000E+00
0.00000000E+00  0.00000000E+00  0.00000000E+00
0.00000000E+00  0.00000000E+00  0.00000000E+00
0.00000000E+00  0.00000000E+00  0.00000000E+00
0.00000000E+00  0.00000000E+00  0.00000000E+00
0.00000000E+00  0.00000000E+00  0.00000000E+00
