Sc3N2  (n=2)
1.00000000000000
3.4434992952285968  0.0000000000000000  0.0000000000000000
-1.7217496476142984  2.9821578677246081  0.0000000000000000
0.0000000000000000  0.0000000000000000  34.5429931701413651
Sc  N  I
3  2  2
Selective  dynamics
Direct
0.0000000000000000  -0.0000000000000000  0.0610213990791967  T  T  T
0.0000000000000000  -0.0000000000000000  0.1381321115274681  T  T  T
0.0000000000000000  -0.0000000000000000  0.2152428239757395  T  T  T
0.3333333333333357  0.6666666666666643  0.0941284523250366  T  T  T
0.3333333333333357  0.6666666666666643  0.1821357707298996  T  T  T
0.6666666666666643  0.3333333333333357  0.0000000000000000  T  T  T
0.6666666666666643  0.3333333333333357  0.2762642230549447  T  T  T

0.00000000E+00  0.00000000E+00  0.00000000E+00
0.00000000E+00  0.00000000E+00  0.00000000E+00
0.00000000E+00  0.00000000E+00  0.00000000E+00
0.00000000E+00  0.00000000E+00  0.00000000E+00
0.00000000E+00  0.00000000E+00  0.00000000E+00
0.00000000E+00  0.00000000E+00  0.00000000E+00
0.00000000E+00  0.00000000E+00  0.00000000E+00
