Ti2N  (n=1)
1.00000000000000
2.9093965044763230  -0.0000000000000001  0.0000000000000000
-1.4546982522381613  2.5196112825994654  0.0000000000000000
0.0000000000000000  0.0000000000000000  32.1642618373235081
Ti  N  O  H
2  1  2  2
Selective  dynamics
Direct
-0.0000000000000000  0.0000000000000000  0.0702543809041129  T  T  T
-0.0000000000000000  0.0000000000000000  0.1524854373935380  T  T  T
0.3333333333333357  0.6666666666666643  0.1113699091488216  T  T  T
0.6666666666666643  0.3333333333333357  0.0305038723627779  T  T  T
0.6666666666666643  0.3333333333333357  0.1922359459348729  T  T  T
0.6666666666666643  0.3333333333333357  0.0000000000000000  T  T  T
0.6666666666666643  0.3333333333333357  0.2227398182976509  T  T  T

0.00000000E+00  0.00000000E+00  0.00000000E+00
0.00000000E+00  0.00000000E+00  0.00000000E+00
0.00000000E+00  0.00000000E+00  0.00000000E+00
0.00000000E+00  0.00000000E+00  0.00000000E+00
0.00000000E+00  0.00000000E+00  0.00000000E+00
0.00000000E+00  0.00000000E+00  0.00000000E+00
0.00000000E+00  0.00000000E+00  0.00000000E+00
