Zr2N  (n=1)
1.00000000000000
3.1041093121998471  0.0000000000000004  0.0000000000000000
-1.5520546560999233  2.6882375207025473  0.0000000000000000
0.0000000000000000  0.0000000000000000  32.7662283101252569
Zr  N  O  H
2  1  2  2
Selective  dynamics
Direct
0.0000000000000000  -0.0000000000000000  0.0733519002165498  T  T  T
0.0000000000000000  -0.0000000000000000  0.1636673940586209  T  T  T
0.3333333333333357  0.6666666666666643  0.1185096471375893  T  T  T
0.6666666666666643  0.3333333333333357  0.0297840179615512  T  T  T
0.6666666666666643  0.3333333333333357  0.2072352763136195  T  T  T
0.6666666666666643  0.3333333333333357  0.0000000000000000  T  T  T
0.6666666666666643  0.3333333333333357  0.2370192942751784  T  T  T

0.00000000E+00  0.00000000E+00  0.00000000E+00
0.00000000E+00  0.00000000E+00  0.00000000E+00
0.00000000E+00  0.00000000E+00  0.00000000E+00
0.00000000E+00  0.00000000E+00  0.00000000E+00
0.00000000E+00  0.00000000E+00  0.00000000E+00
0.00000000E+00  0.00000000E+00  0.00000000E+00
0.00000000E+00  0.00000000E+00  0.00000000E+00
