Sc2C  (n=1)
1.00000000000000
3.2569042799691368  -0.0000000000000001  0.0000000000000000
-1.6284521399845684  2.8205618443231599  0.0000000000000000
0.0000000000000000  0.0000000000000000  32.1316200310565563
Sc  C  O  H
2  1  2  2
Selective  dynamics
Direct
-0.0000000000000000  0.0000000000000000  0.0684664270810357  T  T  T
-0.0000000000000000  0.0000000000000000  0.1534837896887320  T  T  T
0.3333333333333357  0.6666666666666643  0.1109751083848800  T  T  T
0.6666666666666643  0.3333333333333357  0.0302319796590309  T  T  T
0.6666666666666643  0.3333333333333357  0.1917182371107369  T  T  T
0.6666666666666643  0.3333333333333357  0.0000000000000000  T  T  T
0.6666666666666643  0.3333333333333357  0.2219502167697598  T  T  T

0.00000000E+00  0.00000000E+00  0.00000000E+00
0.00000000E+00  0.00000000E+00  0.00000000E+00
0.00000000E+00  0.00000000E+00  0.00000000E+00
0.00000000E+00  0.00000000E+00  0.00000000E+00
0.00000000E+00  0.00000000E+00  0.00000000E+00
0.00000000E+00  0.00000000E+00  0.00000000E+00
0.00000000E+00  0.00000000E+00  0.00000000E+00
