Hf2N  (n=1)
1.00000000000000
3.0458612962797198  -0.0000000000000001  0.0000000000000000
-1.5229306481398599  2.6377932591081019  0.0000000000000000
0.0000000000000000  0.0000000000000000  32.7013541889709671
Hf  N  O  H
2  1  2  2
Selective  dynamics
Direct
-0.0000000000000000  0.0000000000000000  0.0731253524585955  T  T  T
0.0000000000000000  0.0000000000000000  0.1623803132844034  T  T  T
0.3333333333333357  0.6666666666666643  0.1177528328714956  T  T  T
0.6666666666666643  0.3333333333333357  0.0301145738896125  T  T  T
0.6666666666666643  0.3333333333333357  0.2053910918533788  T  T  T
0.6666666666666643  0.3333333333333357  0.0000000000000000  T  T  T
0.6666666666666643  0.3333333333333357  0.2355056657429913  T  T  T

0.00000000E+00  0.00000000E+00  0.00000000E+00
0.00000000E+00  0.00000000E+00  0.00000000E+00
0.00000000E+00  0.00000000E+00  0.00000000E+00
0.00000000E+00  0.00000000E+00  0.00000000E+00
0.00000000E+00  0.00000000E+00  0.00000000E+00
0.00000000E+00  0.00000000E+00  0.00000000E+00
0.00000000E+00  0.00000000E+00  0.00000000E+00
