Cr2C  (n=1)
1.00000000000000
2.7702601395955977  0.0000000000000002  0.0000000000000000
-1.3851300697977988  2.3991156560901059  0.0000000000000000
0.0000000000000000  0.0000000000000000  31.9752455256776500
Cr  C  O  H
2  1  2  2
Selective  dynamics
Direct
0.0000000000000000  0.0000000000000000  0.0706014875985612  T  T  T
0.0000000000000000  0.0000000000000000  0.1475436872391485  T  T  T
0.3333333333333357  0.6666666666666643  0.1090725874188512  T  T  T
0.6666666666666643  0.3333333333333357  0.0305839773195639  T  T  T
0.6666666666666643  0.3333333333333357  0.1875611975181457  T  T  T
0.6666666666666643  0.3333333333333357  0.0000000000000000  T  T  T
0.6666666666666643  0.3333333333333357  0.2181451748377098  T  T  T

0.00000000E+00  0.00000000E+00  0.00000000E+00
0.00000000E+00  0.00000000E+00  0.00000000E+00
0.00000000E+00  0.00000000E+00  0.00000000E+00
0.00000000E+00  0.00000000E+00  0.00000000E+00
0.00000000E+00  0.00000000E+00  0.00000000E+00
0.00000000E+00  0.00000000E+00  0.00000000E+00
0.00000000E+00  0.00000000E+00  0.00000000E+00
