Ta2C  (n=1)
1.00000000000000
2.9731241216257787  -0.0000000000000012  0.0000000000000000
-1.4865620608128900  2.5748010180499694  0.0000000000000000
0.0000000000000000  0.0000000000000000  32.7012665396307156
Ta  C  O  H
2  1  2  2
Selective  dynamics
Direct
0.0000000000000000  -0.0000000000000000  0.0738144649892564  T  T  T
0.0000000000000000  -0.0000000000000000  0.1616891516764018  T  T  T
0.3333333333333357  0.6666666666666643  0.1177518083328291  T  T  T
0.6666666666666643  0.3333333333333357  0.0301066635980678  T  T  T
0.6666666666666643  0.3333333333333357  0.2053969530675904  T  T  T
0.6666666666666643  0.3333333333333357  0.0000000000000000  T  T  T
0.6666666666666643  0.3333333333333357  0.2355036166656585  T  T  T

0.00000000E+00  0.00000000E+00  0.00000000E+00
0.00000000E+00  0.00000000E+00  0.00000000E+00
0.00000000E+00  0.00000000E+00  0.00000000E+00
0.00000000E+00  0.00000000E+00  0.00000000E+00
0.00000000E+00  0.00000000E+00  0.00000000E+00
0.00000000E+00  0.00000000E+00  0.00000000E+00
0.00000000E+00  0.00000000E+00  0.00000000E+00
