Ti2C  (n=1)
1.00000000000000
3.0451741236904799  -0.0000000000000002  0.0000000000000000
-1.5225870618452402  2.6371981501403687  0.0000000000000000
0.0000000000000000  0.0000000000000000  31.9360219204469544
Ti  C  O  H
2  1  2  2
Selective  dynamics
Direct
0.0000000000000000  -0.0000000000000000  0.0692122650296719  T  T  T
0.0000000000000000  -0.0000000000000000  0.1479726410217043  T  T  T
0.3333333333333357  0.6666666666666643  0.1085924530256842  T  T  T
0.6666666666666643  0.3333333333333357  0.0306151518466082  T  T  T
0.6666666666666643  0.3333333333333357  0.1865697542047680  T  T  T
0.6666666666666643  0.3333333333333357  0.0000000000000000  T  T  T
0.6666666666666643  0.3333333333333357  0.2171849060513760  T  T  T

0.00000000E+00  0.00000000E+00  0.00000000E+00
0.00000000E+00  0.00000000E+00  0.00000000E+00
0.00000000E+00  0.00000000E+00  0.00000000E+00
0.00000000E+00  0.00000000E+00  0.00000000E+00
0.00000000E+00  0.00000000E+00  0.00000000E+00
0.00000000E+00  0.00000000E+00  0.00000000E+00
0.00000000E+00  0.00000000E+00  0.00000000E+00
