Ta2N  (n=1)
1.00000000000000
2.8840511923024397  0.0000000000000001  0.0000000000000000
-1.4420255961512198  2.4976615984412782  0.0000000000000000
0.0000000000000000  0.0000000000000000  32.8556037338705025
Ta  N  O  H
2  1  2  2
Selective  dynamics
Direct
-0.0000000000000000  0.0000000000000000  0.0741362715461090  T  T  T
-0.0000000000000000  0.0000000000000000  0.1649585202434722  T  T  T
0.3333333333333357  0.6666666666666643  0.1195473958947907  T  T  T
0.6666666666666643  0.3333333333333357  0.0300977086358744  T  T  T
0.6666666666666643  0.3333333333333357  0.2089970831536990  T  T  T
0.6666666666666643  0.3333333333333357  0.0000000000000000  T  T  T
0.6666666666666643  0.3333333333333357  0.2390947917895735  T  T  T

0.00000000E+00  0.00000000E+00  0.00000000E+00
0.00000000E+00  0.00000000E+00  0.00000000E+00
0.00000000E+00  0.00000000E+00  0.00000000E+00
0.00000000E+00  0.00000000E+00  0.00000000E+00
0.00000000E+00  0.00000000E+00  0.00000000E+00
0.00000000E+00  0.00000000E+00  0.00000000E+00
0.00000000E+00  0.00000000E+00  0.00000000E+00
