Nb2C  (n=1)
1.00000000000000
2.9964996235149051  0.0000000000000000  0.0000000000000000
-1.4982498117574525  2.5950447965733265  0.0000000000000000
0.0000000000000000  0.0000000000000000  32.6991524204445767
Nb  C  O  H
2  1  2  2
Selective  dynamics
Direct
0.0000000000000000  -0.0000000000000000  0.0735727391570764  T  T  T
0.0000000000000000  -0.0000000000000000  0.1618814500356322  T  T  T
0.3333333333333357  0.6666666666666643  0.1177270945963543  T  T  T
0.6666666666666643  0.3333333333333357  0.0299142442408094  T  T  T
0.6666666666666643  0.3333333333333357  0.2055399449518991  T  T  T
0.6666666666666643  0.3333333333333357  0.0000000000000000  T  T  T
0.6666666666666643  0.3333333333333357  0.2354541891927087  T  T  T

0.00000000E+00  0.00000000E+00  0.00000000E+00
0.00000000E+00  0.00000000E+00  0.00000000E+00
0.00000000E+00  0.00000000E+00  0.00000000E+00
0.00000000E+00  0.00000000E+00  0.00000000E+00
0.00000000E+00  0.00000000E+00  0.00000000E+00
0.00000000E+00  0.00000000E+00  0.00000000E+00
0.00000000E+00  0.00000000E+00  0.00000000E+00
