Mo2C  (n=1)
1.00000000000000
2.9385651757551980  0.0000000000000000  0.0000000000000000
-1.4692825878775992  2.5448720929997313  0.0000000000000000
0.0000000000000000  0.0000000000000000  32.5237975829263846
Mo  C  O  H
2  1  2  2
Selective  dynamics
Direct
-0.0000000000000000  0.0000000000000000  0.0748370959897082  T  T  T
-0.0000000000000000  0.0000000000000000  0.1564949790468199  T  T  T
0.3333333333333357  0.6666666666666643  0.1156660375182604  T  T  T
0.6666666666666643  0.3333333333333357  0.0300241003156082  T  T  T
0.6666666666666643  0.3333333333333357  0.2013079747209200  T  T  T
0.6666666666666643  0.3333333333333357  0.0000000000000000  T  T  T
0.6666666666666643  0.3333333333333357  0.2313320750365283  T  T  T

0.00000000E+00  0.00000000E+00  0.00000000E+00
0.00000000E+00  0.00000000E+00  0.00000000E+00
0.00000000E+00  0.00000000E+00  0.00000000E+00
0.00000000E+00  0.00000000E+00  0.00000000E+00
0.00000000E+00  0.00000000E+00  0.00000000E+00
0.00000000E+00  0.00000000E+00  0.00000000E+00
0.00000000E+00  0.00000000E+00  0.00000000E+00
