Hf2C  (n=1)
1.00000000000000
3.2322052637420891  0.0000000000000000  0.0000000000000000
-1.6161026318710445  2.7991718688996405  0.0000000000000000
0.0000000000000000  0.0000000000000000  32.3004635774390820
Hf  C  O  H
2  1  2  2
Selective  dynamics
Direct
-0.0000000000000000  0.0000000000000000  0.0708524668527735  T  T  T
0.0000000000000000  0.0000000000000000  0.1551648334852313  T  T  T
0.3333333333333357  0.6666666666666643  0.1130086501690025  T  T  T
0.6666666666666643  0.3333333333333357  0.0303760084647721  T  T  T
0.6666666666666643  0.3333333333333357  0.1956412918732325  T  T  T
0.6666666666666643  0.3333333333333357  0.0000000000000000  T  T  T
0.6666666666666643  0.3333333333333357  0.2260173003380125  T  T  T

0.00000000E+00  0.00000000E+00  0.00000000E+00
0.00000000E+00  0.00000000E+00  0.00000000E+00
0.00000000E+00  0.00000000E+00  0.00000000E+00
0.00000000E+00  0.00000000E+00  0.00000000E+00
0.00000000E+00  0.00000000E+00  0.00000000E+00
0.00000000E+00  0.00000000E+00  0.00000000E+00
0.00000000E+00  0.00000000E+00  0.00000000E+00
