Cr2N  (n=1)
1.00000000000000
2.7540611734314435  0.0000000000000000  0.0000000000000000
-1.3770305867157218  2.3850869399353436  0.0000000000000000
0.0000000000000000  0.0000000000000000  31.9203298490473273
Cr  N  O  H
2  1  2  2
Selective  dynamics
Direct
0.0000000000000000  0.0000000000000000  0.0704251106716498  T  T  T
0.0000000000000000  0.0000000000000000  0.1463749625661231  T  T  T
0.3333333333333357  0.6666666666666643  0.1084000366188864  T  T  T
0.6666666666666643  0.3333333333333357  0.0307356768836700  T  T  T
0.6666666666666643  0.3333333333333357  0.1860643963541029  T  T  T
0.6666666666666643  0.3333333333333357  0.0000000000000000  T  T  T
0.6666666666666643  0.3333333333333357  0.2168000732377729  T  T  T

0.00000000E+00  0.00000000E+00  0.00000000E+00
0.00000000E+00  0.00000000E+00  0.00000000E+00
0.00000000E+00  0.00000000E+00  0.00000000E+00
0.00000000E+00  0.00000000E+00  0.00000000E+00
0.00000000E+00  0.00000000E+00  0.00000000E+00
0.00000000E+00  0.00000000E+00  0.00000000E+00
0.00000000E+00  0.00000000E+00  0.00000000E+00
