Sc2N  (n=1)
1.00000000000000
3.1678165825962630  0.0000000000000001  0.0000000000000000
-1.5839082912981315  2.7434096351943893  0.0000000000000000
0.0000000000000000  0.0000000000000000  32.0853722083665645
Sc  N  O  H
2  1  2  2
Selective  dynamics
Direct
-0.0000000000000000  -0.0000000000000000  0.0686777325018591  T  T  T
-0.0000000000000000  -0.0000000000000000  0.1521510041060019  T  T  T
0.3333333333333357  0.6666666666666643  0.1104143683039266  T  T  T
0.6666666666666643  0.3333333333333357  0.0304664213617821  T  T  T
0.6666666666666643  0.3333333333333357  0.1903623152460712  T  T  T
0.6666666666666643  0.3333333333333357  0.0000000000000000  T  T  T
0.6666666666666643  0.3333333333333357  0.2208287366078610  T  T  T

0.00000000E+00  0.00000000E+00  0.00000000E+00
0.00000000E+00  0.00000000E+00  0.00000000E+00
0.00000000E+00  0.00000000E+00  0.00000000E+00
0.00000000E+00  0.00000000E+00  0.00000000E+00
0.00000000E+00  0.00000000E+00  0.00000000E+00
0.00000000E+00  0.00000000E+00  0.00000000E+00
0.00000000E+00  0.00000000E+00  0.00000000E+00
