Mo2N  (n=1)
1.00000000000000
2.8456541247394873  0.0000000000000001  0.0000000000000000
-1.4228270623697432  2.4644087624645259  0.0000000000000000
0.0000000000000000  0.0000000000000000  32.6802321375225162
Mo  N  O  H
2  1  2  2
Selective  dynamics
Direct
0.0000000000000000  0.0000000000000000  0.0745135823968549  T  T  T
0.0000000000000000  0.0000000000000000  0.1604979715358985  T  T  T
0.3333333333333357  0.6666666666666643  0.1175057769663806  T  T  T
0.6666666666666643  0.3333333333333357  0.0300332759105152  T  T  T
0.6666666666666643  0.3333333333333357  0.2049782780222458  T  T  T
0.6666666666666643  0.3333333333333357  0.0000000000000000  T  T  T
0.6666666666666643  0.3333333333333357  0.2350115539327609  T  T  T

0.00000000E+00  0.00000000E+00  0.00000000E+00
0.00000000E+00  0.00000000E+00  0.00000000E+00
0.00000000E+00  0.00000000E+00  0.00000000E+00
0.00000000E+00  0.00000000E+00  0.00000000E+00
0.00000000E+00  0.00000000E+00  0.00000000E+00
0.00000000E+00  0.00000000E+00  0.00000000E+00
0.00000000E+00  0.00000000E+00  0.00000000E+00
