Nb2N  (n=1)
1.00000000000000
2.9163342081886512  0.0000000000000000  0.0000000000000000
-1.4581671040943256  2.5256195103555727  0.0000000000000000
0.0000000000000000  0.0000000000000000  32.8107991255604929
Nb  N  O  H
2  1  2  2
Selective  dynamics
Direct
0.0000000000000000  0.0000000000000000  0.0739270659597421  T  T  T
0.0000000000000000  0.0000000000000000  0.1641286758608119  T  T  T
0.3333333333333357  0.6666666666666643  0.1190278709102809  T  T  T
0.6666666666666643  0.3333333333333357  0.0299306157912536  T  T  T
0.6666666666666643  0.3333333333333357  0.2081251260293005  T  T  T
0.6666666666666643  0.3333333333333357  0.0000000000000000  T  T  T
0.6666666666666643  0.3333333333333357  0.2380557418205541  T  T  T

0.00000000E+00  0.00000000E+00  0.00000000E+00
0.00000000E+00  0.00000000E+00  0.00000000E+00
0.00000000E+00  0.00000000E+00  0.00000000E+00
0.00000000E+00  0.00000000E+00  0.00000000E+00
0.00000000E+00  0.00000000E+00  0.00000000E+00
0.00000000E+00  0.00000000E+00  0.00000000E+00
0.00000000E+00  0.00000000E+00  0.00000000E+00
