Ti3C2  (n=2)
1.00000000000000
2.9783675276912800  0.0000000000000000  0.0000000000000000
-1.4891837638456400  2.5793419408536229  0.0000000000000000
0.0000000000000000  0.0000000000000000  32.6013731275829102
Ti  C  O
3  2  2
Selective  dynamics
Direct
0.0000000000000000  0.0000000000000000  0.0298007255540410  T  T  T
0.0000000000000000  0.0000000000000000  0.1165805669877084  T  T  T
0.0000000000000000  0.0000000000000000  0.2033604084213758  T  T  T
0.3333333333333357  0.6666666666666643  0.0745737270112698  T  T  T
0.3333333333333357  0.6666666666666643  0.1585874069641469  T  T  T
0.3333333333333357  0.6666666666666643  0.0000000000000000  T  T  T
0.3333333333333357  0.6666666666666643  0.2331611339754168  T  T  T

0.00000000E+00  0.00000000E+00  0.00000000E+00
0.00000000E+00  0.00000000E+00  0.00000000E+00
0.00000000E+00  0.00000000E+00  0.00000000E+00
0.00000000E+00  0.00000000E+00  0.00000000E+00
0.00000000E+00  0.00000000E+00  0.00000000E+00
0.00000000E+00  0.00000000E+00  0.00000000E+00
0.00000000E+00  0.00000000E+00  0.00000000E+00
