Hf3N2  (n=2)
1.00000000000000
3.1001994039467249  0.0000000000000000  0.0000000000000000
-1.5500997019733624  2.6848514408225066  0.0000000000000000
0.0000000000000000  0.0000000000000000  33.0869816839464193
Hf  N  O
3  2  2
Selective  dynamics
Direct
0.0000000000000000  0.0000000000000000  0.0323230763167913  T  T  T
0.0000000000000000  0.0000000000000000  0.1222079088566450  T  T  T
0.0000000000000000  0.0000000000000000  0.2120927413964987  T  T  T
0.3333333333333357  0.6666666666666643  0.0784428636437127  T  T  T
0.3333333333333357  0.6666666666666643  0.1659729540695851  T  T  T
0.3333333333333357  0.6666666666666643  0.0000000000000000  T  T  T
0.3333333333333357  0.6666666666666643  0.2444158177132901  T  T  T

0.00000000E+00  0.00000000E+00  0.00000000E+00
0.00000000E+00  0.00000000E+00  0.00000000E+00
0.00000000E+00  0.00000000E+00  0.00000000E+00
0.00000000E+00  0.00000000E+00  0.00000000E+00
0.00000000E+00  0.00000000E+00  0.00000000E+00
0.00000000E+00  0.00000000E+00  0.00000000E+00
0.00000000E+00  0.00000000E+00  0.00000000E+00
