Sc3C2O2  (n=2)
1.00000000000000
3.4382192703309524  0.0000000000000000  0.0000000000000000
-1.7191096351654762  2.9775852318954619  0.0000000000000000
0.0000000000000000  0.0000000000000000  31.9644598256484898
Sc  C  O
3  2  2
Selective  dynamics
Direct
0.0000000000000000  0.0000000000000000  0.0202542267158411  T  T  T
0.0000000000000000  0.0000000000000000  0.1089406776093940  T  T  T
0.0000000000000000  0.0000000000000000  0.1976271285029468  T  T  T
0.3333333333333357  0.6666666666666643  0.0845599623005583  T  T  T
0.3333333333333357  0.6666666666666643  0.1333213929182201  T  T  T
0.3333333333333357  0.6666666666666643  0.0000000000000000  T  T  T
0.3333333333333357  0.6666666666666643  0.2178813552187784  T  T  T

0.00000000E+00  0.00000000E+00  0.00000000E+00
0.00000000E+00  0.00000000E+00  0.00000000E+00
0.00000000E+00  0.00000000E+00  0.00000000E+00
0.00000000E+00  0.00000000E+00  0.00000000E+00
0.00000000E+00  0.00000000E+00  0.00000000E+00
0.00000000E+00  0.00000000E+00  0.00000000E+00
0.00000000E+00  0.00000000E+00  0.00000000E+00
