Mo3C2  (n=2)
1.00000000000000
2.8884831781037286  0.0000000000000000  0.0000000000000000
-1.4442415890518643  2.5014998107106341  0.0000000000000000
0.0000000000000000  0.0000000000000000  33.0912228544238332
Mo  C  O
3  2  2
Selective  dynamics
Direct
0.0000000000000000  0.0000000000000000  0.0367374287709452  T  T  T
0.0000000000000000  0.0000000000000000  0.1222563289670313  T  T  T
0.0000000000000000  0.0000000000000000  0.2077752291631333  T  T  T
0.3333333333333357  0.6666666666666643  0.0792307073277739  T  T  T
0.3333333333333357  0.6666666666666643  0.1652819506062968  T  T  T
0.3333333333333357  0.6666666666666643  0.0000000000000000  T  T  T
0.3333333333333357  0.6666666666666643  0.2445126579340706  T  T  T

0.00000000E+00  0.00000000E+00  0.00000000E+00
0.00000000E+00  0.00000000E+00  0.00000000E+00
0.00000000E+00  0.00000000E+00  0.00000000E+00
0.00000000E+00  0.00000000E+00  0.00000000E+00
0.00000000E+00  0.00000000E+00  0.00000000E+00
0.00000000E+00  0.00000000E+00  0.00000000E+00
0.00000000E+00  0.00000000E+00  0.00000000E+00
