Nb3N2  (n=2)
1.00000000000000
2.9716621555672060  0.0000000000000000  0.0000000000000000
-1.4858310777836030  2.5735349183133542  0.0000000000000000
0.0000000000000000  0.0000000000000000  33.1605860438403681
Nb  N  O
3  2  2
Selective  dynamics
Direct
0.0000000000000000  0.0000000000000000  0.0354840253092063  T  T  T
0.0000000000000000  0.0000000000000000  0.1230464689775280  T  T  T
0.0000000000000000  0.0000000000000000  0.2106089126458575  T  T  T
0.3333333333333357  0.6666666666666643  0.0801840572855182  T  T  T
0.3333333333333357  0.6666666666666643  0.1659088806695379  T  T  T
0.3333333333333357  0.6666666666666643  0.0000000000000000  T  T  T
0.3333333333333357  0.6666666666666643  0.2460929379550639  T  T  T

0.00000000E+00  0.00000000E+00  0.00000000E+00
0.00000000E+00  0.00000000E+00  0.00000000E+00
0.00000000E+00  0.00000000E+00  0.00000000E+00
0.00000000E+00  0.00000000E+00  0.00000000E+00
0.00000000E+00  0.00000000E+00  0.00000000E+00
0.00000000E+00  0.00000000E+00  0.00000000E+00
0.00000000E+00  0.00000000E+00  0.00000000E+00
