Sc3N2  (n=2)
1.00000000000000
3.1775267267622733  0.0000000000000000  0.0000000000000000
-1.5887633633811367  2.7518188667453192  0.0000000000000000
0.0000000000000000  0.0000000000000000  32.5255805126358339
Sc  N  O
3  2  2
Selective  dynamics
Direct
0.0000000000000000  0.0000000000000000  0.0259870583508768  T  T  T
0.0000000000000000  0.0000000000000000  0.1156871052572293  T  T  T
0.0000000000000000  0.0000000000000000  0.2053871521635819  T  T  T
0.3333333333333357  0.6666666666666643  0.0763746419175437  T  T  T
0.3333333333333357  0.6666666666666643  0.1549995685969150  T  T  T
0.3333333333333357  0.6666666666666643  0.0000000000000000  T  T  T
0.3333333333333357  0.6666666666666643  0.2313742105144665  T  T  T

0.00000000E+00  0.00000000E+00  0.00000000E+00
0.00000000E+00  0.00000000E+00  0.00000000E+00
0.00000000E+00  0.00000000E+00  0.00000000E+00
0.00000000E+00  0.00000000E+00  0.00000000E+00
0.00000000E+00  0.00000000E+00  0.00000000E+00
0.00000000E+00  0.00000000E+00  0.00000000E+00
0.00000000E+00  0.00000000E+00  0.00000000E+00
