Ta3C2  (n=2)
1.00000000000000
3.0193640339605508  0.0000000000000000  0.0000000000000000
-1.5096820169802754  2.6148459568506577  0.0000000000000000
0.0000000000000000  0.0000000000000000  33.1268400990267580
Ta  C  O
3  2  2
Selective  dynamics
Direct
0.0000000000000000  0.0000000000000000  0.0350527881092226  T  T  T
0.0000000000000000  0.0000000000000000  0.1226624705938262  T  T  T
0.0000000000000000  0.0000000000000000  0.2102721530784376  T  T  T
0.3333333333333357  0.6666666666666643  0.0785287520767928  T  T  T
0.3333333333333357  0.6666666666666643  0.1667961891108595  T  T  T
0.3333333333333357  0.6666666666666643  0.0000000000000000  T  T  T
0.3333333333333357  0.6666666666666643  0.2453249411876600  T  T  T

0.00000000E+00  0.00000000E+00  0.00000000E+00
0.00000000E+00  0.00000000E+00  0.00000000E+00
0.00000000E+00  0.00000000E+00  0.00000000E+00
0.00000000E+00  0.00000000E+00  0.00000000E+00
0.00000000E+00  0.00000000E+00  0.00000000E+00
0.00000000E+00  0.00000000E+00  0.00000000E+00
0.00000000E+00  0.00000000E+00  0.00000000E+00
