Ta3N2  (n=2)
1.00000000000000
2.9520534595934529  0.0000000000000000  0.0000000000000000
-1.4760267297967264  2.5565532894493010  0.0000000000000000
0.0000000000000000  0.0000000000000000  33.1681511702822434
Ta  N  O
3  2  2
Selective  dynamics
Direct
0.0000000000000000  0.0000000000000000  0.0354208188573046  T  T  T
0.0000000000000000  0.0000000000000000  0.1231324460677231  T  T  T
0.0000000000000000  0.0000000000000000  0.2108440732781494  T  T  T
0.3333333333333357  0.6666666666666643  0.0800377963374300  T  T  T
0.3333333333333357  0.6666666666666643  0.1662270957980240  T  T  T
0.3333333333333357  0.6666666666666643  0.0000000000000000  T  T  T
0.3333333333333357  0.6666666666666643  0.2462648921354617  T  T  T

0.00000000E+00  0.00000000E+00  0.00000000E+00
0.00000000E+00  0.00000000E+00  0.00000000E+00
0.00000000E+00  0.00000000E+00  0.00000000E+00
0.00000000E+00  0.00000000E+00  0.00000000E+00
0.00000000E+00  0.00000000E+00  0.00000000E+00
0.00000000E+00  0.00000000E+00  0.00000000E+00
0.00000000E+00  0.00000000E+00  0.00000000E+00
