Mo3N2  (n=2)
1.00000000000000
2.8807207996054802  0.0000000000000000  0.0000000000000000
-1.4403603998027401  2.4947773937463595  0.0000000000000000
0.0000000000000000  0.0000000000000000  33.0410500295996812
Mo  N  O
3  2  2
Selective  dynamics
Direct
0.0000000000000000  0.0000000000000000  0.0362920570036689  T  T  T
0.0000000000000000  0.0000000000000000  0.1216827253128479  T  T  T
0.0000000000000000  0.0000000000000000  0.2070733936220268  T  T  T
0.3333333333333357  0.6666666666666643  0.0793623346720464  T  T  T
0.3333333333333357  0.6666666666666643  0.1640031159536416  T  T  T
0.3333333333333357  0.6666666666666643  0.0000000000000000  T  T  T
0.3333333333333357  0.6666666666666643  0.2433654506256957  T  T  T

0.00000000E+00  0.00000000E+00  0.00000000E+00
0.00000000E+00  0.00000000E+00  0.00000000E+00
0.00000000E+00  0.00000000E+00  0.00000000E+00
0.00000000E+00  0.00000000E+00  0.00000000E+00
0.00000000E+00  0.00000000E+00  0.00000000E+00
0.00000000E+00  0.00000000E+00  0.00000000E+00
0.00000000E+00  0.00000000E+00  0.00000000E+00
