Nb3C2  (n=2)
1.00000000000000
3.0378009779223727  0.0000000000000000  0.0000000000000000
-1.5189004889611863  2.6308128187208664  0.0000000000000000
0.0000000000000000  0.0000000000000000  33.1423785926032082
Nb  C  O
3  2  2
Selective  dynamics
Direct
0.0000000000000000  0.0000000000000000  0.0349272629446564  T  T  T
0.0000000000000000  0.0000000000000000  0.1228393817578989  T  T  T
0.0000000000000000  0.0000000000000000  0.2107515005711414  T  T  T
0.3333333333333357  0.6666666666666643  0.0787516383698718  T  T  T
0.3333333333333357  0.6666666666666643  0.1669271251459261  T  T  T
0.3333333333333357  0.6666666666666643  0.0000000000000000  T  T  T
0.3333333333333357  0.6666666666666643  0.2456787635157980  T  T  T

0.00000000E+00  0.00000000E+00  0.00000000E+00
0.00000000E+00  0.00000000E+00  0.00000000E+00
0.00000000E+00  0.00000000E+00  0.00000000E+00
0.00000000E+00  0.00000000E+00  0.00000000E+00
0.00000000E+00  0.00000000E+00  0.00000000E+00
0.00000000E+00  0.00000000E+00  0.00000000E+00
0.00000000E+00  0.00000000E+00  0.00000000E+00
