Hf3C2  (n=2)
1.00000000000000
3.1818227271021313  0.0000000000000000  0.0000000000000000
-1.5909113635510657  2.7555393122278207  0.0000000000000000
0.0000000000000000  0.0000000000000000  33.0759723972708670
Hf  C  O
3  2  2
Selective  dynamics
Direct
0.0000000000000000  0.0000000000000000  0.0312313405459016  T  T  T
0.0000000000000000  0.0000000000000000  0.1220821613386180  T  T  T
0.0000000000000000  0.0000000000000000  0.2129329821313425  T  T  T
0.3333333333333357  0.6666666666666643  0.0775236730268589  T  T  T
0.3333333333333357  0.6666666666666643  0.1666406496503689  T  T  T
0.3333333333333357  0.6666666666666643  0.0000000000000000  T  T  T
0.3333333333333357  0.6666666666666643  0.2441643226772443  T  T  T

0.00000000E+00  0.00000000E+00  0.00000000E+00
0.00000000E+00  0.00000000E+00  0.00000000E+00
0.00000000E+00  0.00000000E+00  0.00000000E+00
0.00000000E+00  0.00000000E+00  0.00000000E+00
0.00000000E+00  0.00000000E+00  0.00000000E+00
0.00000000E+00  0.00000000E+00  0.00000000E+00
0.00000000E+00  0.00000000E+00  0.00000000E+00
