Cr3C2  (n=2)
1.00000000000000
2.6609596723090343  0.0000000000000000  0.0000000000000000
-1.3304798361545171  2.3044586746446596  0.0000000000000000
0.0000000000000000  0.0000000000000000  32.5727783714570975
Cr  C  O
3  2  2
Selective  dynamics
Direct
0.0000000000000000  0.0000000000000000  0.0351390407338481  T  T  T
0.0000000000000000  0.0000000000000000  0.1162439734967845  T  T  T
0.0000000000000000  0.0000000000000000  0.1973489062597363  T  T  T
0.3333333333333357  0.6666666666666643  0.0758425373791224  T  T  T
0.3333333333333357  0.6666666666666643  0.1566454096144466  T  T  T
0.3333333333333357  0.6666666666666643  0.0000000000000000  T  T  T
0.3333333333333357  0.6666666666666643  0.2324879469935845  T  T  T

0.00000000E+00  0.00000000E+00  0.00000000E+00
0.00000000E+00  0.00000000E+00  0.00000000E+00
0.00000000E+00  0.00000000E+00  0.00000000E+00
0.00000000E+00  0.00000000E+00  0.00000000E+00
0.00000000E+00  0.00000000E+00  0.00000000E+00
0.00000000E+00  0.00000000E+00  0.00000000E+00
0.00000000E+00  0.00000000E+00  0.00000000E+00
