Zr3N2  (n=2)
1.00000000000000
3.1560634775782903  0.0000000000000000  0.0000000000000000
-1.5780317387891452  2.7332311477612339  0.0000000000000000
0.0000000000000000  0.0000000000000000  33.1257231767452680
Zr  N  O
3  2  2
Selective  dynamics
Direct
0.0000000000000000  0.0000000000000000  0.0330440841457401  T  T  T
0.0000000000000000  0.0000000000000000  0.1226497476506321  T  T  T
0.0000000000000000  0.0000000000000000  0.2122554111555320  T  T  T
0.3333333333333357  0.6666666666666643  0.0784302187530007  T  T  T
0.3333333333333357  0.6666666666666643  0.1668692765482713  T  T  T
0.3333333333333357  0.6666666666666643  0.0000000000000000  T  T  T
0.3333333333333357  0.6666666666666643  0.2452994953012720  T  T  T

0.00000000E+00  0.00000000E+00  0.00000000E+00
0.00000000E+00  0.00000000E+00  0.00000000E+00
0.00000000E+00  0.00000000E+00  0.00000000E+00
0.00000000E+00  0.00000000E+00  0.00000000E+00
0.00000000E+00  0.00000000E+00  0.00000000E+00
0.00000000E+00  0.00000000E+00  0.00000000E+00
0.00000000E+00  0.00000000E+00  0.00000000E+00
