Ti3N2  (n=2)
1.00000000000000
2.8932099262199586  0.0000000000000000  0.0000000000000000
-1.4466049631099793  2.5055932946332469  0.0000000000000000
0.0000000000000000  0.0000000000000000  32.6223674955014360
Ti  N  O
3  2  2
Selective  dynamics
Direct
0.0000000000000000  0.0000000000000000  0.0314389309603045  T  T  T
0.0000000000000000  0.0000000000000000  0.1168273194235910  T  T  T
0.0000000000000000  0.0000000000000000  0.2022157078868776  T  T  T
0.3333333333333357  0.6666666666666643  0.0755932114675400  T  T  T
0.3333333333333357  0.6666666666666643  0.1580614273796342  T  T  T
0.3333333333333357  0.6666666666666643  0.0000000000000000  T  T  T
0.3333333333333357  0.6666666666666643  0.2336546388471820  T  T  T

0.00000000E+00  0.00000000E+00  0.00000000E+00
0.00000000E+00  0.00000000E+00  0.00000000E+00
0.00000000E+00  0.00000000E+00  0.00000000E+00
0.00000000E+00  0.00000000E+00  0.00000000E+00
0.00000000E+00  0.00000000E+00  0.00000000E+00
0.00000000E+00  0.00000000E+00  0.00000000E+00
0.00000000E+00  0.00000000E+00  0.00000000E+00
