Zr3C2  (n=2)
1.00000000000000
3.2344759206711955  0.0000000000000000  0.0000000000000000
-1.6172379603355977  2.8011383154873171  0.0000000000000000
0.0000000000000000  0.0000000000000000  33.1709647052288830
Zr  C  O
3  2  2
Selective  dynamics
Direct
0.0000000000000000  0.0000000000000000  0.0310655570264653  T  T  T
0.0000000000000000  0.0000000000000000  0.1231644116750826  T  T  T
0.0000000000000000  0.0000000000000000  0.2152632663236998  T  T  T
0.3333333333333357  0.6666666666666643  0.0781768075476742  T  T  T
0.3333333333333357  0.6666666666666643  0.1681520158024910  T  T  T
0.3333333333333357  0.6666666666666643  0.0000000000000000  T  T  T
0.3333333333333357  0.6666666666666643  0.2463288233501651  T  T  T

0.00000000E+00  0.00000000E+00  0.00000000E+00
0.00000000E+00  0.00000000E+00  0.00000000E+00
0.00000000E+00  0.00000000E+00  0.00000000E+00
0.00000000E+00  0.00000000E+00  0.00000000E+00
0.00000000E+00  0.00000000E+00  0.00000000E+00
0.00000000E+00  0.00000000E+00  0.00000000E+00
0.00000000E+00  0.00000000E+00  0.00000000E+00
