Cr3N2  (n=2)
1.00000000000000
2.6505258408592809  0.0000000000000000  0.0000000000000000
-1.3252629204296404  2.2954227115620234  0.0000000000000000
0.0000000000000000  0.0000000000000000  32.4813958551570252
Cr  N  O
3  2  2
Selective  dynamics
Direct
0.0000000000000000  0.0000000000000000  0.0348556068283508  T  T  T
0.0000000000000000  0.0000000000000000  0.1151643218862655  T  T  T
0.0000000000000000  0.0000000000000000  0.1954730369441801  T  T  T
0.3333333333333357  0.6666666666666643  0.0753337130695196  T  T  T
0.3333333333333357  0.6666666666666643  0.1549949307030114  T  T  T
0.3333333333333357  0.6666666666666643  0.0000000000000000  T  T  T
0.3333333333333357  0.6666666666666643  0.2303286437725309  T  T  T

0.00000000E+00  0.00000000E+00  0.00000000E+00
0.00000000E+00  0.00000000E+00  0.00000000E+00
0.00000000E+00  0.00000000E+00  0.00000000E+00
0.00000000E+00  0.00000000E+00  0.00000000E+00
0.00000000E+00  0.00000000E+00  0.00000000E+00
0.00000000E+00  0.00000000E+00  0.00000000E+00
0.00000000E+00  0.00000000E+00  0.00000000E+00
