Hf2C  (n=1)
1.00000000000000
3.1601244760292837  0.0000000000000000  0.0000000000000000
-1.5800622380146419  2.7367480755831401  0.0000000000000000
0.0000000000000000  0.0000000000000000  32.5677823492139780
Hf  C  O  H
2  1  2  2
Selective  dynamics
Direct
0.0000000000000000  0.0000000000000000  0.0726914897063218  T  T  T
0.0000000000000000  0.0000000000000000  0.1596787180059135  T  T  T
0.3333333333333357  0.6666666666666643  0.1161851038561177  T  T  T
0.3333333333333357  0.6666666666666643  0.0299701473076183  T  T  T
0.3333333333333357  0.6666666666666643  0.2024000604046170  T  T  T
0.3333333333333357  0.6666666666666643  0.0000000000000000  T  T  T
0.3333333333333357  0.6666666666666643  0.2323702077122432  T  T  T

0.00000000E+00  0.00000000E+00  0.00000000E+00
0.00000000E+00  0.00000000E+00  0.00000000E+00
0.00000000E+00  0.00000000E+00  0.00000000E+00
0.00000000E+00  0.00000000E+00  0.00000000E+00
0.00000000E+00  0.00000000E+00  0.00000000E+00
0.00000000E+00  0.00000000E+00  0.00000000E+00
0.00000000E+00  0.00000000E+00  0.00000000E+00
