Nb2C  (n=1)
1.00000000000000
3.0288536649280955  -0.0000000000000001  0.0000000000000000
-1.5144268324640477  2.6230642183124266  0.0000000000000000
0.0000000000000000  0.0000000000000000  32.5517224323449526
Nb  C  O  H
2  1  2  2
Selective  dynamics
Direct
0.0000000000000000  0.0000000000000000  0.0724333858507989  T  T  T
0.0000000000000000  0.0000000000000000  0.1595580993322154  T  T  T
0.3333333333333357  0.6666666666666643  0.1159957425915071  T  T  T
0.3333333333333357  0.6666666666666643  0.0298820946822257  T  T  T
0.3333333333333357  0.6666666666666643  0.2021093905007886  T  T  T
0.3333333333333357  0.6666666666666643  0.0000000000000000  T  T  T
0.3333333333333357  0.6666666666666643  0.2319914851830144  T  T  T

0.00000000E+00  0.00000000E+00  0.00000000E+00
0.00000000E+00  0.00000000E+00  0.00000000E+00
0.00000000E+00  0.00000000E+00  0.00000000E+00
0.00000000E+00  0.00000000E+00  0.00000000E+00
0.00000000E+00  0.00000000E+00  0.00000000E+00
0.00000000E+00  0.00000000E+00  0.00000000E+00
0.00000000E+00  0.00000000E+00  0.00000000E+00
