Zr2C  (n=1)
1.00000000000000
3.2177331239395324  0.0000000000000000  0.0000000000000000
-1.6088665619697662  2.7866386281775744  0.0000000000000000
0.0000000000000000  0.0000000000000000  32.5985177555909900
Zr  C  O  H
2  1  2  2
Selective  dynamics
Direct
0.0000000000000000  0.0000000000000000  0.0728725583174519  T  T  T
0.0000000000000000  0.0000000000000000  0.1602214066462699  T  T  T
0.3333333333333357  0.6666666666666643  0.1165469824818569  T  T  T
0.3333333333333357  0.6666666666666643  0.0298675339118292  T  T  T
0.3333333333333357  0.6666666666666643  0.2032264310518925  T  T  T
0.3333333333333357  0.6666666666666643  0.0000000000000000  T  T  T
0.3333333333333357  0.6666666666666643  0.2330939649637217  T  T  T

0.00000000E+00  0.00000000E+00  0.00000000E+00
0.00000000E+00  0.00000000E+00  0.00000000E+00
0.00000000E+00  0.00000000E+00  0.00000000E+00
0.00000000E+00  0.00000000E+00  0.00000000E+00
0.00000000E+00  0.00000000E+00  0.00000000E+00
0.00000000E+00  0.00000000E+00  0.00000000E+00
0.00000000E+00  0.00000000E+00  0.00000000E+00
