Sc2C  (n=1)
1.00000000000000
3.2073798902664787  -0.0000000000000001  0.0000000000000000
-1.6036899451332394  2.7776724647187234  0.0000000000000000
0.0000000000000000  0.0000000000000000  32.3556229168002005
Sc  C  O  H
2  1  2  2
Selective  dynamics
Direct
0.0000000000000000  0.0000000000000000  0.0709164397282429  T  T  T
0.0000000000000000  0.0000000000000000  0.1564203337196008  T  T  T
0.3333333333333357  0.6666666666666643  0.1136683867239179  T  T  T
0.3333333333333357  0.6666666666666643  0.0301203141550278  T  T  T
0.3333333333333357  0.6666666666666643  0.1972164592928159  T  T  T
0.3333333333333357  0.6666666666666643  0.0000000000000000  T  T  T
0.3333333333333357  0.6666666666666643  0.2273367734478355  T  T  T

0.00000000E+00  0.00000000E+00  0.00000000E+00
0.00000000E+00  0.00000000E+00  0.00000000E+00
0.00000000E+00  0.00000000E+00  0.00000000E+00
0.00000000E+00  0.00000000E+00  0.00000000E+00
0.00000000E+00  0.00000000E+00  0.00000000E+00
0.00000000E+00  0.00000000E+00  0.00000000E+00
0.00000000E+00  0.00000000E+00  0.00000000E+00
