Nb2N  (n=1)
1.00000000000000
2.9680616266199911  0.0000000000000003  0.0000000000000000
-1.4840308133099951  2.5704167688056945  0.0000000000000000
0.0000000000000000  0.0000000000000000  32.6289930403506574
Nb  N  O  H
2  1  2  2
Selective  dynamics
Direct
-0.0000000000000000  -0.0000000000000000  0.0729597060866045  T  T  T
-0.0000000000000000  -0.0000000000000000  0.1608505445367063  T  T  T
0.3333333333333357  0.6666666666666643  0.1169051253116593  T  T  T
0.3333333333333357  0.6666666666666643  0.0303487143663055  T  T  T
0.3333333333333357  0.6666666666666643  0.2034615362570053  T  T  T
0.3333333333333357  0.6666666666666643  0.0000000000000000  T  T  T
0.3333333333333357  0.6666666666666643  0.2338102506233110  T  T  T

0.00000000E+00  0.00000000E+00  0.00000000E+00
0.00000000E+00  0.00000000E+00  0.00000000E+00
0.00000000E+00  0.00000000E+00  0.00000000E+00
0.00000000E+00  0.00000000E+00  0.00000000E+00
0.00000000E+00  0.00000000E+00  0.00000000E+00
0.00000000E+00  0.00000000E+00  0.00000000E+00
0.00000000E+00  0.00000000E+00  0.00000000E+00
