Mo2C  (n=1)
1.00000000000000
2.9368646037156250  0.0000000000000001  0.0000000000000000
-1.4684323018578123  2.5433993544177698  0.0000000000000000
0.0000000000000000  0.0000000000000000  32.5365028699545320
Mo  C  O  H
2  1  2  2
Selective  dynamics
Direct
0.0000000000000000  -0.0000000000000000  0.0747331191782417  T  T  T
0.0000000000000000  -0.0000000000000000  0.1568991155483132  T  T  T
0.3333333333333357  0.6666666666666643  0.1158161173632737  T  T  T
0.3333333333333357  0.6666666666666643  0.0303644787821609  T  T  T
0.3333333333333357  0.6666666666666643  0.2012677559443938  T  T  T
0.3333333333333357  0.6666666666666643  0.0000000000000000  T  T  T
0.3333333333333357  0.6666666666666643  0.2316322347265548  T  T  T

0.00000000E+00  0.00000000E+00  0.00000000E+00
0.00000000E+00  0.00000000E+00  0.00000000E+00
0.00000000E+00  0.00000000E+00  0.00000000E+00
0.00000000E+00  0.00000000E+00  0.00000000E+00
0.00000000E+00  0.00000000E+00  0.00000000E+00
0.00000000E+00  0.00000000E+00  0.00000000E+00
0.00000000E+00  0.00000000E+00  0.00000000E+00
