Sc2N  (n=1)
1.00000000000000
3.1235393567705230  0.0000000000000000  0.0000000000000000
-1.5617696783852615  2.7050644328125681  0.0000000000000000
0.0000000000000000  0.0000000000000000  32.2734648803099944
Sc  N  O  H
2  1  2  2
Selective  dynamics
Direct
0.0000000000000000  0.0000000000000000  0.0704322930122458  T  T  T
0.0000000000000000  0.0000000000000000  0.1549375241822900  T  T  T
0.3333333333333357  0.6666666666666643  0.1126849085972638  T  T  T
0.3333333333333357  0.6666666666666643  0.0302391240163494  T  T  T
0.3333333333333357  0.6666666666666643  0.1951306931781784  T  T  T
0.3333333333333357  0.6666666666666643  0.0000000000000000  T  T  T
0.3333333333333357  0.6666666666666643  0.2253698171945439  T  T  T

0.00000000E+00  0.00000000E+00  0.00000000E+00
0.00000000E+00  0.00000000E+00  0.00000000E+00
0.00000000E+00  0.00000000E+00  0.00000000E+00
0.00000000E+00  0.00000000E+00  0.00000000E+00
0.00000000E+00  0.00000000E+00  0.00000000E+00
0.00000000E+00  0.00000000E+00  0.00000000E+00
0.00000000E+00  0.00000000E+00  0.00000000E+00
