Cr2N  (n=1)
1.00000000000000
2.7386923869531516  -0.0000000000000002  0.0000000000000000
-1.3693461934765756  2.3717771803748611  0.0000000000000000
0.0000000000000000  0.0000000000000000  32.0792096130207653
Cr  N  O  H
2  1  2  2
Selective  dynamics
Direct
0.0000000000000000  0.0000000000000000  0.0714246164260418  T  T  T
0.0000000000000000  0.0000000000000000  0.1492544370300434  T  T  T
0.3333333333333357  0.6666666666666643  0.1103395267280426  T  T  T
0.3333333333333357  0.6666666666666643  0.0306325131245224  T  T  T
0.3333333333333357  0.6666666666666643  0.1900465403315628  T  T  T
0.3333333333333357  0.6666666666666643  0.0000000000000000  T  T  T
0.3333333333333357  0.6666666666666643  0.2206790534560851  T  T  T

0.00000000E+00  0.00000000E+00  0.00000000E+00
0.00000000E+00  0.00000000E+00  0.00000000E+00
0.00000000E+00  0.00000000E+00  0.00000000E+00
0.00000000E+00  0.00000000E+00  0.00000000E+00
0.00000000E+00  0.00000000E+00  0.00000000E+00
0.00000000E+00  0.00000000E+00  0.00000000E+00
0.00000000E+00  0.00000000E+00  0.00000000E+00
