Ta2N  (n=1)
1.00000000000000
2.9435679911827246  0.0000000000000002  0.0000000000000000
-1.4717839955913621  2.5492046582482879  0.0000000000000000
0.0000000000000000  0.0000000000000000  32.6362293140072950
Ta  N  O  H
2  1  2  2
Selective  dynamics
Direct
-0.0000000000000000  -0.0000000000000000  0.0730045371163363  T  T  T
-0.0000000000000000  -0.0000000000000000  0.1609755970632611  T  T  T
0.3333333333333357  0.6666666666666643  0.1169900670897988  T  T  T
0.3333333333333357  0.6666666666666643  0.0306192215172692  T  T  T
0.3333333333333357  0.6666666666666643  0.2033609126623206  T  T  T
0.3333333333333357  0.6666666666666643  0.0000000000000000  T  T  T
0.3333333333333357  0.6666666666666643  0.2339801341795900  T  T  T

0.00000000E+00  0.00000000E+00  0.00000000E+00
0.00000000E+00  0.00000000E+00  0.00000000E+00
0.00000000E+00  0.00000000E+00  0.00000000E+00
0.00000000E+00  0.00000000E+00  0.00000000E+00
0.00000000E+00  0.00000000E+00  0.00000000E+00
0.00000000E+00  0.00000000E+00  0.00000000E+00
0.00000000E+00  0.00000000E+00  0.00000000E+00
