Ta2C  (n=1)
1.00000000000000
3.0086440914588661  -0.0000000000000010  0.0000000000000000
-1.5043220457294333  2.6055622142832937  0.0000000000000000
0.0000000000000000  0.0000000000000000  32.5428958874924632
Ta  C  O  H
2  1  2  2
Selective  dynamics
Direct
0.0000000000000000  0.0000000000000000  0.0726401141442904  T  T  T
0.0000000000000000  0.0000000000000000  0.1591430656185009  T  T  T
0.3333333333333357  0.6666666666666643  0.1158915898813956  T  T  T
0.3333333333333357  0.6666666666666643  0.0299611723109194  T  T  T
0.3333333333333357  0.6666666666666643  0.2018220074518718  T  T  T
0.3333333333333357  0.6666666666666643  0.0000000000000000  T  T  T
0.3333333333333357  0.6666666666666643  0.2317831797627911  T  T  T

0.00000000E+00  0.00000000E+00  0.00000000E+00
0.00000000E+00  0.00000000E+00  0.00000000E+00
0.00000000E+00  0.00000000E+00  0.00000000E+00
0.00000000E+00  0.00000000E+00  0.00000000E+00
0.00000000E+00  0.00000000E+00  0.00000000E+00
0.00000000E+00  0.00000000E+00  0.00000000E+00
0.00000000E+00  0.00000000E+00  0.00000000E+00
