Ti2C  (n=1)
1.00000000000000
2.9815493915339553  -0.0000000000000001  0.0000000000000000
-1.4907746957669776  2.5820975157871278  0.0000000000000000
0.0000000000000000  0.0000000000000000  32.1624081147010159
Ti  C  O  H
2  1  2  2
Selective  dynamics
Direct
-0.0000000000000000  0.0000000000000000  0.0708091899175812  T  T  T
-0.0000000000000000  0.0000000000000000  0.1518858299689169  T  T  T
0.3333333333333357  0.6666666666666643  0.1113475099432449  T  T  T
0.3333333333333357  0.6666666666666643  0.0303244336645625  T  T  T
0.3333333333333357  0.6666666666666643  0.1923705862219356  T  T  T
0.3333333333333357  0.6666666666666643  0.0000000000000000  T  T  T
0.3333333333333357  0.6666666666666643  0.2226950198864982  T  T  T

0.00000000E+00  0.00000000E+00  0.00000000E+00
0.00000000E+00  0.00000000E+00  0.00000000E+00
0.00000000E+00  0.00000000E+00  0.00000000E+00
0.00000000E+00  0.00000000E+00  0.00000000E+00
0.00000000E+00  0.00000000E+00  0.00000000E+00
0.00000000E+00  0.00000000E+00  0.00000000E+00
0.00000000E+00  0.00000000E+00  0.00000000E+00
