Zr2N  (n=1)
1.00000000000000
3.1434969696104402  0.0000000000000000  0.0000000000000000
-1.5717484848052201  2.7223482326145585  0.0000000000000000
0.0000000000000000  0.0000000000000000  32.6352837568537097
Zr  N  O  H
2  1  2  2
Selective  dynamics
Direct
0.0000000000000000  0.0000000000000000  0.0725697786623421  T  T  T
0.0000000000000000  0.0000000000000000  0.1613881612697715  T  T  T
0.3333333333333357  0.6666666666666643  0.1169789699660606  T  T  T
0.3333333333333357  0.6666666666666643  0.0298233887709163  T  T  T
0.3333333333333357  0.6666666666666643  0.2041345511611973  T  T  T
0.3333333333333357  0.6666666666666643  0.0000000000000000  T  T  T
0.3333333333333357  0.6666666666666643  0.2339579399321213  T  T  T

0.00000000E+00  0.00000000E+00  0.00000000E+00
0.00000000E+00  0.00000000E+00  0.00000000E+00
0.00000000E+00  0.00000000E+00  0.00000000E+00
0.00000000E+00  0.00000000E+00  0.00000000E+00
0.00000000E+00  0.00000000E+00  0.00000000E+00
0.00000000E+00  0.00000000E+00  0.00000000E+00
0.00000000E+00  0.00000000E+00  0.00000000E+00
