Cr2C  (n=1)
1.00000000000000
2.7403393936968912  0.0000000000000003  0.0000000000000000
-1.3701696968484456  2.3732035300399592  0.0000000000000000
0.0000000000000000  0.0000000000000000  32.0410200686742357
Cr  C  O  H
2  1  2  2
Selective  dynamics
Direct
-0.0000000000000000  -0.0000000000000000  0.0706259508762777  T  T  T
-0.0000000000000000  -0.0000000000000000  0.1491242335305564  T  T  T
0.3333333333333357  0.6666666666666643  0.1098750922034134  T  T  T
0.3333333333333357  0.6666666666666643  0.0307815516424447  T  T  T
0.3333333333333357  0.6666666666666643  0.1889686327643893  T  T  T
0.3333333333333357  0.6666666666666643  0.0000000000000000  T  T  T
0.3333333333333357  0.6666666666666643  0.2197501844068341  T  T  T

0.00000000E+00  0.00000000E+00  0.00000000E+00
0.00000000E+00  0.00000000E+00  0.00000000E+00
0.00000000E+00  0.00000000E+00  0.00000000E+00
0.00000000E+00  0.00000000E+00  0.00000000E+00
0.00000000E+00  0.00000000E+00  0.00000000E+00
0.00000000E+00  0.00000000E+00  0.00000000E+00
0.00000000E+00  0.00000000E+00  0.00000000E+00
