Hf2N  (n=1)
1.00000000000000
3.0824632819234132  0.0000000000000001  0.0000000000000000
-1.5412316409617064  2.6694915085412081  0.0000000000000000
0.0000000000000000  0.0000000000000000  32.5777694006058454
Hf  N  O  H
2  1  2  2
Selective  dynamics
Direct
-0.0000000000000000  -0.0000000000000000  0.0722914253019491  T  T  T
-0.0000000000000000  -0.0000000000000000  0.1603141072445849  T  T  T
0.3333333333333357  0.6666666666666643  0.1163027662732630  T  T  T
0.3333333333333357  0.6666666666666643  0.0299740847982917  T  T  T
0.3333333333333357  0.6666666666666643  0.2026314477482344  T  T  T
0.3333333333333357  0.6666666666666643  0.0000000000000000  T  T  T
0.3333333333333357  0.6666666666666643  0.2326055325465262  T  T  T

0.00000000E+00  0.00000000E+00  0.00000000E+00
0.00000000E+00  0.00000000E+00  0.00000000E+00
0.00000000E+00  0.00000000E+00  0.00000000E+00
0.00000000E+00  0.00000000E+00  0.00000000E+00
0.00000000E+00  0.00000000E+00  0.00000000E+00
0.00000000E+00  0.00000000E+00  0.00000000E+00
0.00000000E+00  0.00000000E+00  0.00000000E+00
