Ti2N  (n=1)
1.00000000000000
2.9082270002525377  0.0000000000000000  0.0000000000000000
-1.4541135001262688  2.5185984622592628  0.0000000000000000
0.0000000000000000  0.0000000000000000  32.1680934726219121
Ti  N  O  H
2  1  2  2
Selective  dynamics
Direct
0.0000000000000000  0.0000000000000000  0.0703895257181587  T  T  T
0.0000000000000000  0.0000000000000000  0.1524428743033915  T  T  T
0.3333333333333357  0.6666666666666643  0.1114162000107713  T  T  T
0.3333333333333357  0.6666666666666643  0.0302509762364297  T  T  T
0.3333333333333357  0.6666666666666643  0.1925814237851208  T  T  T
0.3333333333333357  0.6666666666666643  0.0000000000000000  T  T  T
0.3333333333333357  0.6666666666666643  0.2228324000215504  T  T  T

0.00000000E+00  0.00000000E+00  0.00000000E+00
0.00000000E+00  0.00000000E+00  0.00000000E+00
0.00000000E+00  0.00000000E+00  0.00000000E+00
0.00000000E+00  0.00000000E+00  0.00000000E+00
0.00000000E+00  0.00000000E+00  0.00000000E+00
0.00000000E+00  0.00000000E+00  0.00000000E+00
0.00000000E+00  0.00000000E+00  0.00000000E+00
