Mo2N  (n=1)
1.00000000000000
2.8647749159974634  -0.0000000000000001  0.0000000000000000
-1.4323874579987317  2.4809678534798820  0.0000000000000000
0.0000000000000000  0.0000000000000000  32.7424099873556145
Mo  N  O  H
2  1  2  2
Selective  dynamics
Direct
-0.0000000000000000  -0.0000000000000000  0.0759754489443175  T  T  T
-0.0000000000000000  -0.0000000000000000  0.1604888183574882  T  T  T
0.3333333333333357  0.6666666666666643  0.1182321336509066  T  T  T
0.3333333333333357  0.6666666666666643  0.0302592275879221  T  T  T
0.3333333333333357  0.6666666666666643  0.2062050397138910  T  T  T
0.3333333333333357  0.6666666666666643  0.0000000000000000  T  T  T
0.3333333333333357  0.6666666666666643  0.2364642673018131  T  T  T

0.00000000E+00  0.00000000E+00  0.00000000E+00
0.00000000E+00  0.00000000E+00  0.00000000E+00
0.00000000E+00  0.00000000E+00  0.00000000E+00
0.00000000E+00  0.00000000E+00  0.00000000E+00
0.00000000E+00  0.00000000E+00  0.00000000E+00
0.00000000E+00  0.00000000E+00  0.00000000E+00
0.00000000E+00  0.00000000E+00  0.00000000E+00
