Mo4C3  (n=3)
1.00000000000000
2.9897894670646408  0.0000000000000000  0.0000000000000000
-1.4948947335323204  2.5892336304995278  0.0000000000000000
-0.0000000000000002  -0.0000000000000005  35.2389243468174271
Mo  C  O
4  3  2
Selective  dynamics
Direct
0.0000000000000000  0.0000000000000000  0.0339462627936218  T  T  T
0.6666666666666643  0.3333333333333357  0.1114264175951271  T  T  T
0.3333333333333357  0.6666666666666643  0.1791308152547582  T  T  T
0.0000000000000000  0.0000000000000000  0.2566109700562552  T  T  T
0.3333333333333357  0.6666666666666643  0.0707149249692169  T  T  T
0.0000000000000000  0.0000000000000000  0.1452786164249385  T  T  T
0.6666666666666643  0.3333333333333357  0.2198423078806684  T  T  T
0.3333333333333357  0.6666666666666643  0.0000000000000000  T  T  T
0.6666666666666643  0.3333333333333357  0.2905572328498770  T  T  T

0.00000000E+00  0.00000000E+00  0.00000000E+00
0.00000000E+00  0.00000000E+00  0.00000000E+00
0.00000000E+00  0.00000000E+00  0.00000000E+00
0.00000000E+00  0.00000000E+00  0.00000000E+00
0.00000000E+00  0.00000000E+00  0.00000000E+00
0.00000000E+00  0.00000000E+00  0.00000000E+00
0.00000000E+00  0.00000000E+00  0.00000000E+00
0.00000000E+00  0.00000000E+00  0.00000000E+00
0.00000000E+00  0.00000000E+00  0.00000000E+00
