Zr4C3  (n=3)
1.00000000000000
3.2841634826473509  0.0000000000000000  0.0000000000000000
-1.6420817413236755  2.8441690064117728  0.0000000000000000
0.0000000000000000  0.0000000000000003  35.4983582867912730
Zr  C  O
4  3  2
Selective  dynamics
Direct
0.0000000000000000  0.0000000000000000  0.0293697614308954  T  T  T
0.6666666666666643  0.3333333333333357  0.1088714266080117  T  T  T
0.3333333333333357  0.6666666666666643  0.1868706525601297  T  T  T
0.0000000000000000  0.0000000000000000  0.2663723177372461  T  T  T
0.3333333333333357  0.6666666666666643  0.0711937460991053  T  T  T
0.0000000000000000  0.0000000000000000  0.1478710395840707  T  T  T
0.6666666666666643  0.3333333333333357  0.2245483330690281  T  T  T
0.3333333333333357  0.6666666666666643  0.0000000000000000  T  T  T
0.6666666666666643  0.3333333333333357  0.2957420791681414  T  T  T

0.00000000E+00  0.00000000E+00  0.00000000E+00
0.00000000E+00  0.00000000E+00  0.00000000E+00
0.00000000E+00  0.00000000E+00  0.00000000E+00
0.00000000E+00  0.00000000E+00  0.00000000E+00
0.00000000E+00  0.00000000E+00  0.00000000E+00
0.00000000E+00  0.00000000E+00  0.00000000E+00
0.00000000E+00  0.00000000E+00  0.00000000E+00
0.00000000E+00  0.00000000E+00  0.00000000E+00
0.00000000E+00  0.00000000E+00  0.00000000E+00
