Zr4N3  (n=3)
1.00000000000000
3.2121061328052551  0.0000000000000000  0.0000000000000000
-1.6060530664026276  2.7817655109257031  0.0000000000000000
-0.0000000000000001  -0.0000000000000004  35.4145522023989301
Zr  N  O
4  3  2
Selective  dynamics
Direct
0.0000000000000000  0.0000000000000000  0.0304263589531725  T  T  T
0.6666666666666643  0.3333333333333357  0.1076031946212500  T  T  T
0.3333333333333357  0.6666666666666643  0.1864723069657352  T  T  T
0.0000000000000000  0.0000000000000000  0.2636491426338205  T  T  T
0.3333333333333357  0.6666666666666643  0.0721076095662093  T  T  T
0.0000000000000000  0.0000000000000000  0.1470377507934925  T  T  T
0.6666666666666643  0.3333333333333357  0.2219678920207678  T  T  T
0.3333333333333357  0.6666666666666643  0.0000000000000000  T  T  T
0.6666666666666643  0.3333333333333357  0.2940755015869851  T  T  T

0.00000000E+00  0.00000000E+00  0.00000000E+00
0.00000000E+00  0.00000000E+00  0.00000000E+00
0.00000000E+00  0.00000000E+00  0.00000000E+00
0.00000000E+00  0.00000000E+00  0.00000000E+00
0.00000000E+00  0.00000000E+00  0.00000000E+00
0.00000000E+00  0.00000000E+00  0.00000000E+00
0.00000000E+00  0.00000000E+00  0.00000000E+00
0.00000000E+00  0.00000000E+00  0.00000000E+00
0.00000000E+00  0.00000000E+00  0.00000000E+00
