Sc4N3  (n=3)
1.00000000000000
3.1775996297308309  0.0000000000000000  0.0000000000000000
-1.5887998148654154  2.7518820026278408  -0.0000000000000001
-0.0000000000000001  -0.0000000000000002  34.9823141578349777
Sc  N  O
4  3  2
Selective  dynamics
Direct
0.0000000000000000  0.0000000000000000  0.0249499503804663  T  T  T
0.6666666666666643  0.3333333333333357  0.1045332448995711  T  T  T
0.3333333333333357  0.6666666666666643  0.1808199227838630  T  T  T
0.0000000000000000  0.0000000000000000  0.2604032173029678  T  T  T
0.3333333333333357  0.6666666666666643  0.0708675466597439  T  T  T
0.0000000000000000  0.0000000000000000  0.1426765838417171  T  T  T
0.6666666666666643  0.3333333333333357  0.2144856210236823  T  T  T
0.3333333333333357  0.6666666666666643  0.0000000000000000  T  T  T
0.6666666666666643  0.3333333333333357  0.2853531676834262  T  T  T

0.00000000E+00  0.00000000E+00  0.00000000E+00
0.00000000E+00  0.00000000E+00  0.00000000E+00
0.00000000E+00  0.00000000E+00  0.00000000E+00
0.00000000E+00  0.00000000E+00  0.00000000E+00
0.00000000E+00  0.00000000E+00  0.00000000E+00
0.00000000E+00  0.00000000E+00  0.00000000E+00
0.00000000E+00  0.00000000E+00  0.00000000E+00
0.00000000E+00  0.00000000E+00  0.00000000E+00
0.00000000E+00  0.00000000E+00  0.00000000E+00
