Ta4C3  (n=3)
1.00000000000000
3.1017235578044562  0.0000000000000000  0.0000000000000000
-1.5508617789022281  2.6861713967481848  0.0000000000000000
0.0000000000000000  -0.0000000000000003  35.1476447258904940
Ta  C  O
4  3  2
Selective  dynamics
Direct
0.0000000000000000  0.0000000000000000  0.0328024241955647  T  T  T
0.6666666666666643  0.3333333333333357  0.1054393648935573  T  T  T
0.3333333333333357  0.6666666666666643  0.1832754211192819  T  T  T
0.0000000000000000  0.0000000000000000  0.2559123618172666  T  T  T
0.3333333333333357  0.6666666666666643  0.0706265686764667  T  T  T
0.0000000000000000  0.0000000000000000  0.1443573930064197  T  T  T
0.6666666666666643  0.3333333333333357  0.2180882173363645  T  T  T
0.3333333333333357  0.6666666666666643  0.0000000000000000  T  T  T
0.6666666666666643  0.3333333333333357  0.2887147860128314  T  T  T

0.00000000E+00  0.00000000E+00  0.00000000E+00
0.00000000E+00  0.00000000E+00  0.00000000E+00
0.00000000E+00  0.00000000E+00  0.00000000E+00
0.00000000E+00  0.00000000E+00  0.00000000E+00
0.00000000E+00  0.00000000E+00  0.00000000E+00
0.00000000E+00  0.00000000E+00  0.00000000E+00
0.00000000E+00  0.00000000E+00  0.00000000E+00
0.00000000E+00  0.00000000E+00  0.00000000E+00
0.00000000E+00  0.00000000E+00  0.00000000E+00
