Nb4C3  (n=3)
1.00000000000000
3.1240618275858121  0.0000000000000000  0.0000000000000000
-1.5620309137929060  2.7055169058774635  0.0000000000000000
0.0000000000000000  0.0000000000000002  35.1579902012845480
Nb  C  O
4  3  2
Selective  dynamics
Direct
0.0000000000000000  0.0000000000000000  0.0325387146972105  T  T  T
0.6666666666666643  0.3333333333333357  0.1059916060172025  T  T  T
0.3333333333333357  0.6666666666666643  0.1829324804601132  T  T  T
0.0000000000000000  0.0000000000000000  0.2563853717801051  T  T  T
0.3333333333333357  0.6666666666666643  0.0701850571152315  T  T  T
0.0000000000000000  0.0000000000000000  0.1444620432386617  T  T  T
0.6666666666666643  0.3333333333333357  0.2187390293620760  T  T  T
0.3333333333333357  0.6666666666666643  0.0000000000000000  T  T  T
0.6666666666666643  0.3333333333333357  0.2889240864773156  T  T  T

0.00000000E+00  0.00000000E+00  0.00000000E+00
0.00000000E+00  0.00000000E+00  0.00000000E+00
0.00000000E+00  0.00000000E+00  0.00000000E+00
0.00000000E+00  0.00000000E+00  0.00000000E+00
0.00000000E+00  0.00000000E+00  0.00000000E+00
0.00000000E+00  0.00000000E+00  0.00000000E+00
0.00000000E+00  0.00000000E+00  0.00000000E+00
0.00000000E+00  0.00000000E+00  0.00000000E+00
0.00000000E+00  0.00000000E+00  0.00000000E+00
