Ta4N3  (n=3)
1.00000000000000
3.0205107459247285  0.0000000000000000  0.0000000000000000
-1.5102553729623642  2.6158390384835357  0.0000000000000000
0.0000000000000001  0.0000000000000002  35.3816867052118056
Ta  N  O
4  3  2
Selective  dynamics
Direct
0.0000000000000000  0.0000000000000000  0.0326966989530186  T  T  T
0.6666666666666643  0.3333333333333357  0.1109717256850502  T  T  T
0.3333333333333357  0.6666666666666643  0.1824480536405872  T  T  T
0.0000000000000000  0.0000000000000000  0.2607230803726109  T  T  T
0.3333333333333357  0.6666666666666643  0.0718199708165435  T  T  T
0.0000000000000000  0.0000000000000000  0.1467098896628148  T  T  T
0.6666666666666643  0.3333333333333357  0.2215998085090780  T  T  T
0.3333333333333357  0.6666666666666643  0.0000000000000000  T  T  T
0.6666666666666643  0.3333333333333357  0.2934197793256296  T  T  T

0.00000000E+00  0.00000000E+00  0.00000000E+00
0.00000000E+00  0.00000000E+00  0.00000000E+00
0.00000000E+00  0.00000000E+00  0.00000000E+00
0.00000000E+00  0.00000000E+00  0.00000000E+00
0.00000000E+00  0.00000000E+00  0.00000000E+00
0.00000000E+00  0.00000000E+00  0.00000000E+00
0.00000000E+00  0.00000000E+00  0.00000000E+00
0.00000000E+00  0.00000000E+00  0.00000000E+00
0.00000000E+00  0.00000000E+00  0.00000000E+00
