Hf4N3  (n=3)
1.00000000000000
3.1591001994007550  0.0000000000000000  0.0000000000000000
-1.5795500997003775  2.7358610260452410  0.0000000000000000
0.0000000000000000  -0.0000000000000004  35.2449446528659394
Hf  N  O
4  3  2
Selective  dynamics
Direct
0.0000000000000000  0.0000000000000000  0.0301881935763408  T  T  T
0.6666666666666643  0.3333333333333357  0.1061246314361146  T  T  T
0.3333333333333357  0.6666666666666643  0.1845537836889648  T  T  T
0.0000000000000000  0.0000000000000000  0.2604902215487386  T  T  T
0.3333333333333357  0.6666666666666643  0.0717131730254411  T  T  T
0.0000000000000000  0.0000000000000000  0.1453392075625398  T  T  T
0.6666666666666643  0.3333333333333357  0.2189652420996225  T  T  T
0.3333333333333357  0.6666666666666643  0.0000000000000000  T  T  T
0.6666666666666643  0.3333333333333357  0.2906784151250716  T  T  T

0.00000000E+00  0.00000000E+00  0.00000000E+00
0.00000000E+00  0.00000000E+00  0.00000000E+00
0.00000000E+00  0.00000000E+00  0.00000000E+00
0.00000000E+00  0.00000000E+00  0.00000000E+00
0.00000000E+00  0.00000000E+00  0.00000000E+00
0.00000000E+00  0.00000000E+00  0.00000000E+00
0.00000000E+00  0.00000000E+00  0.00000000E+00
0.00000000E+00  0.00000000E+00  0.00000000E+00
0.00000000E+00  0.00000000E+00  0.00000000E+00
