Mo4N3  (n=3)
1.00000000000000
2.8269271096673063  0.0000000000000000  0.0000000000000000
-1.4134635548336532  2.4481906916866993  0.0000000000000000
-0.0000000000000002  0.0000000000000004  36.2875597774170231
Mo  N  O
4  3  2
Selective  dynamics
Direct
0.0000000000000000  0.0000000000000000  0.0339577844273835  T  T  T
0.6666666666666643  0.3333333333333357  0.1158578791380674  T  T  T
0.3333333333333357  0.6666666666666643  0.1952007824708528  T  T  T
0.0000000000000000  0.0000000000000000  0.2771008771815366  T  T  T
0.3333333333333357  0.6666666666666643  0.0711005826386591  T  T  T
0.0000000000000000  0.0000000000000000  0.1555293308044601  T  T  T
0.6666666666666643  0.3333333333333357  0.2399580789702455  T  T  T
0.3333333333333357  0.6666666666666643  0.0000000000000000  T  T  T
0.6666666666666643  0.3333333333333357  0.3110586616089202  T  T  T

0.00000000E+00  0.00000000E+00  0.00000000E+00
0.00000000E+00  0.00000000E+00  0.00000000E+00
0.00000000E+00  0.00000000E+00  0.00000000E+00
0.00000000E+00  0.00000000E+00  0.00000000E+00
0.00000000E+00  0.00000000E+00  0.00000000E+00
0.00000000E+00  0.00000000E+00  0.00000000E+00
0.00000000E+00  0.00000000E+00  0.00000000E+00
0.00000000E+00  0.00000000E+00  0.00000000E+00
0.00000000E+00  0.00000000E+00  0.00000000E+00
