Ti4N3  (n=3)
1.00000000000000
2.9444158421434699  0.0000000000000000  0.0000000000000000
-1.4722079210717349  2.5499389186506400  0.0000000000000000
0.0000000000000000  0.0000000000000003  34.7181243653684959
Ti  N  O
4  3  2
Selective  dynamics
Direct
0.0000000000000000  0.0000000000000000  0.0298314458751816  T  T  T
0.6666666666666643  0.3333333333333357  0.1030372556705363  T  T  T
0.3333333333333357  0.6666666666666643  0.1768777611401751  T  T  T
0.0000000000000000  0.0000000000000000  0.2500835709355297  T  T  T
0.3333333333333357  0.6666666666666643  0.0693709624277427  T  T  T
0.0000000000000000  0.0000000000000000  0.1399575084053517  T  T  T
0.6666666666666643  0.3333333333333357  0.2105440543829607  T  T  T
0.3333333333333357  0.6666666666666643  0.0000000000000000  T  T  T
0.6666666666666643  0.3333333333333357  0.2799150168107115  T  T  T

0.00000000E+00  0.00000000E+00  0.00000000E+00
0.00000000E+00  0.00000000E+00  0.00000000E+00
0.00000000E+00  0.00000000E+00  0.00000000E+00
0.00000000E+00  0.00000000E+00  0.00000000E+00
0.00000000E+00  0.00000000E+00  0.00000000E+00
0.00000000E+00  0.00000000E+00  0.00000000E+00
0.00000000E+00  0.00000000E+00  0.00000000E+00
0.00000000E+00  0.00000000E+00  0.00000000E+00
0.00000000E+00  0.00000000E+00  0.00000000E+00
