Nb4N3  (n=3)
1.00000000000000
3.0409988125766652  0.0000000000000000  0.0000000000000000
-1.5204994062883326  2.6335822246510188  0.0000000000000000
0.0000000000000000  0.0000000000000001  35.4287806811007826
Nb  N  O
4  3  2
Selective  dynamics
Direct
0.0000000000000000  0.0000000000000000  0.0327916078531881  T  T  T
0.6666666666666643  0.3333333333333357  0.1111253075731479  T  T  T
0.3333333333333357  0.6666666666666643  0.1832336988790339  T  T  T
0.0000000000000000  0.0000000000000000  0.2615673985989937  T  T  T
0.3333333333333357  0.6666666666666643  0.0717242454814799  T  T  T
0.0000000000000000  0.0000000000000000  0.1471795032260951  T  T  T
0.6666666666666643  0.3333333333333357  0.2226347609707019  T  T  T
0.3333333333333357  0.6666666666666643  0.0000000000000000  T  T  T
0.6666666666666643  0.3333333333333357  0.2943590064521734  T  T  T

0.00000000E+00  0.00000000E+00  0.00000000E+00
0.00000000E+00  0.00000000E+00  0.00000000E+00
0.00000000E+00  0.00000000E+00  0.00000000E+00
0.00000000E+00  0.00000000E+00  0.00000000E+00
0.00000000E+00  0.00000000E+00  0.00000000E+00
0.00000000E+00  0.00000000E+00  0.00000000E+00
0.00000000E+00  0.00000000E+00  0.00000000E+00
0.00000000E+00  0.00000000E+00  0.00000000E+00
0.00000000E+00  0.00000000E+00  0.00000000E+00
