Cr4C3  (n=3)
1.00000000000000
2.7524410477318084  0.0000000000000000  0.0000000000000000
-1.3762205238659042  2.3836838697519900  0.0000000000000001
-0.0000000000000001  0.0000000000000002  34.7201623871164315
Cr  C  O
4  3  2
Selective  dynamics
Direct
0.0000000000000000  0.0000000000000000  0.0323215201064305  T  T  T
0.6666666666666643  0.3333333333333357  0.1042322185833232  T  T  T
0.3333333333333357  0.6666666666666643  0.1757250661419139  T  T  T
0.0000000000000000  0.0000000000000000  0.2476357646188065  T  T  T
0.3333333333333357  0.6666666666666643  0.0678599848835706  T  T  T
0.0000000000000000  0.0000000000000000  0.1399786423626185  T  T  T
0.6666666666666643  0.3333333333333357  0.2120972998416580  T  T  T
0.3333333333333357  0.6666666666666643  0.0000000000000000  T  T  T
0.6666666666666643  0.3333333333333357  0.2799572847252372  T  T  T

0.00000000E+00  0.00000000E+00  0.00000000E+00
0.00000000E+00  0.00000000E+00  0.00000000E+00
0.00000000E+00  0.00000000E+00  0.00000000E+00
0.00000000E+00  0.00000000E+00  0.00000000E+00
0.00000000E+00  0.00000000E+00  0.00000000E+00
0.00000000E+00  0.00000000E+00  0.00000000E+00
0.00000000E+00  0.00000000E+00  0.00000000E+00
0.00000000E+00  0.00000000E+00  0.00000000E+00
0.00000000E+00  0.00000000E+00  0.00000000E+00
