Hf4C3  (n=3)
1.00000000000000
3.2290661815238804  0.0000000000000000  0.0000000000000000
-1.6145330907619402  2.7964533439607524  -0.0000000000000001
-0.0000000000000004  0.0000000000000017  35.3635848133414257
Hf  C  O
4  3  2
Selective  dynamics
Direct
0.0000000000000000  0.0000000000000000  0.0295021619608585  T  T  T
0.6666666666666643  0.3333333333333357  0.1079897019677297  T  T  T
0.3333333333333357  0.6666666666666643  0.1850683934726288  T  T  T
0.0000000000000000  0.0000000000000000  0.2635559334795001  T  T  T
0.3333333333333357  0.6666666666666643  0.0707328483883538  T  T  T
0.0000000000000000  0.0000000000000000  0.1465290477201833  T  T  T
0.6666666666666643  0.3333333333333357  0.2223252470519965  T  T  T
0.3333333333333357  0.6666666666666643  0.0000000000000000  T  T  T
0.6666666666666643  0.3333333333333357  0.2930580954403585  T  T  T

0.00000000E+00  0.00000000E+00  0.00000000E+00
0.00000000E+00  0.00000000E+00  0.00000000E+00
0.00000000E+00  0.00000000E+00  0.00000000E+00
0.00000000E+00  0.00000000E+00  0.00000000E+00
0.00000000E+00  0.00000000E+00  0.00000000E+00
0.00000000E+00  0.00000000E+00  0.00000000E+00
0.00000000E+00  0.00000000E+00  0.00000000E+00
0.00000000E+00  0.00000000E+00  0.00000000E+00
0.00000000E+00  0.00000000E+00  0.00000000E+00
