Sc4C3  (n=3)
1.00000000000000
3.4437456294225353  0.0000000000000001  0.0000000000000000
-1.7218728147112676  2.9823711994314710  -0.0000000000000001
0.0000000000000006  0.0000000000000008  33.8073563952137803
Sc  C  O
4  3  2
Selective  dynamics
Direct
0.0000000000000000  0.0000000000000000  0.0196953173419054  T  T  T
0.6666666666666643  0.3333333333333357  0.0940395290514425  T  T  T
0.3333333333333357  0.6666666666666643  0.1664764454085026  T  T  T
0.0000000000000000  0.0000000000000000  0.2408206571180317  T  T  T
0.3333333333333357  0.6666666666666643  0.0501411737439003  T  T  T
0.0000000000000000  0.0000000000000000  0.1302579872299726  T  T  T
0.6666666666666643  0.3333333333333357  0.2103748007160368  T  T  T
0.3333333333333357  0.6666666666666643  0.0000000000000000  T  T  T
0.6666666666666643  0.3333333333333357  0.2605159744599452  T  T  T

0.00000000E+00  0.00000000E+00  0.00000000E+00
0.00000000E+00  0.00000000E+00  0.00000000E+00
0.00000000E+00  0.00000000E+00  0.00000000E+00
0.00000000E+00  0.00000000E+00  0.00000000E+00
0.00000000E+00  0.00000000E+00  0.00000000E+00
0.00000000E+00  0.00000000E+00  0.00000000E+00
0.00000000E+00  0.00000000E+00  0.00000000E+00
0.00000000E+00  0.00000000E+00  0.00000000E+00
0.00000000E+00  0.00000000E+00  0.00000000E+00
