Cr4N3  (n=3)
1.00000000000000
2.7142573856287040  0.0000000000000000  0.0000000000000000
-1.3571286928143520  2.3506158483647632  0.0000000000000000
0.0000000000000000  0.0000000000000013  34.9938059500650027
Cr  N  O
4  3  2
Selective  dynamics
Direct
0.0000000000000000  0.0000000000000000  0.0320825875076753  T  T  T
0.6666666666666643  0.3333333333333357  0.1074659835337694  T  T  T
0.3333333333333357  0.6666666666666643  0.1781218706232242  T  T  T
0.0000000000000000  0.0000000000000000  0.2535052666493098  T  T  T
0.3333333333333357  0.6666666666666643  0.0679972050495247  T  T  T
0.0000000000000000  0.0000000000000000  0.1427939270785010  T  T  T
0.6666666666666643  0.3333333333333357  0.2175906491074605  T  T  T
0.3333333333333357  0.6666666666666643  0.0000000000000000  T  T  T
0.6666666666666643  0.3333333333333357  0.2855878541569851  T  T  T

0.00000000E+00  0.00000000E+00  0.00000000E+00
0.00000000E+00  0.00000000E+00  0.00000000E+00
0.00000000E+00  0.00000000E+00  0.00000000E+00
0.00000000E+00  0.00000000E+00  0.00000000E+00
0.00000000E+00  0.00000000E+00  0.00000000E+00
0.00000000E+00  0.00000000E+00  0.00000000E+00
0.00000000E+00  0.00000000E+00  0.00000000E+00
0.00000000E+00  0.00000000E+00  0.00000000E+00
0.00000000E+00  0.00000000E+00  0.00000000E+00
