Ti4C3  (n=3)
1.00000000000000
3.0126304498774430  0.0000000000000000  0.0000000000000000
-1.5063152249387215  2.6090145018674349  0.0000000000000000
0.0000000000000001  -0.0000000000000008  34.7431209623018233
Ti  C  O
4  3  2
Selective  dynamics
Direct
0.0000000000000000  0.0000000000000000  0.0284967940929759  T  T  T
0.6666666666666643  0.3333333333333357  0.1035880560873349  T  T  T
0.3333333333333357  0.6666666666666643  0.1768450395137667  T  T  T
0.0000000000000000  0.0000000000000000  0.2519363015081257  T  T  T
0.3333333333333357  0.6666666666666643  0.0682337228006856  T  T  T
0.0000000000000000  0.0000000000000000  0.1402165478005508  T  T  T
0.6666666666666643  0.3333333333333357  0.2121993728004077  T  T  T
0.3333333333333357  0.6666666666666643  0.0000000000000000  T  T  T
0.6666666666666643  0.3333333333333357  0.2804330956011016  T  T  T

0.00000000E+00  0.00000000E+00  0.00000000E+00
0.00000000E+00  0.00000000E+00  0.00000000E+00
0.00000000E+00  0.00000000E+00  0.00000000E+00
0.00000000E+00  0.00000000E+00  0.00000000E+00
0.00000000E+00  0.00000000E+00  0.00000000E+00
0.00000000E+00  0.00000000E+00  0.00000000E+00
0.00000000E+00  0.00000000E+00  0.00000000E+00
0.00000000E+00  0.00000000E+00  0.00000000E+00
0.00000000E+00  0.00000000E+00  0.00000000E+00
