Zr2C  (n=1)
1.00000000000000
3.3945807431171158  -0.0000000000000001  0.0000000000000000
-1.6972903715585579  2.9397931594347804  0.0000000000000000
0.0000000000000000  0.0000000000000000  31.3542271915724839
Zr  C  Cl
2  1  2
Selective  dynamics
Direct
-0.0000000000000000  -0.0000000000000000  0.0568197537072600  T  T  T
0.0000000000000000  -0.0000000000000000  0.1458395927581632  T  T  T
0.3333333333333357  0.6666666666666643  0.1013296732327116  T  T  T
0.6666666666666643  0.3333333333333357  0.0000000000000000  T  T  T
0.6666666666666643  0.3333333333333357  0.2026593464654233  T  T  T

0.00000000E+00  0.00000000E+00  0.00000000E+00
0.00000000E+00  0.00000000E+00  0.00000000E+00
0.00000000E+00  0.00000000E+00  0.00000000E+00
0.00000000E+00  0.00000000E+00  0.00000000E+00
0.00000000E+00  0.00000000E+00  0.00000000E+00
