Ta2C  (n=1)
1.00000000000000
3.1076227155437741  -0.0000000000000019  0.0000000000000000
-1.5538113577718884  2.6912802173175079  0.0000000000000000
0.0000000000000000  0.0000000000000000  31.4939899269911550
Ta  C  Cl
2  1  2
Selective  dynamics
Direct
-0.0000000000000000  0.0000000000000000  0.0583170021871387  T  T  T
-0.0000000000000000  0.0000000000000000  0.1478807498933507  T  T  T
0.3333333333333357  0.6666666666666643  0.1030988760402447  T  T  T
0.6666666666666643  0.3333333333333357  0.0000000000000000  T  T  T
0.6666666666666643  0.3333333333333357  0.2061977520804895  T  T  T

0.00000000E+00  0.00000000E+00  0.00000000E+00
0.00000000E+00  0.00000000E+00  0.00000000E+00
0.00000000E+00  0.00000000E+00  0.00000000E+00
0.00000000E+00  0.00000000E+00  0.00000000E+00
0.00000000E+00  0.00000000E+00  0.00000000E+00
