Mo2N  (n=1)
1.00000000000000
3.0517664149442560  0.0000000000000000  0.0000000000000000
-1.5258832074721278  2.6429072419694881  0.0000000000000000
0.0000000000000000  0.0000000000000000  31.2521697818132438
Mo  N  Cl
2  1  2
Selective  dynamics
Direct
0.0000000000000000  0.0000000000000000  0.0582293271507933  T  T  T
0.0000000000000000  0.0000000000000000  0.1418262154071382  T  T  T
0.3333333333333357  0.6666666666666643  0.1000277712789692  T  T  T
0.6666666666666643  0.3333333333333357  0.0000000000000000  T  T  T
0.6666666666666643  0.3333333333333357  0.2000555425579316  T  T  T

0.00000000E+00  0.00000000E+00  0.00000000E+00
0.00000000E+00  0.00000000E+00  0.00000000E+00
0.00000000E+00  0.00000000E+00  0.00000000E+00
0.00000000E+00  0.00000000E+00  0.00000000E+00
0.00000000E+00  0.00000000E+00  0.00000000E+00
