Nb2C  (n=1)
1.00000000000000
3.1388627669317573  0.0000000000000000  0.0000000000000000
-1.5694313834658786  2.7183348955470339  0.0000000000000000
0.0000000000000000  0.0000000000000000  31.4805368078843841
Nb  C  Cl
2  1  2
Selective  dynamics
Direct
-0.0000000000000000  0.0000000000000000  0.0579345203637776  T  T  T
-0.0000000000000000  0.0000000000000000  0.1479240025525570  T  T  T
0.3333333333333357  0.6666666666666643  0.1029292614581674  T  T  T
0.6666666666666643  0.3333333333333357  0.0000000000000000  T  T  T
0.6666666666666643  0.3333333333333357  0.2058585229163346  T  T  T

0.00000000E+00  0.00000000E+00  0.00000000E+00
0.00000000E+00  0.00000000E+00  0.00000000E+00
0.00000000E+00  0.00000000E+00  0.00000000E+00
0.00000000E+00  0.00000000E+00  0.00000000E+00
0.00000000E+00  0.00000000E+00  0.00000000E+00
