Nb2N  (n=1)
1.00000000000000
3.1000686891859597  0.0000000000000001  0.0000000000000000
-1.5500343445929798  2.6847382386526135  0.0000000000000000
0.0000000000000000  0.0000000000000000  31.4636244346065901
Nb  N  Cl
2  1  2
Selective  dynamics
Direct
0.0000000000000000  0.0000000000000000  0.0582510722044064  T  T  T
0.0000000000000000  0.0000000000000000  0.1471805826273650  T  T  T
0.3333333333333357  0.6666666666666643  0.1027158274158892  T  T  T
0.6666666666666643  0.3333333333333357  0.0000000000000000  T  T  T
0.6666666666666643  0.3333333333333357  0.2054316548317714  T  T  T

0.00000000E+00  0.00000000E+00  0.00000000E+00
0.00000000E+00  0.00000000E+00  0.00000000E+00
0.00000000E+00  0.00000000E+00  0.00000000E+00
0.00000000E+00  0.00000000E+00  0.00000000E+00
0.00000000E+00  0.00000000E+00  0.00000000E+00
