Ti2N  (n=1)
1.00000000000000
3.2200681597577709  0.0000000000000000  0.0000000000000000
-1.6100340798788855  2.7886608284569196  0.0000000000000000
0.0000000000000000  0.0000000000000000  30.6504163772229568
Ti  N  Cl
2  1  2
Selective  dynamics
Direct
-0.0000000000000000  0.0000000000000000  0.0536732236889038  T  T  T
-0.0000000000000000  0.0000000000000000  0.1306771716754513  T  T  T
0.3333333333333357  0.6666666666666643  0.0921751976821775  T  T  T
0.6666666666666643  0.3333333333333357  0.0000000000000000  T  T  T
0.6666666666666643  0.3333333333333357  0.1843503953643486  T  T  T

0.00000000E+00  0.00000000E+00  0.00000000E+00
0.00000000E+00  0.00000000E+00  0.00000000E+00
0.00000000E+00  0.00000000E+00  0.00000000E+00
0.00000000E+00  0.00000000E+00  0.00000000E+00
0.00000000E+00  0.00000000E+00  0.00000000E+00
