Ta2N  (n=1)
1.00000000000000
3.0550345361931188  0.0000000000000000  -0.0000000000000000
-1.5275172680965594  2.6457375180375711  -0.0000000000000000
-0.0000000000000000  0.0000000000000000  31.5336644260897963
Ta  N  Cl
2  1  2
Selective  dynamics
Direct
0.0000000000000000  0.0000000000000000  0.0589752811042156  T  T  T
0.0000000000000000  -0.0000000000000000  0.1482212038271101  T  T  T
0.3333333333333357  0.6666666666666643  0.1035982424656629  T  T  T
0.6666666666666643  0.3333333333333357  0.0000000000000000  T  T  T
0.6666666666666643  0.3333333333333357  0.2071964849313257  T  T  T

0.00000000E+00  0.00000000E+00  0.00000000E+00
0.00000000E+00  0.00000000E+00  0.00000000E+00
0.00000000E+00  0.00000000E+00  0.00000000E+00
0.00000000E+00  0.00000000E+00  0.00000000E+00
0.00000000E+00  0.00000000E+00  0.00000000E+00
