Sc2N  (n=1)
1.00000000000000
3.3401341024361471  0.0000000000000000  0.0000000000000000
-1.6700670512180733  2.8926409851743942  0.0000000000000000
0.0000000000000000  0.0000000000000000  30.9920993977621144
Sc  N  Cl
2  1  2
Selective  dynamics
Direct
-0.0000000000000000  0.0000000000000000  0.0543174050333578  T  T  T
-0.0000000000000000  -0.0000000000000000  0.1390253989134698  T  T  T
0.3333333333333357  0.6666666666666643  0.0966714019734102  T  T  T
0.6666666666666643  0.3333333333333357  0.0000000000000000  T  T  T
0.6666666666666643  0.3333333333333357  0.1933428039468276  T  T  T

0.00000000E+00  0.00000000E+00  0.00000000E+00
0.00000000E+00  0.00000000E+00  0.00000000E+00
0.00000000E+00  0.00000000E+00  0.00000000E+00
0.00000000E+00  0.00000000E+00  0.00000000E+00
0.00000000E+00  0.00000000E+00  0.00000000E+00
