Hf2C  (n=1)
1.00000000000000
3.3368580460850379  0.0000000000000000  0.0000000000000000
-1.6684290230425192  2.8898038372834680  0.0000000000000000
0.0000000000000000  0.0000000000000000  31.2837253953650603
Hf  C  Cl
2  1  2
Selective  dynamics
Direct
0.0000000000000000  -0.0000000000000000  0.0564950248616042  T  T  T
0.0000000000000000  -0.0000000000000000  0.1443674145042664  T  T  T
0.3333333333333357  0.6666666666666643  0.1004312196829388  T  T  T
0.6666666666666643  0.3333333333333357  0.0000000000000000  T  T  T
0.6666666666666643  0.3333333333333357  0.2008624393658706  T  T  T

0.00000000E+00  0.00000000E+00  0.00000000E+00
0.00000000E+00  0.00000000E+00  0.00000000E+00
0.00000000E+00  0.00000000E+00  0.00000000E+00
0.00000000E+00  0.00000000E+00  0.00000000E+00
0.00000000E+00  0.00000000E+00  0.00000000E+00
