Cr2C  (n=1)
1.00000000000000
3.2290789859257929  0.0000000000000005  0.0000000000000000
-1.6145394929628964  2.7964644328971477  0.0000000000000000
0.0000000000000000  -0.0000000000000000  30.1681655893344356
Cr  C  Cl
2  1  2
Selective  dynamics
Direct
0.0000000000000000  0.0000000000000000  0.0534866142080083  T  T  T
-0.0000000000000000  -0.0000000000000000  0.1178252799152981  T  T  T
0.3333333333333357  0.6666666666666643  0.0856559470616532  T  T  T
0.6666666666666643  0.3333333333333357  0.0000000000000000  T  T  T
0.6666666666666643  0.3333333333333357  0.1713118941233064  T  T  T

0.00000000E+00  0.00000000E+00  0.00000000E+00
0.00000000E+00  0.00000000E+00  0.00000000E+00
0.00000000E+00  0.00000000E+00  0.00000000E+00
0.00000000E+00  0.00000000E+00  0.00000000E+00
0.00000000E+00  0.00000000E+00  0.00000000E+00
