Ti2C  (n=1)
1.00000000000000
3.2350478850535302  0.0000000000000000  0.0000000000000000
-1.6175239425267651  2.8016336511953517  -0.0000000000000000
-0.0000000000000000  0.0000000000000000  30.7453822728862818
Ti  C  Cl
2  1  2
Selective  dynamics
Direct
-0.0000000000000000  -0.0000000000000000  0.0534998841274250  T  T  T
0.0000000000000000  0.0000000000000000  0.1333698780336725  T  T  T
0.3333333333333357  0.6666666666666643  0.0934348810805452  T  T  T
0.6666666666666643  0.3333333333333357  0.0000000000000000  T  T  T
0.6666666666666643  0.3333333333333357  0.1868697621610975  T  T  T

0.00000000E+00  0.00000000E+00  0.00000000E+00
0.00000000E+00  0.00000000E+00  0.00000000E+00
0.00000000E+00  0.00000000E+00  0.00000000E+00
0.00000000E+00  0.00000000E+00  0.00000000E+00
0.00000000E+00  0.00000000E+00  0.00000000E+00
