Mo2C  (n=1)
1.00000000000000
3.0784662097752391  -0.0000000000000000  -0.0000000000000000
-1.5392331048876193  2.6660299425416509  -0.0000000000000000
0.0000000000000000  0.0000000000000000  31.2743925129697189
Mo  C  Cl
2  1  2
Selective  dynamics
Direct
0.0000000000000000  0.0000000000000000  0.0586241943048994  T  T  T
0.0000000000000000  -0.0000000000000000  0.1419997669876399  T  T  T
0.3333333333333357  0.6666666666666643  0.1003119806462697  T  T  T
0.6666666666666643  0.3333333333333357  0.0000000000000000  T  T  T
0.6666666666666643  0.3333333333333357  0.2006239612925394  T  T  T

0.00000000E+00  0.00000000E+00  0.00000000E+00
0.00000000E+00  0.00000000E+00  0.00000000E+00
0.00000000E+00  0.00000000E+00  0.00000000E+00
0.00000000E+00  0.00000000E+00  0.00000000E+00
0.00000000E+00  0.00000000E+00  0.00000000E+00
