Sc2C  (n=1)
1.00000000000000
3.4204941250713667  -0.0000000000000000  -0.0000000000000000
-1.7102470625356834  2.9622348063349095  -0.0000000000000000
-0.0000000000000000  0.0000000000000000  31.0537733241655936
Sc  C  Cl
2  1  2
Selective  dynamics
Direct
0.0000000000000000  -0.0000000000000000  0.0540920814404647  T  T  T
-0.0000000000000000  -0.0000000000000000  0.1408527731178335  T  T  T
0.3333333333333357  0.6666666666666643  0.0974724272791455  T  T  T
0.6666666666666643  0.3333333333333357  0.0000000000000000  T  T  T
0.6666666666666643  0.3333333333333357  0.1949448545582909  T  T  T

0.00000000E+00  0.00000000E+00  0.00000000E+00
0.00000000E+00  0.00000000E+00  0.00000000E+00
0.00000000E+00  0.00000000E+00  0.00000000E+00
0.00000000E+00  0.00000000E+00  0.00000000E+00
0.00000000E+00  0.00000000E+00  0.00000000E+00
