Cr2N  (n=1)
1.00000000000000
3.1058753963737287  0.0000000000000004  0.0000000000000000
-1.5529376981868643  2.6897669945917273  0.0000000000000000
0.0000000000000000  0.0000000000000000  30.5646137127224407
Cr  N  Cl
2  1  2
Selective  dynamics
Direct
-0.0000000000000000  0.0000000000000000  0.0528697545842262  T  T  T
-0.0000000000000000  0.0000000000000000  0.1291909043537270  T  T  T
0.3333333333333357  0.6666666666666643  0.0910303294689765  T  T  T
0.6666666666666643  0.3333333333333357  0.0000000000000000  T  T  T
0.6666666666666643  0.3333333333333357  0.1820606589379595  T  T  T

0.00000000E+00  0.00000000E+00  0.00000000E+00
0.00000000E+00  0.00000000E+00  0.00000000E+00
0.00000000E+00  0.00000000E+00  0.00000000E+00
0.00000000E+00  0.00000000E+00  0.00000000E+00
0.00000000E+00  0.00000000E+00  0.00000000E+00
