Hf2N  (n=1)
1.00000000000000
3.1774224933215276  -0.0000000000000001  0.0000000000000000
-1.5887112466607638  2.7517285982270701  0.0000000000000000
0.0000000000000000  0.0000000000000000  31.5435387571363322
Hf  N  Cl
2  1  2
Selective  dynamics
Direct
0.0000000000000000  0.0000000000000000  0.0575138161038846  T  T  T
0.0000000000000000  0.0000000000000000  0.1499308465738544  T  T  T
0.3333333333333357  0.6666666666666643  0.1037223313388659  T  T  T
0.6666666666666643  0.3333333333333357  0.0000000000000000  T  T  T
0.6666666666666643  0.3333333333333357  0.2074446626777390  T  T  T

0.00000000E+00  0.00000000E+00  0.00000000E+00
0.00000000E+00  0.00000000E+00  0.00000000E+00
0.00000000E+00  0.00000000E+00  0.00000000E+00
0.00000000E+00  0.00000000E+00  0.00000000E+00
0.00000000E+00  0.00000000E+00  0.00000000E+00
