Zr2N  (n=1)
1.00000000000000
3.2399559523215911  0.0000000000000001  0.0000000000000000
-1.6199779761607955  2.8058841618106856  0.0000000000000000
0.0000000000000000  0.0000000000000000  31.5933221305535312
Zr  N  Cl
2  1  2
Selective  dynamics
Direct
0.0000000000000000  0.0000000000000000  0.0577655979574814  T  T  T
0.0000000000000000  0.0000000000000000  0.1509279387116873  T  T  T
0.3333333333333357  0.6666666666666643  0.1043467683345879  T  T  T
0.6666666666666643  0.3333333333333357  0.0000000000000000  T  T  T
0.6666666666666643  0.3333333333333357  0.2086935366691687  T  T  T

0.00000000E+00  0.00000000E+00  0.00000000E+00
0.00000000E+00  0.00000000E+00  0.00000000E+00
0.00000000E+00  0.00000000E+00  0.00000000E+00
0.00000000E+00  0.00000000E+00  0.00000000E+00
0.00000000E+00  0.00000000E+00  0.00000000E+00
