Hf3N2  (n=2)
1.00000000000000
3.2797390323755313  0.0000000000000000  -0.0000000000000000
-1.6398695161877652  2.8403373207237386  0.0000000000000000
-0.0000000000000000  0.0000000000000000  33.8307548921722514
Hf  N  S
3  2  2
Selective  dynamics
Direct
-0.0000000000000000  -0.0000000000000000  0.0467661555264278  T  T  T
-0.0000000000000000  -0.0000000000000000  0.1305137133403947  T  T  T
-0.0000000000000000  -0.0000000000000000  0.2142612711543617  T  T  T
0.3333333333333357  0.6666666666666643  0.0878534626226731  T  T  T
0.3333333333333357  0.6666666666666643  0.1731739640581233  T  T  T
0.6666666666666643  0.3333333333333357  0.0000000000000000  T  T  T
0.6666666666666643  0.3333333333333357  0.2610274266807894  T  T  T

0.00000000E+00  0.00000000E+00  0.00000000E+00
0.00000000E+00  0.00000000E+00  0.00000000E+00
0.00000000E+00  0.00000000E+00  0.00000000E+00
0.00000000E+00  0.00000000E+00  0.00000000E+00
0.00000000E+00  0.00000000E+00  0.00000000E+00
0.00000000E+00  0.00000000E+00  0.00000000E+00
0.00000000E+00  0.00000000E+00  0.00000000E+00
