Cr3N2  (n=2)
1.00000000000000
2.8068109490332716  0.0000000000000008  0.0000000000000000
-1.4034054745166347  2.4307695854480706  0.0000000000000000
0.0000000000000000  0.0000000000000000  33.2036365026979183
Cr  N  S
3  2  2
Selective  dynamics
Direct
0.0000000000000000  0.0000000000000000  0.0465886924275484  T  T  T
0.0000000000000000  0.0000000000000000  0.1235352113018004  T  T  T
0.0000000000000000  0.0000000000000000  0.2004817301760524  T  T  T
0.3333333333333357  0.6666666666666643  0.0863104888637137  T  T  T
0.3333333333333357  0.6666666666666643  0.1607599337398871  T  T  T
0.6666666666666643  0.3333333333333357  0.0000000000000000  T  T  T
0.6666666666666643  0.3333333333333357  0.2470704226036007  T  T  T

0.00000000E+00  0.00000000E+00  0.00000000E+00
0.00000000E+00  0.00000000E+00  0.00000000E+00
0.00000000E+00  0.00000000E+00  0.00000000E+00
0.00000000E+00  0.00000000E+00  0.00000000E+00
0.00000000E+00  0.00000000E+00  0.00000000E+00
0.00000000E+00  0.00000000E+00  0.00000000E+00
0.00000000E+00  0.00000000E+00  0.00000000E+00
