Nb3C2  (n=2)
1.00000000000000
3.1907431361878853  0.0000000000000000  0.0000000000000000
-1.5953715680939426  2.7632646136061756  0.0000000000000000
-0.0000000000000000  0.0000000000000000  33.8981193733727366
Nb  C  S
3  2  2
Selective  dynamics
Direct
0.0000000000000000  0.0000000000000000  0.0481894072895175  T  T  T
0.0000000000000000  0.0000000000000000  0.1312479797974026  T  T  T
0.0000000000000000  -0.0000000000000000  0.2143065523052877  T  T  T
0.3333333333333357  0.6666666666666643  0.0891034202362843  T  T  T
0.3333333333333357  0.6666666666666643  0.1733925393585209  T  T  T
0.6666666666666643  0.3333333333333357  0.0000000000000000  T  T  T
0.6666666666666643  0.3333333333333357  0.2624959595948054  T  T  T

0.00000000E+00  0.00000000E+00  0.00000000E+00
0.00000000E+00  0.00000000E+00  0.00000000E+00
0.00000000E+00  0.00000000E+00  0.00000000E+00
0.00000000E+00  0.00000000E+00  0.00000000E+00
0.00000000E+00  0.00000000E+00  0.00000000E+00
0.00000000E+00  0.00000000E+00  0.00000000E+00
0.00000000E+00  0.00000000E+00  0.00000000E+00
