Ti3C2  (n=2)
1.00000000000000
3.1130626902769851  -0.0000000000000000  -0.0000000000000000
-1.5565313451384926  2.6959913736857675  0.0000000000000000
0.0000000000000000  -0.0000000000000000  33.5892149533276836
Ti  C  S
3  2  2
Selective  dynamics
Direct
0.0000000000000000  0.0000000000000000  0.0482156496015579  T  T  T
0.0000000000000000  -0.0000000000000000  0.1278567386177739  T  T  T
0.0000000000000000  -0.0000000000000000  0.2074978276339898  T  T  T
0.3333333333333357  0.6666666666666643  0.0858832067754245  T  T  T
0.3333333333333357  0.6666666666666643  0.1698302704601232  T  T  T
0.6666666666666643  0.3333333333333357  0.0000000000000000  T  T  T
0.6666666666666643  0.3333333333333357  0.2557134772355478  T  T  T

0.00000000E+00  0.00000000E+00  0.00000000E+00
0.00000000E+00  0.00000000E+00  0.00000000E+00
0.00000000E+00  0.00000000E+00  0.00000000E+00
0.00000000E+00  0.00000000E+00  0.00000000E+00
0.00000000E+00  0.00000000E+00  0.00000000E+00
0.00000000E+00  0.00000000E+00  0.00000000E+00
0.00000000E+00  0.00000000E+00  0.00000000E+00
