Cr3C2  (n=2)
1.00000000000000
2.8243090547380896  0.0000000000000001  0.0000000000000000
-1.4121545273690446  2.4459233894674179  0.0000000000000000
0.0000000000000000  0.0000000000000000  33.2621987747790939
Cr  C  S
3  2  2
Selective  dynamics
Direct
0.0000000000000000  0.0000000000000000  0.0470621996579137  T  T  T
0.0000000000000000  0.0000000000000000  0.1241980247716427  T  T  T
0.0000000000000000  0.0000000000000000  0.2013338498853856  T  T  T
0.3333333333333357  0.6666666666666643  0.0860857339693467  T  T  T
0.3333333333333357  0.6666666666666643  0.1623103155739386  T  T  T
0.6666666666666643  0.3333333333333357  0.0000000000000000  T  T  T
0.6666666666666643  0.3333333333333357  0.2483960495432993  T  T  T

0.00000000E+00  0.00000000E+00  0.00000000E+00
0.00000000E+00  0.00000000E+00  0.00000000E+00
0.00000000E+00  0.00000000E+00  0.00000000E+00
0.00000000E+00  0.00000000E+00  0.00000000E+00
0.00000000E+00  0.00000000E+00  0.00000000E+00
0.00000000E+00  0.00000000E+00  0.00000000E+00
0.00000000E+00  0.00000000E+00  0.00000000E+00
