Sc3N2  (n=2)
1.00000000000000
3.2252218658620282  0.0000000000000001  0.0000000000000000
-1.6126109329310141  2.7931240692985067  0.0000000000000000
0.0000000000000000  0.0000000000000000  33.9971771461134864
Sc  N  S
3  2  2
Selective  dynamics
Direct
0.0000000000000000  0.0000000000000000  0.0502150427137407  T  T  T
0.0000000000000000  0.0000000000000000  0.1323224147029186  T  T  T
0.0000000000000000  0.0000000000000000  0.2144297866920966  T  T  T
0.3333333333333357  0.6666666666666643  0.0902959510016166  T  T  T
0.3333333333333357  0.6666666666666643  0.1743488784042208  T  T  T
0.6666666666666643  0.3333333333333357  0.0000000000000000  T  T  T
0.6666666666666643  0.3333333333333357  0.2646448294058448  T  T  T

0.00000000E+00  0.00000000E+00  0.00000000E+00
0.00000000E+00  0.00000000E+00  0.00000000E+00
0.00000000E+00  0.00000000E+00  0.00000000E+00
0.00000000E+00  0.00000000E+00  0.00000000E+00
0.00000000E+00  0.00000000E+00  0.00000000E+00
0.00000000E+00  0.00000000E+00  0.00000000E+00
0.00000000E+00  0.00000000E+00  0.00000000E+00
