Ta3C2  (n=2)
1.00000000000000
3.1767126020697187  0.0000000000000001  0.0000000000000000
-1.5883563010348591  2.7511138145848033  0.0000000000000000
0.0000000000000000  0.0000000000000000  33.8710998036228688
Ta  C  S
3  2  2
Selective  dynamics
Direct
0.0000000000000000  0.0000000000000000  0.0479585723378070  T  T  T
0.0000000000000000  0.0000000000000000  0.1309538198501864  T  T  T
0.0000000000000000  0.0000000000000000  0.2139490673625728  T  T  T
0.3333333333333357  0.6666666666666643  0.0885592424048511  T  T  T
0.3333333333333357  0.6666666666666643  0.1733483972955216  T  T  T
0.6666666666666643  0.3333333333333357  0.0000000000000000  T  T  T
0.6666666666666643  0.3333333333333357  0.2619076397003798  T  T  T

0.00000000E+00  0.00000000E+00  0.00000000E+00
0.00000000E+00  0.00000000E+00  0.00000000E+00
0.00000000E+00  0.00000000E+00  0.00000000E+00
0.00000000E+00  0.00000000E+00  0.00000000E+00
0.00000000E+00  0.00000000E+00  0.00000000E+00
0.00000000E+00  0.00000000E+00  0.00000000E+00
0.00000000E+00  0.00000000E+00  0.00000000E+00
