Ti3N2  (n=2)
1.00000000000000
3.0800024847578320  0.0000000000000006  0.0000000000000000
-1.5400012423789151  2.6673603957715106  0.0000000000000000
0.0000000000000000  0.0000000000000000  33.3293863831322383
Ti  N  S
3  2  2
Selective  dynamics
Direct
0.0000000000000000  0.0000000000000000  0.0465695104673671  T  T  T
0.0000000000000000  0.0000000000000000  0.1249555915518997  T  T  T
0.0000000000000000  0.0000000000000000  0.2033416726364324  T  T  T
0.3333333333333357  0.6666666666666643  0.0849410251950301  T  T  T
0.3333333333333357  0.6666666666666643  0.1649701579087623  T  T  T
0.6666666666666643  0.3333333333333357  0.0000000000000000  T  T  T
0.6666666666666643  0.3333333333333357  0.2499111831037994  T  T  T

0.00000000E+00  0.00000000E+00  0.00000000E+00
0.00000000E+00  0.00000000E+00  0.00000000E+00
0.00000000E+00  0.00000000E+00  0.00000000E+00
0.00000000E+00  0.00000000E+00  0.00000000E+00
0.00000000E+00  0.00000000E+00  0.00000000E+00
0.00000000E+00  0.00000000E+00  0.00000000E+00
0.00000000E+00  0.00000000E+00  0.00000000E+00
