Nb3N2  (n=2)
1.00000000000000
3.0792706749801333  -0.0000000000000003  0.0000000000000000
-1.5396353374900664  2.6667266300838905  0.0000000000000000
0.0000000000000000  0.0000000000000000  34.1357158780400880
Nb  N  S
3  2  2
Selective  dynamics
Direct
0.0000000000000000  0.0000000000000000  0.0492731945699733  T  T  T
0.0000000000000000  0.0000000000000000  0.1338146226474330  T  T  T
0.0000000000000000  0.0000000000000000  0.2183560507248999  T  T  T
0.3333333333333357  0.6666666666666643  0.0932376051452146  T  T  T
0.3333333333333357  0.6666666666666643  0.1743916401496515  T  T  T
0.6666666666666643  0.3333333333333357  0.0000000000000000  T  T  T
0.6666666666666643  0.3333333333333357  0.2676292452948731  T  T  T

0.00000000E+00  0.00000000E+00  0.00000000E+00
0.00000000E+00  0.00000000E+00  0.00000000E+00
0.00000000E+00  0.00000000E+00  0.00000000E+00
0.00000000E+00  0.00000000E+00  0.00000000E+00
0.00000000E+00  0.00000000E+00  0.00000000E+00
0.00000000E+00  0.00000000E+00  0.00000000E+00
0.00000000E+00  0.00000000E+00  0.00000000E+00
