Zr3N2  (n=2)
1.00000000000000
3.3319289503267093  0.0000000000000005  0.0000000000000000
-1.6659644751633544  2.8855351154202249  0.0000000000000000
0.0000000000000000  0.0000000000000000  33.9477840752330593
Zr  N  S
3  2  2
Selective  dynamics
Direct
0.0000000000000000  0.0000000000000000  0.0472719238670745  T  T  T
0.0000000000000000  0.0000000000000000  0.1317874541590591  T  T  T
0.0000000000000000  0.0000000000000000  0.2163029844510506  T  T  T
0.3333333333333357  0.6666666666666643  0.0889408407245011  T  T  T
0.3333333333333357  0.6666666666666643  0.1746340675936241  T  T  T
0.6666666666666643  0.3333333333333357  0.0000000000000000  T  T  T
0.6666666666666643  0.3333333333333357  0.2635749083181251  T  T  T

0.00000000E+00  0.00000000E+00  0.00000000E+00
0.00000000E+00  0.00000000E+00  0.00000000E+00
0.00000000E+00  0.00000000E+00  0.00000000E+00
0.00000000E+00  0.00000000E+00  0.00000000E+00
0.00000000E+00  0.00000000E+00  0.00000000E+00
0.00000000E+00  0.00000000E+00  0.00000000E+00
0.00000000E+00  0.00000000E+00  0.00000000E+00
