Ta3N2  (n=2)
1.00000000000000
3.0604720322617531  0.0000000000000003  0.0000000000000000
-1.5302360161308763  2.6504465279253266  0.0000000000000000
0.0000000000000000  0.0000000000000000  34.1191847868488480
Ta  N  S
3  2  2
Selective  dynamics
Direct
-0.0000000000000000  0.0000000000000000  0.0490423134231665  T  T  T
-0.0000000000000000  -0.0000000000000000  0.1336372021169059  T  T  T
-0.0000000000000000  -0.0000000000000000  0.2182320908106525  T  T  T
0.3333333333333357  0.6666666666666643  0.0928941971249333  T  T  T
0.3333333333333357  0.6666666666666643  0.1743802071088857  T  T  T
0.6666666666666643  0.3333333333333357  0.0000000000000000  T  T  T
0.6666666666666643  0.3333333333333357  0.2672744042338261  T  T  T

0.00000000E+00  0.00000000E+00  0.00000000E+00
0.00000000E+00  0.00000000E+00  0.00000000E+00
0.00000000E+00  0.00000000E+00  0.00000000E+00
0.00000000E+00  0.00000000E+00  0.00000000E+00
0.00000000E+00  0.00000000E+00  0.00000000E+00
0.00000000E+00  0.00000000E+00  0.00000000E+00
0.00000000E+00  0.00000000E+00  0.00000000E+00
