Zr3C2  (n=2)
1.00000000000000
3.4277675252351418  -0.0000000000000003  -0.0000000000000000
-1.7138837626175714  2.9685337560538576  0.0000000000000000
-0.0000000000000000  0.0000000000000000  33.9766774270757352
Zr  C  S
3  2  2
Selective  dynamics
Direct
-0.0000000000000000  -0.0000000000000000  0.0457088505821229  T  T  T
-0.0000000000000000  -0.0000000000000000  0.1321005776144888  T  T  T
-0.0000000000000000  -0.0000000000000000  0.2184923046468548  T  T  T
0.3333333333333357  0.6666666666666643  0.0884433892143810  T  T  T
0.3333333333333357  0.6666666666666643  0.1757577660145967  T  T  T
0.6666666666666643  0.3333333333333357  0.0000000000000000  T  T  T
0.6666666666666643  0.3333333333333357  0.2642011552289776  T  T  T

0.00000000E+00  0.00000000E+00  0.00000000E+00
0.00000000E+00  0.00000000E+00  0.00000000E+00
0.00000000E+00  0.00000000E+00  0.00000000E+00
0.00000000E+00  0.00000000E+00  0.00000000E+00
0.00000000E+00  0.00000000E+00  0.00000000E+00
0.00000000E+00  0.00000000E+00  0.00000000E+00
0.00000000E+00  0.00000000E+00  0.00000000E+00
