Mo3N2  (n=2)
1.00000000000000
2.9734585504515283  0.0000000000000000  0.0000000000000000
-1.4867292752257644  2.5750906420510349  0.0000000000000000
0.0000000000000000  0.0000000000000000  33.9921886751631419
Mo  N  S
3  2  2
Selective  dynamics
Direct
-0.0000000000000000  -0.0000000000000000  0.0480407453359892  T  T  T
-0.0000000000000000  -0.0000000000000000  0.1322684567489089  T  T  T
-0.0000000000000000  -0.0000000000000000  0.2164961681618287  T  T  T
0.3333333333333357  0.6666666666666643  0.0941795806527222  T  T  T
0.3333333333333357  0.6666666666666643  0.1703573328450885  T  T  T
0.6666666666666643  0.3333333333333357  0.0000000000000000  T  T  T
0.6666666666666643  0.3333333333333357  0.2645369134978180  T  T  T

0.00000000E+00  0.00000000E+00  0.00000000E+00
0.00000000E+00  0.00000000E+00  0.00000000E+00
0.00000000E+00  0.00000000E+00  0.00000000E+00
0.00000000E+00  0.00000000E+00  0.00000000E+00
0.00000000E+00  0.00000000E+00  0.00000000E+00
0.00000000E+00  0.00000000E+00  0.00000000E+00
0.00000000E+00  0.00000000E+00  0.00000000E+00
