Hf3C2  (n=2)
1.00000000000000
3.3770692429564515  0.0000000000000001  0.0000000000000000
-1.6885346214782258  2.9246277561372662  0.0000000000000000
0.0000000000000000  -0.0000000000000000  33.8701523541920224
Hf  C  S
3  2  2
Selective  dynamics
Direct
-0.0000000000000000  0.0000000000000000  0.0455668922841043  T  T  T
-0.0000000000000000  0.0000000000000000  0.1309434965251041  T  T  T
-0.0000000000000000  0.0000000000000000  0.2163201007661111  T  T  T
0.3333333333333357  0.6666666666666643  0.0876450367191031  T  T  T
0.3333333333333357  0.6666666666666643  0.1742419563310977  T  T  T
0.6666666666666643  0.3333333333333357  0.0000000000000000  T  T  T
0.6666666666666643  0.3333333333333357  0.2618869930502155  T  T  T

0.00000000E+00  0.00000000E+00  0.00000000E+00
0.00000000E+00  0.00000000E+00  0.00000000E+00
0.00000000E+00  0.00000000E+00  0.00000000E+00
0.00000000E+00  0.00000000E+00  0.00000000E+00
0.00000000E+00  0.00000000E+00  0.00000000E+00
0.00000000E+00  0.00000000E+00  0.00000000E+00
0.00000000E+00  0.00000000E+00  0.00000000E+00
