Mo3C2  (n=2)
1.00000000000000
3.0024162822346954  0.0000000000000001  0.0000000000000000
-1.5012081411173477  2.6001687733673098  0.0000000000000000
0.0000000000000000  0.0000000000000000  33.9626101452037972
Mo  C  S
3  2  2
Selective  dynamics
Direct
0.0000000000000000  0.0000000000000000  0.0490484719661139  T  T  T
0.0000000000000000  0.0000000000000000  0.1319481940122504  T  T  T
0.0000000000000000  0.0000000000000000  0.2148479160584015  T  T  T
0.3333333333333357  0.6666666666666643  0.0915526470182146  T  T  T
0.3333333333333357  0.6666666666666643  0.1723437410062865  T  T  T
0.6666666666666643  0.3333333333333357  0.0000000000000000  T  T  T
0.6666666666666643  0.3333333333333357  0.2638963880245082  T  T  T

0.00000000E+00  0.00000000E+00  0.00000000E+00
0.00000000E+00  0.00000000E+00  0.00000000E+00
0.00000000E+00  0.00000000E+00  0.00000000E+00
0.00000000E+00  0.00000000E+00  0.00000000E+00
0.00000000E+00  0.00000000E+00  0.00000000E+00
0.00000000E+00  0.00000000E+00  0.00000000E+00
0.00000000E+00  0.00000000E+00  0.00000000E+00
