Sc3C2S2  (n=2)
1.00000000000000
3.6777416086973540  0.0000000000000000  0.0000000000000000
-1.8388708043486770  3.1850176616951518  0.0000000000000000
0.0000000000000000  0.0000000000000000  32.9819637253453095
Sc  C  S
3  2  2
Selective  dynamics
Direct
0.0000000000000000  0.0000000000000000  0.0370960262043045  T  T  T
0.0000000000000000  0.0000000000000000  0.1210049800523518  T  T  T
0.0000000000000000  0.0000000000000000  0.2049139339003992  T  T  T
0.3333333333333357  0.6666666666666643  0.0982346800042710  T  T  T
0.3333333333333357  0.6666666666666643  0.1437752801004236  T  T  T
0.6666666666666643  0.3333333333333357  0.0000000000000000  T  T  T
0.6666666666666643  0.3333333333333357  0.2420099601046947  T  T  T

0.00000000E+00  0.00000000E+00  0.00000000E+00
0.00000000E+00  0.00000000E+00  0.00000000E+00
0.00000000E+00  0.00000000E+00  0.00000000E+00
0.00000000E+00  0.00000000E+00  0.00000000E+00
0.00000000E+00  0.00000000E+00  0.00000000E+00
0.00000000E+00  0.00000000E+00  0.00000000E+00
0.00000000E+00  0.00000000E+00  0.00000000E+00
