Cr2N  (n=1)
1.00000000000000
2.6304015176998465  0.0000000000000000  0.0000000000000000
-1.3152007588499233  2.2779945365221423  0.0000000000000000
0.0000000000000000  0.0000000000000000  29.7116998776631540
Cr  N  H
2  1  2
Selective  dynamics
Direct
-0.0000000000000000  0.0000000000000000  0.0364793456074447  T  T  T
-0.0000000000000000  -0.0000000000000000  0.1242298041776914  T  T  T
0.3333333333333357  0.6666666666666643  0.0807109581828521  T  T  T
0.3333333333333357  0.6666666666666643  0.0000000000000000  T  T  T
0.6666666666666643  0.3333333333333357  0.1585806230226950  T  T  T

0.00000000E+00  0.00000000E+00  0.00000000E+00
0.00000000E+00  0.00000000E+00  0.00000000E+00
0.00000000E+00  0.00000000E+00  0.00000000E+00
0.00000000E+00  0.00000000E+00  0.00000000E+00
0.00000000E+00  0.00000000E+00  0.00000000E+00
