Ta2C  (n=1)
1.00000000000000
2.9800620070069477  -0.0000000000000007  0.0000000000000000
-1.4900310035034738  2.5808094029796536  0.0000000000000000
-0.0000000000000003  0.0000000000000002  30.0240434135138834
Ta  C  H
2  1  2
Selective  dynamics
Direct
0.0000000000000000  0.0000000000000000  0.0379052089642108  T  T  T
0.0000000000000000  0.0000000000000000  0.1328104611421976  T  T  T
0.3333333333333357  0.6666666666666643  0.0849108755935394  T  T  T
0.3333333333333357  0.6666666666666643  0.0000000000000000  T  T  T
0.6666666666666643  0.3333333333333357  0.1673340044283493  T  T  T

0.00000000E+00  0.00000000E+00  0.00000000E+00
0.00000000E+00  0.00000000E+00  0.00000000E+00
0.00000000E+00  0.00000000E+00  0.00000000E+00
0.00000000E+00  0.00000000E+00  0.00000000E+00
0.00000000E+00  0.00000000E+00  0.00000000E+00
