Mo2N  (n=1)
1.00000000000000
2.8137215288441535  0.0000000000000000  0.0000000000000000
-1.4068607644220767  2.4367543231878224  0.0000000000000000
0.0000000000000001  0.0000000000000000  30.1544923810372367
Mo  N  H
2  1  2
Selective  dynamics
Direct
0.0000000000000000  -0.0000000000000000  0.0386588152409468  T  T  T
0.0000000000000000  0.0000000000000000  0.1334605072421964  T  T  T
0.3333333333333357  0.6666666666666643  0.0862280118344614  T  T  T
0.3333333333333357  0.6666666666666643  0.0000000000000000  T  T  T
0.6666666666666643  0.3333333333333357  0.1709361350177679  T  T  T

0.00000000E+00  0.00000000E+00  0.00000000E+00
0.00000000E+00  0.00000000E+00  0.00000000E+00
0.00000000E+00  0.00000000E+00  0.00000000E+00
0.00000000E+00  0.00000000E+00  0.00000000E+00
0.00000000E+00  0.00000000E+00  0.00000000E+00
