Sc2C  (n=1)
1.00000000000000
3.2301819311309083  0.0000000000000000  0.0000000000000000
-1.6150909655654542  2.7974196113063461  0.0000000000000000
0.0000000000000001  0.0000000000000000  29.8896146136767662
Sc  C  H
2  1  2
Selective  dynamics
Direct
0.0000000000000000  -0.0000000000000000  0.0381817901225545  T  T  T
0.0000000000000000  -0.0000000000000000  0.1294462096903511  T  T  T
0.3333333333333357  0.6666666666666643  0.0848789963985145  T  T  T
0.3333333333333357  0.6666666666666643  0.0000000000000000  T  T  T
0.6666666666666643  0.3333333333333357  0.1635890819227691  T  T  T

0.00000000E+00  0.00000000E+00  0.00000000E+00
0.00000000E+00  0.00000000E+00  0.00000000E+00
0.00000000E+00  0.00000000E+00  0.00000000E+00
0.00000000E+00  0.00000000E+00  0.00000000E+00
0.00000000E+00  0.00000000E+00  0.00000000E+00
