Nb2C  (n=1)
1.00000000000000
3.0033444938076856  0.0000000000000000  0.0000000000000000
-1.5016722469038428  2.6009726280278693  0.0000000000000000
0.0000000000000002  0.0000000000000006  30.0224223478534782
Nb  C  H
2  1  2
Selective  dynamics
Direct
0.0000000000000000  -0.0000000000000000  0.0378000989957798  T  T  T
-0.0000000000000000  -0.0000000000000000  0.1329685929202941  T  T  T
0.3333333333333357  0.6666666666666643  0.0844314761521339  T  T  T
0.3333333333333357  0.6666666666666643  0.0000000000000000  T  T  T
0.6666666666666643  0.3333333333333357  0.1672890444901948  T  T  T

0.00000000E+00  0.00000000E+00  0.00000000E+00
0.00000000E+00  0.00000000E+00  0.00000000E+00
0.00000000E+00  0.00000000E+00  0.00000000E+00
0.00000000E+00  0.00000000E+00  0.00000000E+00
0.00000000E+00  0.00000000E+00  0.00000000E+00
