Hf2C  (n=1)
1.00000000000000
3.1782294309728640  0.0000000000000000  -0.0000000000000000
-1.5891147154864320  2.7524274263876456  0.0000000000000000
-0.0000000000000000  -0.0000000000000001  29.9778012356155799
Hf  C  H
2  1  2
Selective  dynamics
Direct
0.0000000000000000  0.0000000000000000  0.0384167280019281  T  T  T
0.0000000000000000  0.0000000000000000  0.1323497343781584  T  T  T
0.3333333333333357  0.6666666666666643  0.0866385594532496  T  T  T
0.3333333333333357  0.6666666666666643  0.0000000000000000  T  T  T
0.6666666666666643  0.3333333333333357  0.1660495777022374  T  T  T

0.00000000E+00  0.00000000E+00  0.00000000E+00
0.00000000E+00  0.00000000E+00  0.00000000E+00
0.00000000E+00  0.00000000E+00  0.00000000E+00
0.00000000E+00  0.00000000E+00  0.00000000E+00
0.00000000E+00  0.00000000E+00  0.00000000E+00
