Ti2C  (n=1)
1.00000000000000
2.9756512819287400  0.0000000000000000  0.0000000000000000
-1.4878256409643700  2.5769896030062074  0.0000000000000000
0.0000000000000000  0.0000000000000000  29.6883033434800865
Ti  C  H
2  1  2
Selective  dynamics
Direct
0.0000000000000000  -0.0000000000000000  0.0371891626970114  T  T  T
-0.0000000000000000  0.0000000000000000  0.1247602060914314  T  T  T
0.3333333333333357  0.6666666666666643  0.0822457327053156  T  T  T
0.3333333333333357  0.6666666666666643  0.0000000000000000  T  T  T
0.6666666666666643  0.3333333333333357  0.1579175235862610  T  T  T

0.00000000E+00  0.00000000E+00  0.00000000E+00
0.00000000E+00  0.00000000E+00  0.00000000E+00
0.00000000E+00  0.00000000E+00  0.00000000E+00
0.00000000E+00  0.00000000E+00  0.00000000E+00
0.00000000E+00  0.00000000E+00  0.00000000E+00
