Ti2N  (n=1)
1.00000000000000
2.8693115430784251  0.0000000000000000  0.0000000000000000
-1.4346557715392125  2.4848966877095831  0.0000000000000000
-0.0000000000000001  -0.0000000000000001  29.7943271679279107
Ti  N  H
2  1  2
Selective  dynamics
Direct
0.0000000000000000  0.0000000000000000  0.0375419312228228  T  T  T
0.0000000000000000  -0.0000000000000000  0.1267458864809668  T  T  T
0.3333333333333357  0.6666666666666643  0.0824040749782653  T  T  T
0.3333333333333357  0.6666666666666643  0.0000000000000000  T  T  T
0.6666666666666643  0.3333333333333357  0.1609140941799404  T  T  T

0.00000000E+00  0.00000000E+00  0.00000000E+00
0.00000000E+00  0.00000000E+00  0.00000000E+00
0.00000000E+00  0.00000000E+00  0.00000000E+00
0.00000000E+00  0.00000000E+00  0.00000000E+00
0.00000000E+00  0.00000000E+00  0.00000000E+00
