Nb2N  (n=1)
1.00000000000000
2.9670690183700663  0.0000000000000000  0.0000000000000000
-1.4835345091850332  2.5695571447571712  0.0000000000000000
0.0000000000000000  -0.0000000000000003  30.0612261495739119
Nb  N  H
2  1  2
Selective  dynamics
Direct
0.0000000000000000  -0.0000000000000000  0.0386123882154703  T  T  T
0.0000000000000000  -0.0000000000000000  0.1320551503024344  T  T  T
0.3333333333333357  0.6666666666666643  0.0851277949945399  T  T  T
0.3333333333333357  0.6666666666666643  0.0000000000000000  T  T  T
0.6666666666666643  0.3333333333333357  0.1683639291488331  T  T  T

0.00000000E+00  0.00000000E+00  0.00000000E+00
0.00000000E+00  0.00000000E+00  0.00000000E+00
0.00000000E+00  0.00000000E+00  0.00000000E+00
0.00000000E+00  0.00000000E+00  0.00000000E+00
0.00000000E+00  0.00000000E+00  0.00000000E+00
