Hf2N  (n=1)
1.00000000000000
3.0675269626266530  -0.0000000000000001  0.0000000000000000
-1.5337634813133265  2.6565562765172066  0.0000000000000000
0.0000000000000001  -0.0000000000000001  30.1275329715973754
Hf  N  H
2  1  2
Selective  dynamics
Direct
-0.0000000000000000  0.0000000000000000  0.0385393628240168  T  T  T
-0.0000000000000000  -0.0000000000000000  0.1350734571263215  T  T  T
0.3333333333333357  0.6666666666666643  0.0867986551303979  T  T  T
0.3333333333333357  0.6666666666666643  0.0000000000000000  T  T  T
0.6666666666666643  0.3333333333333357  0.1701942530917264  T  T  T

0.00000000E+00  0.00000000E+00  0.00000000E+00
0.00000000E+00  0.00000000E+00  0.00000000E+00
0.00000000E+00  0.00000000E+00  0.00000000E+00
0.00000000E+00  0.00000000E+00  0.00000000E+00
0.00000000E+00  0.00000000E+00  0.00000000E+00
