Ta2N  (n=1)
1.00000000000000
2.9446195782863231  0.0000000000000000  0.0000000000000000
-1.4723097891431616  2.5501153593315831  0.0000000000000000
0.0000000000000001  -0.0000000000000001  30.0515097597675940
Ta  N  H
2  1  2
Selective  dynamics
Direct
-0.0000000000000000  0.0000000000000000  0.0381389182908831  T  T  T
-0.0000000000000000  0.0000000000000000  0.1317397244487554  T  T  T
0.3333333333333357  0.6666666666666643  0.0850488389512109  T  T  T
0.3333333333333357  0.6666666666666643  0.0000000000000000  T  T  T
0.6666666666666643  0.3333333333333357  0.1680950408198946  T  T  T

0.00000000E+00  0.00000000E+00  0.00000000E+00
0.00000000E+00  0.00000000E+00  0.00000000E+00
0.00000000E+00  0.00000000E+00  0.00000000E+00
0.00000000E+00  0.00000000E+00  0.00000000E+00
0.00000000E+00  0.00000000E+00  0.00000000E+00
