Zr2C  (n=1)
1.00000000000000
3.2336494821774324  0.0000000000000000  0.0000000000000000
-1.6168247410887162  2.8004225986245608  0.0000000000000000
0.0000000000000001  -0.0000000000000001  30.0386392359266310
Zr  C  H
2  1  2
Selective  dynamics
Direct
0.0000000000000000  0.0000000000000000  0.0384641825191918  T  T  T
-0.0000000000000000  0.0000000000000000  0.1334745196947007  T  T  T
0.3333333333333357  0.6666666666666643  0.0869826295876802  T  T  T
0.3333333333333357  0.6666666666666643  0.0000000000000000  T  T  T
0.6666666666666643  0.3333333333333357  0.1677385981552835  T  T  T

0.00000000E+00  0.00000000E+00  0.00000000E+00
0.00000000E+00  0.00000000E+00  0.00000000E+00
0.00000000E+00  0.00000000E+00  0.00000000E+00
0.00000000E+00  0.00000000E+00  0.00000000E+00
0.00000000E+00  0.00000000E+00  0.00000000E+00
