Cr2C  (n=1)
1.00000000000000
2.6564350090926006  0.0000000000000001  -0.0000000000000001
-1.3282175045463003  2.3005402014095635  0.0000000000000001
-0.0000000000000013  0.0000000000000004  29.5983657873682340
Cr  C  H
2  1  2
Selective  dynamics
Direct
-0.0000000000000000  0.0000000000000000  0.0354409807255028  T  T  T
0.0000000000000000  -0.0000000000000000  0.1220169131764265  T  T  T
0.3333333333333357  0.6666666666666643  0.0784379841045972  T  T  T
0.3333333333333357  0.6666666666666643  0.0000000000000000  T  T  T
0.6666666666666643  0.3333333333333357  0.1553587728593682  T  T  T

0.00000000E+00  0.00000000E+00  0.00000000E+00
0.00000000E+00  0.00000000E+00  0.00000000E+00
0.00000000E+00  0.00000000E+00  0.00000000E+00
0.00000000E+00  0.00000000E+00  0.00000000E+00
0.00000000E+00  0.00000000E+00  0.00000000E+00
