Zr2N  (n=1)
1.00000000000000
3.1293712760877135  0.0000000000000000  0.0000000000000000
-1.5646856380438567  2.7101150230778308  0.0000000000000000
0.0000000000000000  0.0000000000000002  30.1734893270463047
Zr  N  H
2  1  2
Selective  dynamics
Direct
-0.0000000000000000  0.0000000000000000  0.0386462029103700  T  T  T
-0.0000000000000000  -0.0000000000000000  0.1356945295981751  T  T  T
0.3333333333333357  0.6666666666666643  0.0868898205515081  T  T  T
0.3333333333333357  0.6666666666666643  0.0000000000000000  T  T  T
0.6666666666666643  0.3333333333333357  0.1714581058548305  T  T  T

0.00000000E+00  0.00000000E+00  0.00000000E+00
0.00000000E+00  0.00000000E+00  0.00000000E+00
0.00000000E+00  0.00000000E+00  0.00000000E+00
0.00000000E+00  0.00000000E+00  0.00000000E+00
0.00000000E+00  0.00000000E+00  0.00000000E+00
