Mo2C  (n=1)
1.00000000000000
2.9101993587574788  -0.0000000000000001  0.0000000000000000
-1.4550996793787392  2.5203065748034801  0.0000000000000000
-0.0000000000000001  0.0000000000000000  29.8891189723060648
Mo  C  H
2  1  2
Selective  dynamics
Direct
0.0000000000000000  0.0000000000000000  0.0378613010505444  T  T  T
0.0000000000000000  -0.0000000000000000  0.1277205234956787  T  T  T
0.3333333333333357  0.6666666666666643  0.0824273973392247  T  T  T
0.3333333333333357  0.6666666666666643  0.0000000000000000  T  T  T
0.6666666666666643  0.3333333333333357  0.1635752119972524  T  T  T

0.00000000E+00  0.00000000E+00  0.00000000E+00
0.00000000E+00  0.00000000E+00  0.00000000E+00
0.00000000E+00  0.00000000E+00  0.00000000E+00
0.00000000E+00  0.00000000E+00  0.00000000E+00
0.00000000E+00  0.00000000E+00  0.00000000E+00
