Sc2N  (n=1)
1.00000000000000
3.1400119641916784  0.0000000000000000  0.0000000000000000
-1.5700059820958392  2.7193301292574334  0.0000000000000000
0.0000000000000000  0.0000000000000001  29.8798844044129055
Sc  N  H
2  1  2
Selective  dynamics
Direct
0.0000000000000000  0.0000000000000000  0.0364031781551163  T  T  T
0.0000000000000000  0.0000000000000000  0.1277909044323705  T  T  T
0.3333333333333357  0.6666666666666643  0.0869695983041060  T  T  T
0.3333333333333357  0.6666666666666643  0.0000000000000000  T  T  T
0.6666666666666643  0.3333333333333357  0.1633167096085621  T  T  T

0.00000000E+00  0.00000000E+00  0.00000000E+00
0.00000000E+00  0.00000000E+00  0.00000000E+00
0.00000000E+00  0.00000000E+00  0.00000000E+00
0.00000000E+00  0.00000000E+00  0.00000000E+00
0.00000000E+00  0.00000000E+00  0.00000000E+00
