Mo4N3  (n=3)
1.00000000000000
3.0525531710401399  0.0000000000000001  0.0000000000000000
-1.5262765855200697  2.6435885927005072  0.0000000000000000
0.0000000000000000  -0.0000000000000006  37.6941725521951270
Mo  N  I
4  3  2
Selective  dynamics
Direct
0.0000000000000000  -0.0000000000000000  0.0604545485568538  T  T  T
0.0000000000000000  -0.0000000000000000  0.1313052054084593  T  T  T
0.0000000000000000  -0.0000000000000000  0.2058795388179837  T  T  T
0.0000000000000000  -0.0000000000000000  0.2769853713813810  T  T  T
0.3333333333333357  0.6666666666666643  0.0948284167923790  T  T  T
0.3333333333333357  0.6666666666666643  0.1683341948094000  T  T  T
0.3333333333333357  0.6666666666666643  0.2412870935194668  T  T  T
0.3333333333333357  0.6666666666666643  0.0000000000000000  T  T  T
0.6666666666666643  0.3333333333333357  0.3367675078851380  T  T  T

0.00000000E+00  0.00000000E+00  0.00000000E+00
0.00000000E+00  0.00000000E+00  0.00000000E+00
0.00000000E+00  0.00000000E+00  0.00000000E+00
0.00000000E+00  0.00000000E+00  0.00000000E+00
0.00000000E+00  0.00000000E+00  0.00000000E+00
0.00000000E+00  0.00000000E+00  0.00000000E+00
0.00000000E+00  0.00000000E+00  0.00000000E+00
0.00000000E+00  0.00000000E+00  0.00000000E+00
0.00000000E+00  0.00000000E+00  0.00000000E+00
