Ti4C3  (n=3)
1.00000000000000
3.2769677810669289  0.0000000000000001  0.0000000000000000
-1.6384838905334644  2.8379373460033639  0.0000000000000000
-0.0000000000000002  0.0000000000000001  36.8478564537522288
Ti  C  I
4  3  2
Selective  dynamics
Direct
0.0000000000000000  0.0000000000000000  0.0573420887300229  T  T  T
0.0000000000000000  0.0000000000000000  0.1269489413328623  T  T  T
0.0000000000000000  0.0000000000000000  0.1955323333301755  T  T  T
0.0000000000000000  0.0000000000000000  0.2643948505044657  T  T  T
0.3333333333333357  0.6666666666666643  0.0873033604629191  T  T  T
0.3333333333333357  0.6666666666666643  0.1618015568337512  T  T  T
0.3333333333333357  0.6666666666666643  0.2362555332952029  T  T  T
0.3333333333333357  0.6666666666666643  0.0000000000000000  T  T  T
0.6666666666666643  0.3333333333333357  0.3215344824365151  T  T  T

0.00000000E+00  0.00000000E+00  0.00000000E+00
0.00000000E+00  0.00000000E+00  0.00000000E+00
0.00000000E+00  0.00000000E+00  0.00000000E+00
0.00000000E+00  0.00000000E+00  0.00000000E+00
0.00000000E+00  0.00000000E+00  0.00000000E+00
0.00000000E+00  0.00000000E+00  0.00000000E+00
0.00000000E+00  0.00000000E+00  0.00000000E+00
0.00000000E+00  0.00000000E+00  0.00000000E+00
0.00000000E+00  0.00000000E+00  0.00000000E+00
