Sc4C3  (n=3)
1.00000000000000
3.5067864291954862  -0.0000000000000001  0.0000000000000001
-1.7533932145977431  3.0369661355294495  0.0000000000000000
0.0000000000000009  -0.0000000000000008  37.3052160576738956
Sc  C  I
4  3  2
Selective  dynamics
Direct
-0.0000000000000000  -0.0000000000000000  0.0570225172611435  T  T  T
-0.0000000000000000  -0.0000000000000000  0.1283868645227995  T  T  T
-0.0000000000000000  -0.0000000000000000  0.2002964266679620  T  T  T
-0.0000000000000000  -0.0000000000000000  0.2723913836908414  T  T  T
0.3333333333333357  0.6666666666666643  0.0913165482813462  T  T  T
0.3333333333333357  0.6666666666666643  0.1610612826101079  T  T  T
0.3333333333333357  0.6666666666666643  0.2385172316828366  T  T  T
0.3333333333333357  0.6666666666666643  0.0000000000000000  T  T  T
0.6666666666666643  0.3333333333333357  0.3298524270346007  T  T  T

0.00000000E+00  0.00000000E+00  0.00000000E+00
0.00000000E+00  0.00000000E+00  0.00000000E+00
0.00000000E+00  0.00000000E+00  0.00000000E+00
0.00000000E+00  0.00000000E+00  0.00000000E+00
0.00000000E+00  0.00000000E+00  0.00000000E+00
0.00000000E+00  0.00000000E+00  0.00000000E+00
0.00000000E+00  0.00000000E+00  0.00000000E+00
0.00000000E+00  0.00000000E+00  0.00000000E+00
0.00000000E+00  0.00000000E+00  0.00000000E+00
