Cr4N3  (n=3)
1.00000000000000
3.0114562141647414  0.0000000000000000  0.0000000000000000
-1.5057281070823707  2.6079975838526095  0.0000000000000000
0.0000000000000000  0.0000000000000002  36.6145540069806543
Cr  N  I
4  3  2
Selective  dynamics
Direct
0.0000000000000000  -0.0000000000000000  0.0574544116816819  T  T  T
0.0000000000000000  -0.0000000000000000  0.1233771873142571  T  T  T
0.0000000000000000  -0.0000000000000000  0.1912324233961980  T  T  T
0.0000000000000000  -0.0000000000000000  0.2573628212921913  T  T  T
0.3333333333333357  0.6666666666666643  0.0872693146201367  T  T  T
0.3333333333333357  0.6666666666666643  0.1589137565880600  T  T  T
0.3333333333333357  0.6666666666666643  0.2320224824532074  T  T  T
0.3333333333333357  0.6666666666666643  0.0000000000000000  T  T  T
0.6666666666666643  0.3333333333333357  0.3172114019131932  T  T  T

0.00000000E+00  0.00000000E+00  0.00000000E+00
0.00000000E+00  0.00000000E+00  0.00000000E+00
0.00000000E+00  0.00000000E+00  0.00000000E+00
0.00000000E+00  0.00000000E+00  0.00000000E+00
0.00000000E+00  0.00000000E+00  0.00000000E+00
0.00000000E+00  0.00000000E+00  0.00000000E+00
0.00000000E+00  0.00000000E+00  0.00000000E+00
0.00000000E+00  0.00000000E+00  0.00000000E+00
0.00000000E+00  0.00000000E+00  0.00000000E+00
