Hf4N3  (n=3)
1.00000000000000
3.2646378281799149  0.0000000000000000  0.0000000000000001
-1.6323189140899574  2.8272592943966295  -0.0000000000000001
0.0000000000000022  -0.0000000000000020  37.9220266912188322
Hf  N  I
4  3  2
Selective  dynamics
Direct
0.0000000000000000  0.0000000000000000  0.0566930809271625  T  T  T
0.0000000000000000  0.0000000000000000  0.1320191456188009  T  T  T
0.0000000000000000  0.0000000000000000  0.2082333744117345  T  T  T
0.0000000000000000  0.0000000000000000  0.2840611766034092  T  T  T
0.3333333333333357  0.6666666666666643  0.0941010786065583  T  T  T
0.3333333333333357  0.6666666666666643  0.1700879224289919  T  T  T
0.3333333333333357  0.6666666666666643  0.2457759916447635  T  T  T
0.3333333333333357  0.6666666666666643  0.0000000000000000  T  T  T
0.6666666666666643  0.3333333333333357  0.3407525340466848  T  T  T

0.00000000E+00  0.00000000E+00  0.00000000E+00
0.00000000E+00  0.00000000E+00  0.00000000E+00
0.00000000E+00  0.00000000E+00  0.00000000E+00
0.00000000E+00  0.00000000E+00  0.00000000E+00
0.00000000E+00  0.00000000E+00  0.00000000E+00
0.00000000E+00  0.00000000E+00  0.00000000E+00
0.00000000E+00  0.00000000E+00  0.00000000E+00
0.00000000E+00  0.00000000E+00  0.00000000E+00
0.00000000E+00  0.00000000E+00  0.00000000E+00
