Nb4C3  (n=3)
1.00000000000000
3.2301118302522607  0.0000000000000000  0.0000000000000001
-1.6150559151261303  2.7973589024967356  0.0000000000000001
-0.0000000000000004  0.0000000000000001  37.7441099587508049
Nb  C  I
4  3  2
Selective  dynamics
Direct
-0.0000000000000000  -0.0000000000000000  0.0567279986141182  T  T  T
-0.0000000000000000  -0.0000000000000000  0.1305347427077058  T  T  T
-0.0000000000000000  -0.0000000000000000  0.2055378113979717  T  T  T
-0.0000000000000000  -0.0000000000000000  0.2796023120142709  T  T  T
0.3333333333333357  0.6666666666666643  0.0908736798564059  T  T  T
0.3333333333333357  0.6666666666666643  0.1679701461983891  T  T  T
0.3333333333333357  0.6666666666666643  0.2446753768957955  T  T  T
0.3333333333333357  0.6666666666666643  0.0000000000000000  T  T  T
0.6666666666666643  0.3333333333333357  0.3376449987210822  T  T  T

0.00000000E+00  0.00000000E+00  0.00000000E+00
0.00000000E+00  0.00000000E+00  0.00000000E+00
0.00000000E+00  0.00000000E+00  0.00000000E+00
0.00000000E+00  0.00000000E+00  0.00000000E+00
0.00000000E+00  0.00000000E+00  0.00000000E+00
0.00000000E+00  0.00000000E+00  0.00000000E+00
0.00000000E+00  0.00000000E+00  0.00000000E+00
0.00000000E+00  0.00000000E+00  0.00000000E+00
0.00000000E+00  0.00000000E+00  0.00000000E+00
