Mo4C3  (n=3)
1.00000000000000
3.0713696200230021  0.0000000000000001  0.0000000000000000
-1.5356848100115010  2.6598841154638797  0.0000000000000000
-0.0000000000000002  -0.0000000000000002  37.7740353821082309
Mo  C  I
4  3  2
Selective  dynamics
Direct
0.0000000000000000  0.0000000000000000  0.0587382898914490  T  T  T
0.0000000000000000  0.0000000000000000  0.1314505786597913  T  T  T
0.0000000000000000  0.0000000000000000  0.2052707027474199  T  T  T
0.0000000000000000  0.0000000000000000  0.2773033418744793  T  T  T
0.3333333333333357  0.6666666666666643  0.0934928759779964  T  T  T
0.3333333333333357  0.6666666666666643  0.1680080689703559  T  T  T
0.3333333333333357  0.6666666666666643  0.2422247021998354  T  T  T
0.3333333333333357  0.6666666666666643  0.0000000000000000  T  T  T
0.6666666666666643  0.3333333333333357  0.3381697309511889  T  T  T

0.00000000E+00  0.00000000E+00  0.00000000E+00
0.00000000E+00  0.00000000E+00  0.00000000E+00
0.00000000E+00  0.00000000E+00  0.00000000E+00
0.00000000E+00  0.00000000E+00  0.00000000E+00
0.00000000E+00  0.00000000E+00  0.00000000E+00
0.00000000E+00  0.00000000E+00  0.00000000E+00
0.00000000E+00  0.00000000E+00  0.00000000E+00
0.00000000E+00  0.00000000E+00  0.00000000E+00
0.00000000E+00  0.00000000E+00  0.00000000E+00
