Zr4C3  (n=3)
1.00000000000000
3.4512344036393676  0.0000000000000005  0.0000000000000000
-1.7256172018196838  2.9888566692664313  0.0000000000000000
-0.0000000000000002  0.0000000000000000  37.9308860660026426
Zr  C  I
4  3  2
Selective  dynamics
Direct
-0.0000000000000000  0.0000000000000000  0.0588871231814680  T  T  T
-0.0000000000000000  0.0000000000000000  0.1342182474595471  T  T  T
-0.0000000000000000  0.0000000000000000  0.2077830030381290  T  T  T
-0.0000000000000000  0.0000000000000000  0.2824843335074183  T  T  T
0.3333333333333357  0.6666666666666643  0.0909838454970593  T  T  T
0.3333333333333357  0.6666666666666643  0.1715811980792550  T  T  T
0.3333333333333357  0.6666666666666643  0.2521657170371245  T  T  T
0.3333333333333357  0.6666666666666643  0.0000000000000000  T  T  T
0.6666666666666643  0.3333333333333357  0.3409065120045420  T  T  T

0.00000000E+00  0.00000000E+00  0.00000000E+00
0.00000000E+00  0.00000000E+00  0.00000000E+00
0.00000000E+00  0.00000000E+00  0.00000000E+00
0.00000000E+00  0.00000000E+00  0.00000000E+00
0.00000000E+00  0.00000000E+00  0.00000000E+00
0.00000000E+00  0.00000000E+00  0.00000000E+00
0.00000000E+00  0.00000000E+00  0.00000000E+00
0.00000000E+00  0.00000000E+00  0.00000000E+00
0.00000000E+00  0.00000000E+00  0.00000000E+00
