Hf4C3  (n=3)
1.00000000000000
3.4133139438963722  0.0000000000000000  0.0000000000000000
-1.7066569719481863  2.9560165873644872  0.0000000000000000
-0.0000000000000002  -0.0000000000000003  37.7721829499449342
Hf  C  I
4  3  2
Selective  dynamics
Direct
0.0000000000000000  -0.0000000000000000  0.0583075733279558  T  T  T
0.0000000000000000  -0.0000000000000000  0.1327946384309680  T  T  T
0.0000000000000000  0.0000000000000000  0.2056223775722106  T  T  T
0.0000000000000000  0.0000000000000000  0.2796774750310909  T  T  T
0.3333333333333357  0.6666666666666643  0.0900561416437548  T  T  T
0.3333333333333357  0.6666666666666643  0.1699860286760963  T  T  T
0.3333333333333357  0.6666666666666643  0.2500456571203549  T  T  T
0.3333333333333357  0.6666666666666643  0.0000000000000000  T  T  T
0.6666666666666643  0.3333333333333357  0.3381372733175210  T  T  T

0.00000000E+00  0.00000000E+00  0.00000000E+00
0.00000000E+00  0.00000000E+00  0.00000000E+00
0.00000000E+00  0.00000000E+00  0.00000000E+00
0.00000000E+00  0.00000000E+00  0.00000000E+00
0.00000000E+00  0.00000000E+00  0.00000000E+00
0.00000000E+00  0.00000000E+00  0.00000000E+00
0.00000000E+00  0.00000000E+00  0.00000000E+00
0.00000000E+00  0.00000000E+00  0.00000000E+00
0.00000000E+00  0.00000000E+00  0.00000000E+00
