Ta4C3  (n=3)
1.00000000000000
3.2050718841348473  0.0000000000000000  0.0000000000000000
-1.6025359420674234  2.7756736731896612  0.0000000000000000
0.0000000000000003  -0.0000000000000002  37.7464039757351983
Ta  C  I
4  3  2
Selective  dynamics
Direct
-0.0000000000000000  -0.0000000000000000  0.0566181069368819  T  T  T
-0.0000000000000000  -0.0000000000000000  0.1305695934181826  T  T  T
-0.0000000000000000  -0.0000000000000000  0.2054175558371959  T  T  T
-0.0000000000000000  0.0000000000000000  0.2797040115544734  T  T  T
0.3333333333333357  0.6666666666666643  0.0910092648666210  T  T  T
0.3333333333333357  0.6666666666666643  0.1679023514932642  T  T  T
0.3333333333333357  0.6666666666666643  0.2446239106437027  T  T  T
0.3333333333333357  0.6666666666666643  0.0000000000000000  T  T  T
0.6666666666666643  0.3333333333333357  0.3376852529827494  T  T  T

0.00000000E+00  0.00000000E+00  0.00000000E+00
0.00000000E+00  0.00000000E+00  0.00000000E+00
0.00000000E+00  0.00000000E+00  0.00000000E+00
0.00000000E+00  0.00000000E+00  0.00000000E+00
0.00000000E+00  0.00000000E+00  0.00000000E+00
0.00000000E+00  0.00000000E+00  0.00000000E+00
0.00000000E+00  0.00000000E+00  0.00000000E+00
0.00000000E+00  0.00000000E+00  0.00000000E+00
0.00000000E+00  0.00000000E+00  0.00000000E+00
