Nb4N3  (n=3)
1.00000000000000
3.1355772060690459  0.0000000000000000  0.0000000000000000
-1.5677886030345229  2.7154895163136614  0.0000000000000000
-0.0000000000000003  0.0000000000000000  37.9124128470175634
Nb  N  I
4  3  2
Selective  dynamics
Direct
0.0000000000000000  0.0000000000000000  0.0572499345936078  T  T  T
0.0000000000000000  0.0000000000000000  0.1317775234380341  T  T  T
0.0000000000000000  0.0000000000000000  0.2073763191994315  T  T  T
0.0000000000000000  0.0000000000000000  0.2821078601551034  T  T  T
0.3333333333333357  0.6666666666666643  0.0944237618769881  T  T  T
0.3333333333333357  0.6666666666666643  0.1691983257713648  T  T  T
0.3333333333333357  0.6666666666666643  0.2434669743301581  T  T  T
0.3333333333333357  0.6666666666666643  0.0000000000000000  T  T  T
0.6666666666666643  0.3333333333333357  0.3405853618212363  T  T  T

0.00000000E+00  0.00000000E+00  0.00000000E+00
0.00000000E+00  0.00000000E+00  0.00000000E+00
0.00000000E+00  0.00000000E+00  0.00000000E+00
0.00000000E+00  0.00000000E+00  0.00000000E+00
0.00000000E+00  0.00000000E+00  0.00000000E+00
0.00000000E+00  0.00000000E+00  0.00000000E+00
0.00000000E+00  0.00000000E+00  0.00000000E+00
0.00000000E+00  0.00000000E+00  0.00000000E+00
0.00000000E+00  0.00000000E+00  0.00000000E+00
