Sc4N3  (n=3)
1.00000000000000
3.3402067812103522  0.0000000000000000  0.0000000000000000
-1.6701033906051761  2.8927039266535957  0.0000000000000000
0.0000000000000000  0.0000000000000000  37.5567105152672411
Sc  N  I
4  3  2
Selective  dynamics
Direct
0.0000000000000000  0.0000000000000000  0.0581119795201687  T  T  T
0.0000000000000000  0.0000000000000000  0.1310439819598212  T  T  T
0.0000000000000000  0.0000000000000000  0.2029375112246943  T  T  T
0.0000000000000000  0.0000000000000000  0.2759858927423370  T  T  T
0.3333333333333357  0.6666666666666643  0.0893564047248094  T  T  T
0.3333333333333357  0.6666666666666643  0.1680727262410293  T  T  T
0.3333333333333357  0.6666666666666643  0.2472265566278272  T  T  T
0.3333333333333357  0.6666666666666643  0.0000000000000000  T  T  T
0.6666666666666643  0.3333333333333357  0.3343399979122984  T  T  T

0.00000000E+00  0.00000000E+00  0.00000000E+00
0.00000000E+00  0.00000000E+00  0.00000000E+00
0.00000000E+00  0.00000000E+00  0.00000000E+00
0.00000000E+00  0.00000000E+00  0.00000000E+00
0.00000000E+00  0.00000000E+00  0.00000000E+00
0.00000000E+00  0.00000000E+00  0.00000000E+00
0.00000000E+00  0.00000000E+00  0.00000000E+00
0.00000000E+00  0.00000000E+00  0.00000000E+00
0.00000000E+00  0.00000000E+00  0.00000000E+00
