Cr4C3  (n=3)
1.00000000000000
3.0149611552090532  0.0000000000000002  0.0000000000000000
-1.5074805776045264  2.6110329518373052  0.0000000000000000
-0.0000000000000002  0.0000000000000001  36.6922781444193760
Cr  C  I
4  3  2
Selective  dynamics
Direct
-0.0000000000000000  -0.0000000000000000  0.0576340014111645  T  T  T
-0.0000000000000000  -0.0000000000000000  0.1243076965663020  T  T  T
-0.0000000000000000  -0.0000000000000000  0.1924609096744859  T  T  T
0.0000000000000000  -0.0000000000000000  0.2581383353705385  T  T  T
0.3333333333333357  0.6666666666666643  0.0885195999118980  T  T  T
0.3333333333333357  0.6666666666666643  0.1583257955704669  T  T  T
0.3333333333333357  0.6666666666666643  0.2282160719927788  T  T  T
0.3333333333333357  0.6666666666666643  0.0000000000000000  T  T  T
0.6666666666666643  0.3333333333333357  0.3186577322454340  T  T  T

0.00000000E+00  0.00000000E+00  0.00000000E+00
0.00000000E+00  0.00000000E+00  0.00000000E+00
0.00000000E+00  0.00000000E+00  0.00000000E+00
0.00000000E+00  0.00000000E+00  0.00000000E+00
0.00000000E+00  0.00000000E+00  0.00000000E+00
0.00000000E+00  0.00000000E+00  0.00000000E+00
0.00000000E+00  0.00000000E+00  0.00000000E+00
0.00000000E+00  0.00000000E+00  0.00000000E+00
0.00000000E+00  0.00000000E+00  0.00000000E+00
