Zr4N3  (n=3)
1.00000000000000
3.3154643703775069  0.0000000000000001  0.0000000000000000
-1.6577321851887534  2.8712763703292672  0.0000000000000001
-0.0000000000000007  0.0000000000000003  38.0127437193056181
Zr  N  I
4  3  2
Selective  dynamics
Direct
0.0000000000000000  0.0000000000000000  0.0568960116979622  T  T  T
0.0000000000000000  0.0000000000000000  0.1326570363558821  T  T  T
0.0000000000000000  0.0000000000000000  0.2091690219631397  T  T  T
0.0000000000000000  0.0000000000000000  0.2852973386228138  T  T  T
0.3333333333333357  0.6666666666666643  0.0941079817707128  T  T  T
0.3333333333333357  0.6666666666666643  0.1707567308726115  T  T  T
0.3333333333333357  0.6666666666666643  0.2472792406320140  T  T  T
0.3333333333333357  0.6666666666666643  0.0000000000000000  T  T  T
0.6666666666666643  0.3333333333333357  0.3423258214506837  T  T  T

0.00000000E+00  0.00000000E+00  0.00000000E+00
0.00000000E+00  0.00000000E+00  0.00000000E+00
0.00000000E+00  0.00000000E+00  0.00000000E+00
0.00000000E+00  0.00000000E+00  0.00000000E+00
0.00000000E+00  0.00000000E+00  0.00000000E+00
0.00000000E+00  0.00000000E+00  0.00000000E+00
0.00000000E+00  0.00000000E+00  0.00000000E+00
0.00000000E+00  0.00000000E+00  0.00000000E+00
0.00000000E+00  0.00000000E+00  0.00000000E+00
