Ti4N3  (n=3)
1.00000000000000
3.1523446697885698  0.0000000000000000  0.0000000000000000
-1.5761723348942847  2.7300105656516895  0.0000000000000000
-0.0000000000000001  0.0000000000000001  36.9876938682389920
Ti  N  I
4  3  2
Selective  dynamics
Direct
-0.0000000000000000  -0.0000000000000000  0.0561644160335814  T  T  T
-0.0000000000000000  -0.0000000000000000  0.1261964100244729  T  T  T
-0.0000000000000000  -0.0000000000000000  0.1972548425135010  T  T  T
-0.0000000000000000  -0.0000000000000000  0.2671885194488905  T  T  T
0.3333333333333357  0.6666666666666643  0.0883679614999991  T  T  T
0.3333333333333357  0.6666666666666643  0.1619732157915058  T  T  T
0.3333333333333357  0.6666666666666643  0.2358104077172193  T  T  T
0.3333333333333357  0.6666666666666643  0.0000000000000000  T  T  T
0.6666666666666643  0.3333333333333357  0.3240995210715940  T  T  T

0.00000000E+00  0.00000000E+00  0.00000000E+00
0.00000000E+00  0.00000000E+00  0.00000000E+00
0.00000000E+00  0.00000000E+00  0.00000000E+00
0.00000000E+00  0.00000000E+00  0.00000000E+00
0.00000000E+00  0.00000000E+00  0.00000000E+00
0.00000000E+00  0.00000000E+00  0.00000000E+00
0.00000000E+00  0.00000000E+00  0.00000000E+00
0.00000000E+00  0.00000000E+00  0.00000000E+00
0.00000000E+00  0.00000000E+00  0.00000000E+00
