Ta4N3  (n=3)
1.00000000000000
3.1077963241892088  0.0000000000000000  0.0000000000000000
-1.5538981620946042  2.6914305669686951  0.0000000000000000
-0.0000000000000001  -0.0000000000000004  37.9564138806779852
Ta  N  I
4  3  2
Selective  dynamics
Direct
0.0000000000000000  0.0000000000000000  0.0574205524356703  T  T  T
0.0000000000000000  0.0000000000000000  0.1322409714559163  T  T  T
0.0000000000000000  0.0000000000000000  0.2077065253719906  T  T  T
0.0000000000000000  0.0000000000000000  0.2829756707795301  T  T  T
0.3333333333333357  0.6666666666666643  0.0951392798557104  T  T  T
0.3333333333333357  0.6666666666666643  0.1695842059258773  T  T  T
0.3333333333333357  0.6666666666666643  0.2437585654144532  T  T  T
0.3333333333333357  0.6666666666666643  0.0000000000000000  T  T  T
0.6666666666666643  0.3333333333333357  0.3413497892980231  T  T  T

0.00000000E+00  0.00000000E+00  0.00000000E+00
0.00000000E+00  0.00000000E+00  0.00000000E+00
0.00000000E+00  0.00000000E+00  0.00000000E+00
0.00000000E+00  0.00000000E+00  0.00000000E+00
0.00000000E+00  0.00000000E+00  0.00000000E+00
0.00000000E+00  0.00000000E+00  0.00000000E+00
0.00000000E+00  0.00000000E+00  0.00000000E+00
0.00000000E+00  0.00000000E+00  0.00000000E+00
0.00000000E+00  0.00000000E+00  0.00000000E+00
