Ta2N  (n=1)
1.00000000000000
2.9373523928803356  -0.0000000000000001  0.0000000000000000
-1.4686761964401678  2.5438217921425417  0.0000000000000000
0.0000000000000000  0.0000000000000000  29.9213927711167891
Ta  N  H
2  1  2
Selective  dynamics
Direct
-0.0000000000000000  -0.0000000000000000  0.0357838401811646  T  T  T
0.6666666666666643  0.3333333333333357  0.1286935559334782  T  T  T
0.3333333333333357  0.6666666666666643  0.0822386980573214  T  T  T
0.6666666666666643  0.3333333333333357  0.0000000000000000  T  T  T
0.0000000000000000  0.0000000000000000  0.1644773961146429  T  T  T

0.00000000E+00  0.00000000E+00  0.00000000E+00
0.00000000E+00  0.00000000E+00  0.00000000E+00
0.00000000E+00  0.00000000E+00  0.00000000E+00
0.00000000E+00  0.00000000E+00  0.00000000E+00
0.00000000E+00  0.00000000E+00  0.00000000E+00
