Zr2C  (n=1)
1.00000000000000
3.3082779369696982  -0.0000000000000007  0.0000000000000002
-1.6541389684848491  2.8650527362664544  0.0000000000000000
0.0000000000000005  -0.0000000000000016  29.5877162825137425
Zr  C  H
2  1  2
Selective  dynamics
Direct
0.0000000000000000  0.0000000000000000  0.0347711829717808  T  T  T
0.6666666666666643  0.3333333333333357  0.1202835782240022  T  T  T
0.3333333333333357  0.6666666666666643  0.0775273805978915  T  T  T
0.6666666666666643  0.3333333333333357  0.0000000000000000  T  T  T
-0.0000000000000000  -0.0000000000000000  0.1550547611957828  T  T  T

0.00000000E+00  0.00000000E+00  0.00000000E+00
0.00000000E+00  0.00000000E+00  0.00000000E+00
0.00000000E+00  0.00000000E+00  0.00000000E+00
0.00000000E+00  0.00000000E+00  0.00000000E+00
0.00000000E+00  0.00000000E+00  0.00000000E+00
