Cr2C  (n=1)
1.00000000000000
2.8260671129869968  0.0000000000000000  0.0000000000000000
-1.4130335564934984  2.4474459126544206  0.0000000000000000
0.0000000000000000  -0.0000000000000001  29.1419529723216151
Cr  C  H
2  1  2
Selective  dynamics
Direct
0.0000000000000000  -0.0000000000000000  0.0334675112668016  T  T  T
0.6666666666666643  0.3333333333333357  0.1086627356749716  T  T  T
0.3333333333333357  0.6666666666666643  0.0710651234708906  T  T  T
0.6666666666666643  0.3333333333333357  0.0000000000000000  T  T  T
-0.0000000000000000  -0.0000000000000000  0.1421302469417733  T  T  T

0.00000000E+00  0.00000000E+00  0.00000000E+00
0.00000000E+00  0.00000000E+00  0.00000000E+00
0.00000000E+00  0.00000000E+00  0.00000000E+00
0.00000000E+00  0.00000000E+00  0.00000000E+00
0.00000000E+00  0.00000000E+00  0.00000000E+00
