Ti2C  (n=1)
1.00000000000000
3.0306051424014910  0.0000000000000000  0.0000000000000000
-1.5153025712007455  2.6245810421986624  0.0000000000000000
0.0000000000000000  -0.0000000000000001  29.2834068855555039
Ti  C  H
2  1  2
Selective  dynamics
Direct
-0.0000000000000000  0.0000000000000000  0.0335663361019751  T  T  T
0.6666666666666643  0.3333333333333357  0.1127078628768454  T  T  T
0.3333333333333357  0.6666666666666643  0.0731370994894103  T  T  T
0.6666666666666643  0.3333333333333357  0.0000000000000000  T  T  T
0.0000000000000000  -0.0000000000000000  0.1462741989788204  T  T  T

0.00000000E+00  0.00000000E+00  0.00000000E+00
0.00000000E+00  0.00000000E+00  0.00000000E+00
0.00000000E+00  0.00000000E+00  0.00000000E+00
0.00000000E+00  0.00000000E+00  0.00000000E+00
0.00000000E+00  0.00000000E+00  0.00000000E+00
