Mo2C  (n=1)
1.00000000000000
2.9475255275554297  0.0000000000000000  0.0000000000000000
-1.4737627637777149  2.5526319852111139  0.0000000000000000
0.0000000000000000  0.0000000000000001  29.6689317002404920
Mo  C  H
2  1  2
Selective  dynamics
Direct
-0.0000000000000000  0.0000000000000000  0.0356258576585699  T  T  T
0.6666666666666643  0.3333333333333357  0.1217418476370893  T  T  T
0.3333333333333357  0.6666666666666643  0.0786838526478296  T  T  T
0.6666666666666643  0.3333333333333357  0.0000000000000000  T  T  T
-0.0000000000000000  0.0000000000000000  0.1573677052956594  T  T  T

0.00000000E+00  0.00000000E+00  0.00000000E+00
0.00000000E+00  0.00000000E+00  0.00000000E+00
0.00000000E+00  0.00000000E+00  0.00000000E+00
0.00000000E+00  0.00000000E+00  0.00000000E+00
0.00000000E+00  0.00000000E+00  0.00000000E+00
