Hf2C  (n=1)
1.00000000000000
3.2463072065018350  0.0000000000000005  0.0000000000000000
-1.6231536032509175  2.8113845093826844  0.0000000000000000
0.0000000000000000  -0.0000000000000026  29.5317071235874238
Hf  C  H
2  1  2
Selective  dynamics
Direct
-0.0000000000000000  0.0000000000000000  0.0346547160413360  T  T  T
0.6666666666666643  0.3333333333333357  0.1187975413788967  T  T  T
0.3333333333333357  0.6666666666666643  0.0767261287101162  T  T  T
0.6666666666666643  0.3333333333333357  0.0000000000000000  T  T  T
-0.0000000000000000  0.0000000000000000  0.1534522574202247  T  T  T

0.00000000E+00  0.00000000E+00  0.00000000E+00
0.00000000E+00  0.00000000E+00  0.00000000E+00
0.00000000E+00  0.00000000E+00  0.00000000E+00
0.00000000E+00  0.00000000E+00  0.00000000E+00
0.00000000E+00  0.00000000E+00  0.00000000E+00
