Ti2N  (n=1)
1.00000000000000
2.9724263816129488  0.0000000000000000  0.0000000000000000
-1.4862131908064744  2.5741967573891151  0.0000000000000000
0.0000000000000000  0.0000000000000000  29.3050671681944692
Ti  N  H
2  1  2
Selective  dynamics
Direct
0.0000000000000000  -0.0000000000000000  0.0342244505290681  T  T  T
0.6666666666666643  0.3333333333333357  0.1126807636267577  T  T  T
0.3333333333333357  0.6666666666666643  0.0734526070779129  T  T  T
0.6666666666666643  0.3333333333333357  0.0000000000000000  T  T  T
0.0000000000000000  0.0000000000000000  0.1469052141558258  T  T  T

0.00000000E+00  0.00000000E+00  0.00000000E+00
0.00000000E+00  0.00000000E+00  0.00000000E+00
0.00000000E+00  0.00000000E+00  0.00000000E+00
0.00000000E+00  0.00000000E+00  0.00000000E+00
0.00000000E+00  0.00000000E+00  0.00000000E+00
