Ta2C  (n=1)
1.00000000000000
3.0895709485205964  -0.0000000000000000  0.0000000000000002
-1.5447854742602982  2.6756469282678133  -0.0000000000000006
0.0000000000000010  -0.0000000000000013  29.5132356362450849
Ta  C  H
2  1  2
Selective  dynamics
Direct
-0.0000000000000000  -0.0000000000000000  0.0348043005597295  T  T  T
0.6666666666666643  0.3333333333333357  0.1181181269189572  T  T  T
0.3333333333333357  0.6666666666666643  0.0764612137393433  T  T  T
0.6666666666666643  0.3333333333333357  0.0000000000000000  T  T  T
0.0000000000000000  0.0000000000000000  0.1529224274786868  T  T  T

0.00000000E+00  0.00000000E+00  0.00000000E+00
0.00000000E+00  0.00000000E+00  0.00000000E+00
0.00000000E+00  0.00000000E+00  0.00000000E+00
0.00000000E+00  0.00000000E+00  0.00000000E+00
0.00000000E+00  0.00000000E+00  0.00000000E+00
