Cr2N  (n=1)
1.00000000000000
2.6658744944988979  0.0000000000000000  0.0000000000000000
-1.3329372472494490  2.3087150355683956  0.0000000000000000
0.0000000000000000  0.0000000000000003  29.5099761970784513
Cr  N  H
2  1  2
Selective  dynamics
Direct
-0.0000000000000000  -0.0000000000000000  0.0339472987318209  T  T  T
0.6666666666666643  0.3333333333333357  0.1188815672407972  T  T  T
0.3333333333333357  0.6666666666666643  0.0764144329863049  T  T  T
0.6666666666666643  0.3333333333333357  0.0000000000000000  T  T  T
0.0000000000000000  0.0000000000000000  0.1528288659726181  T  T  T

0.00000000E+00  0.00000000E+00  0.00000000E+00
0.00000000E+00  0.00000000E+00  0.00000000E+00
0.00000000E+00  0.00000000E+00  0.00000000E+00
0.00000000E+00  0.00000000E+00  0.00000000E+00
0.00000000E+00  0.00000000E+00  0.00000000E+00
