Nb2N  (n=1)
1.00000000000000
2.9681314474265204  0.0000000000000000  0.0000000000000000
-1.4840657237132602  2.5704772352781000  0.0000000000000000
0.0000000000000001  0.0000000000000000  29.9011704306831909
Nb  N  H
2  1  2
Selective  dynamics
Direct
0.0000000000000000  0.0000000000000000  0.0357852026734810  T  T  T
0.6666666666666643  0.3333333333333357  0.1281271245059962  T  T  T
0.3333333333333357  0.6666666666666643  0.0819561635897342  T  T  T
0.6666666666666643  0.3333333333333357  0.0000000000000000  T  T  T
-0.0000000000000000  -0.0000000000000000  0.1639123271794684  T  T  T

0.00000000E+00  0.00000000E+00  0.00000000E+00
0.00000000E+00  0.00000000E+00  0.00000000E+00
0.00000000E+00  0.00000000E+00  0.00000000E+00
0.00000000E+00  0.00000000E+00  0.00000000E+00
0.00000000E+00  0.00000000E+00  0.00000000E+00
