Hf2N  (n=1)
1.00000000000000
3.1940420225202342  -0.0000000000000003  0.0000000000000000
-1.5970210112601173  2.7661215323121993  0.0000000000000000
0.0000000000000001  0.0000000000000000  29.4789600307759372
Hf  N  H
2  1  2
Selective  dynamics
Direct
-0.0000000000000000  -0.0000000000000000  0.0345300873256312  T  T  T
0.6666666666666643  0.3333333333333357  0.1174074310298384  T  T  T
0.3333333333333357  0.6666666666666643  0.0759687591777348  T  T  T
0.6666666666666643  0.3333333333333357  0.0000000000000000  T  T  T
-0.0000000000000000  -0.0000000000000000  0.1519375183554615  T  T  T

0.00000000E+00  0.00000000E+00  0.00000000E+00
0.00000000E+00  0.00000000E+00  0.00000000E+00
0.00000000E+00  0.00000000E+00  0.00000000E+00
0.00000000E+00  0.00000000E+00  0.00000000E+00
0.00000000E+00  0.00000000E+00  0.00000000E+00
