Sc2N
1.00000000000000
3.1836065955583113  0.0000000000000000  0.0000000000000002
-1.5918032977791559  2.7570841874608312  0.0000000000000000
0.0000000000000004  0.0000000000000005  29.5241085498793652
Sc  N  H
2  1  2
Selective  dynamics
Direct
-0.0000000000000000  -0.0000000000000000  0.0347414682729630  T  T  T
0.6666666666666643  0.3333333333333357  0.1184929144768545  T  T  T
0.3333333333333357  0.6666666666666643  0.0766171913749087  T  T  T
0.6666666666666643  0.3333333333333357  0.0000000000000000  T  T  T
0.0000000000000000  0.0000000000000000  0.1532343827498172  T  T  T

0.00000000E+00  0.00000000E+00  0.00000000E+00
0.00000000E+00  0.00000000E+00  0.00000000E+00
0.00000000E+00  0.00000000E+00  0.00000000E+00
0.00000000E+00  0.00000000E+00  0.00000000E+00
0.00000000E+00  0.00000000E+00  0.00000000E+00
