Zr2N  (n=1)
1.00000000000000
3.2693541637959389  0.0000000000000004  -0.0000000000000001
-1.6346770818979692  2.8313437598792137  0.0000000000000002
-0.0000000000000004  0.0000000000000006  29.5331519007764314
Zr  N  H
2  1  2
Selective  dynamics
Direct
0.0000000000000000  0.0000000000000000  0.0351572858301606  T  T  T
0.6666666666666643  0.3333333333333357  0.1183363851470129  T  T  T
0.3333333333333357  0.6666666666666643  0.0767468354885828  T  T  T
0.6666666666666643  0.3333333333333357  0.0000000000000000  T  T  T
-0.0000000000000000  0.0000000000000000  0.1534936709771656  T  T  T

0.00000000E+00  0.00000000E+00  0.00000000E+00
0.00000000E+00  0.00000000E+00  0.00000000E+00
0.00000000E+00  0.00000000E+00  0.00000000E+00
0.00000000E+00  0.00000000E+00  0.00000000E+00
0.00000000E+00  0.00000000E+00  0.00000000E+00
