Sc2C  (n=1)
1.00000000000000
3.2890016838963549  0.0000000000000000  0.0000000000000000
-1.6445008419481775  2.8483590114270392  0.0000000000000000
-0.0000000000000001  -0.0000000000000004  29.5594582684273561
Sc  C  H
2  1  2
Selective  dynamics
Direct
-0.0000000000000000  0.0000000000000000  0.0345168237151056  T  T  T
0.6666666666666643  0.3333333333333357  0.1197301935009488  T  T  T
0.3333333333333357  0.6666666666666643  0.0771235086080314  T  T  T
0.6666666666666643  0.3333333333333357  0.0000000000000000  T  T  T
0.0000000000000000  -0.0000000000000000  0.1542470172160544  T  T  T

0.00000000E+00  0.00000000E+00  0.00000000E+00
0.00000000E+00  0.00000000E+00  0.00000000E+00
0.00000000E+00  0.00000000E+00  0.00000000E+00
0.00000000E+00  0.00000000E+00  0.00000000E+00
0.00000000E+00  0.00000000E+00  0.00000000E+00
