Ta2NO2
1.00000000000000
2.9783708269233324  0.0000000000000002  0.0000000000000000
-1.4891854134616662  2.5793447980477784  -0.0000000000000002
0.0000000000000000  -0.0000000000000010  30.2284234019742257
Ta  N  O
2  1  2
Selective  Dynamics
Direct
0.0000000000000000  0.0000000000000000  0.0382071116623132  T  T  T
0.0000000000000000  0.0000000000000000  0.1339880618542414  T  T  T
0.3333333333333357  0.6666666666666643  0.0859122858829472  T  T  T
0.6666666666666643  0.3333333333333357  0.0000000000000000  T  T  T
0.3333333333333357  0.6666666666666643  0.1729638139722747  T  T  T

0.00000000E+00  0.00000000E+00  0.00000000E+00
0.00000000E+00  0.00000000E+00  0.00000000E+00
0.00000000E+00  0.00000000E+00  0.00000000E+00
0.00000000E+00  0.00000000E+00  0.00000000E+00
0.00000000E+00  0.00000000E+00  0.00000000E+00
