Ta2C
1.00000000000000
3.0498902274854518  -0.0000000000000009  0.0000000000000000
-1.5249451137427259  2.6412824158353509  0.0000000000000000
0.0000000000000000  0.0000000000000000  30.0722335042454674
Ta  C  O
2  1  2
Selective  dynamics
Direct
0.0000000000000000  0.0000000000000000  0.0358209096035444  T  T  T
0.0000000000000000  0.0000000000000000  0.1300070128429704  T  T  T
0.3333333333333357  0.6666666666666643  0.0812265499595618  T  T  T
0.6666666666666643  0.3333333333333357  0.0000000000000000  T  T  T
0.3333333333333357  0.6666666666666643  0.1686683333158274  T  T  T

0.00000000E+00  0.00000000E+00  0.00000000E+00
0.00000000E+00  0.00000000E+00  0.00000000E+00
0.00000000E+00  0.00000000E+00  0.00000000E+00
0.00000000E+00  0.00000000E+00  0.00000000E+00
0.00000000E+00  0.00000000E+00  0.00000000E+00
