Cr2C
1.00000000000000
2.6711207922753255  0.0000000000000001  0.0000000000000000
-1.3355603961376628  2.3132584627314507  -0.0000000000000001
0.0000000000000000  0.0000000000000000  29.8990548819127326
Cr  C  O
2  1  2
Selective  dynamics
Direct
0.0000000000000000  0.0000000000000000  0.0371003293846368  T  T  T
0.0000000000000000  0.0000000000000000  0.1255667812458420  T  T  T
0.3333333333333357  0.6666666666666643  0.0825377416101301  T  T  T
0.6666666666666643  0.3333333333333357  0.0000000000000000  T  T  T
0.3333333333333357  0.6666666666666643  0.1638531686456881  T  T  T

0.00000000E+00  0.00000000E+00  0.00000000E+00
0.00000000E+00  0.00000000E+00  0.00000000E+00
0.00000000E+00  0.00000000E+00  0.00000000E+00
0.00000000E+00  0.00000000E+00  0.00000000E+00
0.00000000E+00  0.00000000E+00  0.00000000E+00
