Ti2N
1.00000000000000
2.9363523107048377  0.0000000000000000  0.0000000000000000
-1.4681761553524189  2.5429556955776111  0.0000000000000000
0.0000000000000000  0.0000000000000001  29.7233654208320885
Ti  N  O
2  1  2
Selective  dynamics
Direct
0.0000000000000000  0.0000000000000000  0.0318291513006476  T  T  T
0.0000000000000000  0.0000000000000000  0.1248288270402896  T  T  T
0.3333333333333357  0.6666666666666643  0.0754575309775292  T  T  T
0.6666666666666643  0.3333333333333357  0.0000000000000000  T  T  T
0.3333333333333357  0.6666666666666643  0.1589108552802585  T  T  T

0.00000000E+00  0.00000000E+00  0.00000000E+00
0.00000000E+00  0.00000000E+00  0.00000000E+00
0.00000000E+00  0.00000000E+00  0.00000000E+00
0.00000000E+00  0.00000000E+00  0.00000000E+00
0.00000000E+00  0.00000000E+00  0.00000000E+00
