Sc2NO2
1.00000000000000
3.2424841776369053  -0.0000000000000036  0.0000000000000001
-1.6212420888184529  2.8080736692902306  -0.0000000000000003
-0.0000000000000003  -0.0000000000000059  29.5375034519512134
Sc  N  O
2  1  2
Selective  Dynamics
Direct
0.0000000000000000  0.0000000000000000  0.0253723026277944  T  T  T
0.0000000000000000  0.0000000000000000  0.1249276758931891  T  T  T
0.3333333333333357  0.6666666666666643  0.0766940960798923  T  T  T
0.6666666666666643  0.3333333333333357  0.0000000000000000  T  T  T
0.3333333333333357  0.6666666666666643  0.1536183807589694  T  T  T

0.00000000E+00  0.00000000E+00  0.00000000E+00
0.00000000E+00  0.00000000E+00  0.00000000E+00
0.00000000E+00  0.00000000E+00  0.00000000E+00
0.00000000E+00  0.00000000E+00  0.00000000E+00
0.00000000E+00  0.00000000E+00  0.00000000E+00
