Cr2N
1.00000000000000
2.6590652298287156  0.0000000000000000  0.0000000000000000
-1.3295326149143578  2.3028180394186690  0.0000000000000000
0.0000000000000000  -0.0000000000000001  29.8681228217546852
Cr  N  O
2  1  2
Selective  dynamics
Direct
0.0000000000000000  0.0000000000000000  0.0367776938000959  T  T  T
0.0000000000000000  0.0000000000000000  0.1246556093369589  T  T  T
0.3333333333333357  0.6666666666666643  0.0828957638893090  T  T  T
0.6666666666666643  0.3333333333333357  0.0000000000000000  T  T  T
0.3333333333333357  0.6666666666666643  0.1629872372899494  T  T  T

0.00000000E+00  0.00000000E+00  0.00000000E+00
0.00000000E+00  0.00000000E+00  0.00000000E+00
0.00000000E+00  0.00000000E+00  0.00000000E+00
0.00000000E+00  0.00000000E+00  0.00000000E+00
0.00000000E+00  0.00000000E+00  0.00000000E+00
