Nb2CO2
1.00000000000000
3.0812336839363734  0.0000000000000019  0.0000000000000001
-1.5406168419681856  2.6684266453444723  -0.0000000000000002
-0.0000000000000005  -0.0000000000000008  30.0611139727855274
Nb  C  O
2  1  2
Selective  Dynamics
Direct
0.0000000000000000  0.0000000000000000  0.0351713572596262  T  T  T
0.0000000000000000  0.0000000000000000  0.1294542187942102  T  T  T
0.3333333333333357  0.6666666666666643  0.0811224782238689  T  T  T
0.6666666666666643  0.3333333333333357  0.0000000000000000  T  T  T
0.3333333333333357  0.6666666666666643  0.1683608257953241  T  T  T

0.00000000E+00  0.00000000E+00  0.00000000E+00
0.00000000E+00  0.00000000E+00  0.00000000E+00
0.00000000E+00  0.00000000E+00  0.00000000E+00
0.00000000E+00  0.00000000E+00  0.00000000E+00
0.00000000E+00  0.00000000E+00  0.00000000E+00
