Mo2N
1.00000000000000
2.8475100387858974  0.0000000000000001  0.0000000000000000
-1.4237550193929487  2.4660160311632442  0.0000000000000000
0.0000000000000000  0.0000000000000001  30.3322097372532333
Mo  N  O
2  1  2
Selective  dynamics
Direct
0.0000000000000000  0.0000000000000000  0.0402382185291159  T  T  T
0.0000000000000000  0.0000000000000000  0.1352817168615452  T  T  T
0.3333333333333357  0.6666666666666643  0.0915277275433995  T  T  T
0.6666666666666643  0.3333333333333357  0.0000000000000000  T  T  T
0.3333333333333357  0.6666666666666643  0.1757936458781752  T  T  T

0.00000000E+00  0.00000000E+00  0.00000000E+00
0.00000000E+00  0.00000000E+00  0.00000000E+00
0.00000000E+00  0.00000000E+00  0.00000000E+00
0.00000000E+00  0.00000000E+00  0.00000000E+00
0.00000000E+00  0.00000000E+00  0.00000000E+00
