Zr2C
1.00000000000000
3.2715116628945093  0.0000000000000000  0.0000000000000000
-1.6357558314472547  2.8332122089983431  0.0000000000000000
-0.0000000000000001  0.0000000000000001  29.9693362117785611
Zr  C  O
2  1  2
Selective  dynamics
Direct
0.0000000000000000  0.0000000000000000  0.0312552041439753  T  T  T
0.0000000000000000  0.0000000000000000  0.1322002325289736  T  T  T
0.3333333333333357  0.6666666666666643  0.0799785623525403  T  T  T
0.6666666666666643  0.3333333333333357  0.0000000000000000  T  T  T
0.3333333333333357  0.6666666666666643  0.1658140232624008  T  T  T

0.00000000E+00  0.00000000E+00  0.00000000E+00
0.00000000E+00  0.00000000E+00  0.00000000E+00
0.00000000E+00  0.00000000E+00  0.00000000E+00
0.00000000E+00  0.00000000E+00  0.00000000E+00
0.00000000E+00  0.00000000E+00  0.00000000E+00
