Hf2CO2
1.00000000000000
3.2282641064563928  -0.0000000000000008  -0.0000000000000002
-1.6141320532281964  2.7957587264164965  0.0000000000000006
0.0000000000000000  -0.0000000000000016  29.8972112326385790
Hf  C  O
2  1  2
Selective  Dynamics
Direct
0.0000000000000000  0.0000000000000000  0.0308355043357096  T  T  T
0.0000000000000000  0.0000000000000000  0.1301008242968265  T  T  T
0.3333333333333357  0.6666666666666643  0.0788409668367647  T  T  T
0.6666666666666643  0.3333333333333357  0.0000000000000000  T  T  T
0.3333333333333357  0.6666666666666643  0.1638016065957459  T  T  T

0.00000000E+00  0.00000000E+00  0.00000000E+00
0.00000000E+00  0.00000000E+00  0.00000000E+00
0.00000000E+00  0.00000000E+00  0.00000000E+00
0.00000000E+00  0.00000000E+00  0.00000000E+00
0.00000000E+00  0.00000000E+00  0.00000000E+00
