Zr2NO2
1.00000000000000
3.2314206460408181  0.0000000000000014  0.0000000000000002
-1.6157103230204088  2.7984923698754294  0.0000000000000000
0.0000000000000005  0.0000000000000016  29.9744358474195565
Zr  N  O
2  1  2
Selective  Dynamics
Direct
0.0000000000000000  0.0000000000000001  0.0312785940787896  T  T  T
0.0000000000000000  -0.0000000000000001  0.1307584345182715  T  T  T
0.3333333333333357  0.6666666666666643  0.0772277563985025  T  T  T
0.6666666666666643  0.3333333333333357  0.0000000000000000  T  T  T
0.3333333333333357  0.6666666666666643  0.1659559456845556  T  T  T

0.00000000E+00  0.00000000E+00  0.00000000E+00
0.00000000E+00  0.00000000E+00  0.00000000E+00
0.00000000E+00  0.00000000E+00  0.00000000E+00
0.00000000E+00  0.00000000E+00  0.00000000E+00
0.00000000E+00  0.00000000E+00  0.00000000E+00
