Nb2NO2
1.00000000000000
3.0033828399165983  0.0000000000000023  -0.0000000000000001
-1.5016914199582982  2.6010058367068232  -0.0000000000000001
0.0000000000000005  0.0000000000000004  30.2188474450921838
Nb  N  O
2  1  2
Selective  Dynamics
Direct
0.0000000000000000  0.0000000000000000  0.0380518551156824  T  T  T
0.0000000000000000  0.0000000000000000  0.1336905281566146  T  T  T
0.3333333333333357  0.6666666666666643  0.0862370973038830  T  T  T
0.6666666666666643  0.3333333333333357  0.0000000000000000  T  T  T
0.3333333333333357  0.6666666666666643  0.1727017370392719  T  T  T

0.00000000E+00  0.00000000E+00  0.00000000E+00
0.00000000E+00  0.00000000E+00  0.00000000E+00
0.00000000E+00  0.00000000E+00  0.00000000E+00
0.00000000E+00  0.00000000E+00  0.00000000E+00
0.00000000E+00  0.00000000E+00  0.00000000E+00
