Ti2CO2
1.00000000000000
3.0121481109354074  0.0000000000000042  0.0000000000000071
-1.5060740554677015  2.6085967840829762  -0.0000000000000154
0.0000000000000260  -0.0000000000000354  29.6592266277212282
Ti  C  O
2  1  2
Selective  Dynamics
Direct
0.0000000000000000  -0.0000000000000001  0.0302094840982125  T  T  T
0.0000000000000000  0.0000000000000001  0.1248786017433538  T  T  T
0.3333333333333357  0.6666666666666643  0.0759419672241624  T  T  T
0.6666666666666643  0.3333333333333354  0.0000000000000000  T  T  T
0.3333333333333357  0.6666666666666645  0.1570919797135386  T  T  T

0.00000000E+00  0.00000000E+00  0.00000000E+00
0.00000000E+00  0.00000000E+00  0.00000000E+00
0.00000000E+00  0.00000000E+00  0.00000000E+00
0.00000000E+00  0.00000000E+00  0.00000000E+00
0.00000000E+00  0.00000000E+00  0.00000000E+00
