Hf2NO2
1.00000000000000
3.1757236286487327  -0.0000000000000014  -0.0000000000000004
-1.5878618143243644  2.7502573378878594  0.0000000000000028
-0.0000000000000040  0.0000000000000030  29.9196070410415409
Hf  N  O
2  1  2
Selective  Dynamics
Direct
0.0000000000000000  0.0000000000000000  0.0311459466284110  T  T  T
0.0000000000000000  0.0000000000000000  0.1295701103402959  T  T  T
0.3333333333333357  0.6666666666666643  0.0761111643836100  T  T  T
0.6666666666666643  0.3333333333333357  0.0000000000000000  T  T  T
0.3333333333333358  0.6666666666666643  0.1644275285532053  T  T  T

0.00000000E+00  0.00000000E+00  0.00000000E+00
0.00000000E+00  0.00000000E+00  0.00000000E+00
0.00000000E+00  0.00000000E+00  0.00000000E+00
0.00000000E+00  0.00000000E+00  0.00000000E+00
0.00000000E+00  0.00000000E+00  0.00000000E+00
