Mo2C
1.00000000000000
2.8860191883091444  0.0000000000000000  0.0000000000000000
-1.4430095941545722  2.4993659329354494  0.0000000000000000
0.0000000000000000  0.0000000000000000  30.2600752593812459
Mo  C  O
2  1  2
Selective  dynamics
Direct
0.0000000000000000  0.0000000000000000  0.0399739850207193  T  T  T
0.0000000000000000  0.0000000000000000  0.1335291656054973  T  T  T
0.3333333333333357  0.6666666666666643  0.0882950769531550  T  T  T
0.6666666666666643  0.3333333333333357  0.0000000000000000  T  T  T
0.3333333333333357  0.6666666666666643  0.1738288888673703  T  T  T

0.00000000E+00  0.00000000E+00  0.00000000E+00
0.00000000E+00  0.00000000E+00  0.00000000E+00
0.00000000E+00  0.00000000E+00  0.00000000E+00
0.00000000E+00  0.00000000E+00  0.00000000E+00
0.00000000E+00  0.00000000E+00  0.00000000E+00
