Sc2C
1.00000000000000
3.2491709211544153  0.0000000000000000  0.0000000000000000
-1.6245854605772077  2.8138645590584797  0.0000000000000000
0.0000000000000000  0.0000000000000000  29.7873312932436285
Sc  C  O
2  1  2
Selective  dynamics
Direct
0.0000000000000000  0.0000000000000000  0.0246253699202668  T  T  T
0.0000000000000000  0.0000000000000000  0.1339513390311465  T  T  T
0.3333333333333357  0.6666666666666643  0.0785681568636039  T  T  T
0.6666666666666643  0.3333333333333357  0.0000000000000000  T  T  T
0.3333333333333357  0.6666666666666643  0.1607170258427781  T  T  T

0.00000000E+00  0.00000000E+00  0.00000000E+00
0.00000000E+00  0.00000000E+00  0.00000000E+00
0.00000000E+00  0.00000000E+00  0.00000000E+00
0.00000000E+00  0.00000000E+00  0.00000000E+00
0.00000000E+00  0.00000000E+00  0.00000000E+00
