Cr3N2  (n=2)
1.00000000000000
2.9672688173259876  -0.0000000000000001  0.0000000000000000
-1.4836344086629938  2.5697301756742310  0.0000000000000000
-0.0000000000000001  0.0000000000000001  33.7898002466339733
Cr  N  O  H
3  2  2  2
Selective  dynamics
Direct
-0.0000000000000000  0.0000000000000000  0.0645625911966865  T  T  T
0.6666666666666643  0.3333333333333357  0.1300658805686349  T  T  T
0.3333333333333357  0.6666666666666643  0.1955691699405990  T  T  T
0.3333333333333357  0.6666666666666643  0.0948070208229577  T  T  T
0.0000000000000000  0.0000000000000000  0.1653247403143199  T  T  T
0.6666666666666643  0.3333333333333357  0.0288277022054760  T  T  T
0.6666666666666643  0.3333333333333357  0.2313040589318093  T  T  T
0.6666666666666643  0.3333333333333357  0.0000000000000000  T  T  T
0.6666666666666643  0.3333333333333357  0.2601317611372854  T  T  T

0.00000000E+00  0.00000000E+00  0.00000000E+00
0.00000000E+00  0.00000000E+00  0.00000000E+00
0.00000000E+00  0.00000000E+00  0.00000000E+00
0.00000000E+00  0.00000000E+00  0.00000000E+00
0.00000000E+00  0.00000000E+00  0.00000000E+00
0.00000000E+00  0.00000000E+00  0.00000000E+00
0.00000000E+00  0.00000000E+00  0.00000000E+00
0.00000000E+00  0.00000000E+00  0.00000000E+00
0.00000000E+00  0.00000000E+00  0.00000000E+00
