Zr3N2  (n=2)
1.00000000000000
3.2095665981394443  0.0000000000000001  0.0000000000000000
-1.6047832990697222  2.7795662093888045  0.0000000000000000
-0.0000000000000002  0.0000000000000001  35.0497472520282400
Zr  N  O  H
3  2  2  2
Selective  dynamics
Direct
-0.0000000000000000  -0.0000000000000000  0.0677981359043081  T  T  T
0.6666666666666643  0.3333333333333357  0.1433640473890494  T  T  T
0.3333333333333357  0.6666666666666643  0.2189299588737985  T  T  T
0.3333333333333357  0.6666666666666643  0.1050647542693820  T  T  T
0.0000000000000000  -0.0000000000000000  0.1816633405087247  T  T  T
0.6666666666666643  0.3333333333333357  0.0279827196179502  T  T  T
0.6666666666666643  0.3333333333333357  0.2587453751601564  T  T  T
0.6666666666666643  0.3333333333333357  0.0000000000000000  T  T  T
0.6666666666666643  0.3333333333333357  0.2867280947781067  T  T  T

0.00000000E+00  0.00000000E+00  0.00000000E+00
0.00000000E+00  0.00000000E+00  0.00000000E+00
0.00000000E+00  0.00000000E+00  0.00000000E+00
0.00000000E+00  0.00000000E+00  0.00000000E+00
0.00000000E+00  0.00000000E+00  0.00000000E+00
0.00000000E+00  0.00000000E+00  0.00000000E+00
0.00000000E+00  0.00000000E+00  0.00000000E+00
0.00000000E+00  0.00000000E+00  0.00000000E+00
0.00000000E+00  0.00000000E+00  0.00000000E+00
