Ta3C2  (n=2)
1.00000000000000
3.1165392279109052  0.0000000000000002  0.0000000000000000
-1.5582696139554522  2.6990021434948663  0.0000000000000000
0.0000000000000001  -0.0000000000000002  34.8530298746404057
Ta  C  O  H
3  2  2  2
Selective  dynamics
Direct
0.0000000000000000  0.0000000000000000  0.0689739321624490  T  T  T
0.6666666666666643  0.3333333333333357  0.1413511237054546  T  T  T
0.3333333333333357  0.6666666666666643  0.2137283152484603  T  T  T
0.3333333333333357  0.6666666666666643  0.1035164147248097  T  T  T
0.0000000000000000  0.0000000000000000  0.1791858326860919  T  T  T
0.6666666666666643  0.3333333333333357  0.0282848517483105  T  T  T
0.6666666666666643  0.3333333333333357  0.2544173956625988  T  T  T
0.6666666666666643  0.3333333333333357  0.0000000000000000  T  T  T
0.6666666666666643  0.3333333333333357  0.2827022474109093  T  T  T

0.00000000E+00  0.00000000E+00  0.00000000E+00
0.00000000E+00  0.00000000E+00  0.00000000E+00
0.00000000E+00  0.00000000E+00  0.00000000E+00
0.00000000E+00  0.00000000E+00  0.00000000E+00
0.00000000E+00  0.00000000E+00  0.00000000E+00
0.00000000E+00  0.00000000E+00  0.00000000E+00
0.00000000E+00  0.00000000E+00  0.00000000E+00
0.00000000E+00  0.00000000E+00  0.00000000E+00
0.00000000E+00  0.00000000E+00  0.00000000E+00
