Ti3N2  (n=2)
1.00000000000000
2.9748168532524346  0.0000000000000000  0.0000000000000000
-1.4874084266262173  2.5762669665612088  0.0000000000000000
-0.0000000000000001  -0.0000000000000012  34.3615430393848484
Ti  N  O  H
3  2  2  2
Selective  dynamics
Direct
-0.0000000000000000  -0.0000000000000000  0.0658083092274823  T  T  T
0.6666666666666643  0.3333333333333357  0.1362212259888071  T  T  T
0.3333333333333357  0.6666666666666643  0.2066341427501321  T  T  T
0.3333333333333357  0.6666666666666643  0.1001689469165934  T  T  T
0.0000000000000000  0.0000000000000000  0.1722735050610210  T  T  T
0.6666666666666643  0.3333333333333357  0.0285179622143670  T  T  T
0.6666666666666643  0.3333333333333357  0.2439244897632548  T  T  T
0.6666666666666643  0.3333333333333357  0.0000000000000000  T  T  T
0.6666666666666643  0.3333333333333357  0.2724424519776293  T  T  T

0.00000000E+00  0.00000000E+00  0.00000000E+00
0.00000000E+00  0.00000000E+00  0.00000000E+00
0.00000000E+00  0.00000000E+00  0.00000000E+00
0.00000000E+00  0.00000000E+00  0.00000000E+00
0.00000000E+00  0.00000000E+00  0.00000000E+00
0.00000000E+00  0.00000000E+00  0.00000000E+00
0.00000000E+00  0.00000000E+00  0.00000000E+00
0.00000000E+00  0.00000000E+00  0.00000000E+00
0.00000000E+00  0.00000000E+00  0.00000000E+00
