Hf3N2  (n=2)
1.00000000000000
3.1430119747362313  -0.0000000000000001  0.0000000000000000
-1.5715059873681156  2.7219282147234440  0.0000000000000000
0.0000000000000000  -0.0000000000000002  34.9602529500119275
Hf  N  O  H
3  2  2  2
Selective  dynamics
Direct
-0.0000000000000000  -0.0000000000000000  0.0674546360222310  T  T  T
0.6666666666666643  0.3333333333333357  0.1424510995994951  T  T  T
0.3333333333333357  0.6666666666666643  0.2174475631767669  T  T  T
0.3333333333333357  0.6666666666666643  0.1048302111464248  T  T  T
0.0000000000000000  0.0000000000000000  0.1800719880525731  T  T  T
0.6666666666666643  0.3333333333333357  0.0283185276537811  T  T  T
0.6666666666666643  0.3333333333333357  0.2565836715452245  T  T  T
0.6666666666666643  0.3333333333333357  0.0000000000000000  T  T  T
0.6666666666666643  0.3333333333333357  0.2849021991990057  T  T  T

0.00000000E+00  0.00000000E+00  0.00000000E+00
0.00000000E+00  0.00000000E+00  0.00000000E+00
0.00000000E+00  0.00000000E+00  0.00000000E+00
0.00000000E+00  0.00000000E+00  0.00000000E+00
0.00000000E+00  0.00000000E+00  0.00000000E+00
0.00000000E+00  0.00000000E+00  0.00000000E+00
0.00000000E+00  0.00000000E+00  0.00000000E+00
0.00000000E+00  0.00000000E+00  0.00000000E+00
0.00000000E+00  0.00000000E+00  0.00000000E+00
