Sc3N2  (n=2)
1.00000000000000
3.1870197590179563  0.0000000000000000  0.0000000000000000
-1.5935098795089782  2.7600400738229109  0.0000000000000001
-0.0000000000000003  0.0000000000000004  34.5129460295074111
Sc  N  O  H
3  2  2  2
Selective  dynamics
Direct
-0.0000000000000000  -0.0000000000000000  0.0646890733988680  T  T  T
0.6666666666666643  0.3333333333333357  0.1378170675632003  T  T  T
0.3333333333333357  0.6666666666666643  0.2109450617275248  T  T  T
0.3333333333333357  0.6666666666666643  0.0985042639318570  T  T  T
-0.0000000000000000  0.0000000000000000  0.1771298711945357  T  T  T
0.6666666666666643  0.3333333333333357  0.0281386926992282  T  T  T
0.6666666666666643  0.3333333333333357  0.2474954424271723  T  T  T
0.6666666666666643  0.3333333333333357  0.0000000000000000  T  T  T
0.6666666666666643  0.3333333333333357  0.2756341351264005  T  T  T

0.00000000E+00  0.00000000E+00  0.00000000E+00
0.00000000E+00  0.00000000E+00  0.00000000E+00
0.00000000E+00  0.00000000E+00  0.00000000E+00
0.00000000E+00  0.00000000E+00  0.00000000E+00
0.00000000E+00  0.00000000E+00  0.00000000E+00
0.00000000E+00  0.00000000E+00  0.00000000E+00
0.00000000E+00  0.00000000E+00  0.00000000E+00
0.00000000E+00  0.00000000E+00  0.00000000E+00
0.00000000E+00  0.00000000E+00  0.00000000E+00
