Sc3C2  (n=2)
1.00000000000000
3.2496723240277565  0.0000000000000000  0.0000000000000000
-1.6248361620138783  2.8142987868050975  -0.0000000000000001
-0.0000000000000005  0.0000000000000018  34.8497788539179467
Sc  C  O  H
3  2  2  2
Selective  dynamics
Direct
-0.0000000000000000  0.0000000000000000  0.0638943215560184  T  T  T
0.6666666666666643  0.3333333333333357  0.1413176665367854  T  T  T
0.3333333333333357  0.6666666666666643  0.2187410115175687  T  T  T
0.3333333333333357  0.6666666666666643  0.1006535457189499  T  T  T
-0.0000000000000000  0.0000000000000000  0.1819817873546289  T  T  T
0.6666666666666643  0.3333333333333357  0.0278744463568261  T  T  T
0.6666666666666643  0.3333333333333357  0.2547608867167611  T  T  T
0.6666666666666643  0.3333333333333357  0.0000000000000000  T  T  T
0.6666666666666643  0.3333333333333357  0.2826353330735870  T  T  T

0.00000000E+00  0.00000000E+00  0.00000000E+00
0.00000000E+00  0.00000000E+00  0.00000000E+00
0.00000000E+00  0.00000000E+00  0.00000000E+00
0.00000000E+00  0.00000000E+00  0.00000000E+00
0.00000000E+00  0.00000000E+00  0.00000000E+00
0.00000000E+00  0.00000000E+00  0.00000000E+00
0.00000000E+00  0.00000000E+00  0.00000000E+00
0.00000000E+00  0.00000000E+00  0.00000000E+00
0.00000000E+00  0.00000000E+00  0.00000000E+00
