Nb3C2  (n=2)
1.00000000000000
3.1320972203548312  0.0000000000000000  0.0000000000000000
-1.5660486101774154  2.7124757602567966  -0.0000000000000002
0.0000000000000000  -0.0000000000000005  34.9165391375587006
Nb  C  O  H
3  2  2  2
Selective  dynamics
Direct
0.0000000000000000  0.0000000000000000  0.0689483506962693  T  T  T
0.6666666666666643  0.3333333333333357  0.1420034657285385  T  T  T
0.3333333333333357  0.6666666666666643  0.2150585807608077  T  T  T
0.3333333333333357  0.6666666666666643  0.1040420325748223  T  T  T
0.0000000000000000  0.0000000000000000  0.1799648988822387  T  T  T
0.6666666666666643  0.3333333333333357  0.0280457558159844  T  T  T
0.6666666666666643  0.3333333333333357  0.2559611756410926  T  T  T
0.6666666666666643  0.3333333333333357  0.0000000000000000  T  T  T
0.6666666666666643  0.3333333333333357  0.2840069314570691  T  T  T

0.00000000E+00  0.00000000E+00  0.00000000E+00
0.00000000E+00  0.00000000E+00  0.00000000E+00
0.00000000E+00  0.00000000E+00  0.00000000E+00
0.00000000E+00  0.00000000E+00  0.00000000E+00
0.00000000E+00  0.00000000E+00  0.00000000E+00
0.00000000E+00  0.00000000E+00  0.00000000E+00
0.00000000E+00  0.00000000E+00  0.00000000E+00
0.00000000E+00  0.00000000E+00  0.00000000E+00
0.00000000E+00  0.00000000E+00  0.00000000E+00
