Zr3C2  (n=2)
1.00000000000000
3.3293890789507907  0.0000000000000000  0.0000000000000000
-1.6646945394753954  2.8833355218130960  -0.0000000000000001
-0.0000000000000005  -0.0000000000000019  34.8744797543426799
Zr  C  O  H
3  2  2  2
Selective  dynamics
Direct
0.0000000000000000  0.0000000000000000  0.0674286233600864  T  T  T
0.6666666666666643  0.3333333333333357  0.1415717141000907  T  T  T
0.3333333333333357  0.6666666666666643  0.2157148048401029  T  T  T
0.3333333333333357  0.6666666666666643  0.1007791529106097  T  T  T
0.0000000000000000  0.0000000000000000  0.1823642752895796  T  T  T
0.6666666666666643  0.3333333333333357  0.0279334536573034  T  T  T
0.6666666666666643  0.3333333333333357  0.2552099745428859  T  T  T
0.6666666666666643  0.3333333333333357  0.0000000000000000  T  T  T
0.6666666666666643  0.3333333333333357  0.2831434282001892  T  T  T

0.00000000E+00  0.00000000E+00  0.00000000E+00
0.00000000E+00  0.00000000E+00  0.00000000E+00
0.00000000E+00  0.00000000E+00  0.00000000E+00
0.00000000E+00  0.00000000E+00  0.00000000E+00
0.00000000E+00  0.00000000E+00  0.00000000E+00
0.00000000E+00  0.00000000E+00  0.00000000E+00
0.00000000E+00  0.00000000E+00  0.00000000E+00
0.00000000E+00  0.00000000E+00  0.00000000E+00
0.00000000E+00  0.00000000E+00  0.00000000E+00
