Hf3C2  (n=2)
1.00000000000000
3.2760333181400596  0.0000000000000002  0.0000000000000000
-1.6380166590700298  2.8371280773943099  -0.0000000000000001
-0.0000000000000002  -0.0000000000000006  34.7165309791084553
Hf  C  O  H
3  2  2  2
Selective  dynamics
Direct
0.0000000000000000  0.0000000000000000  0.0667913881534045  T  T  T
0.6666666666666643  0.3333333333333357  0.1399409835181308  T  T  T
0.3333333333333357  0.6666666666666643  0.2130905788828649  T  T  T
0.3333333333333357  0.6666666666666643  0.0996736183598065  T  T  T
-0.0000000000000000  -0.0000000000000000  0.1802083486764549  T  T  T
0.6666666666666643  0.3333333333333357  0.0282026141741575  T  T  T
0.6666666666666643  0.3333333333333357  0.2516793528621117  T  T  T
0.6666666666666643  0.3333333333333357  0.0000000000000000  T  T  T
0.6666666666666643  0.3333333333333357  0.2798819670362694  T  T  T

0.00000000E+00  0.00000000E+00  0.00000000E+00
0.00000000E+00  0.00000000E+00  0.00000000E+00
0.00000000E+00  0.00000000E+00  0.00000000E+00
0.00000000E+00  0.00000000E+00  0.00000000E+00
0.00000000E+00  0.00000000E+00  0.00000000E+00
0.00000000E+00  0.00000000E+00  0.00000000E+00
0.00000000E+00  0.00000000E+00  0.00000000E+00
0.00000000E+00  0.00000000E+00  0.00000000E+00
0.00000000E+00  0.00000000E+00  0.00000000E+00
