Mo3N2  (n=2)
1.00000000000000
2.8237562667008178  0.0000000000000000  0.0000000000000001
-1.4118781333504089  2.4454446611836849  0.0000000000000001
0.0000000000000006  0.0000000000000021  35.7075344390218277
Mo  N  O  H
3  2  2  2
Selective  dynamics
Direct
0.0000000000000000  0.0000000000000000  0.0682290232688413  T  T  T
0.6666666666666643  0.3333333333333357  0.1499304654208324  T  T  T
0.3333333333333357  0.6666666666666643  0.2316386267171080  T  T  T
0.3333333333333357  0.6666666666666643  0.1083513025148186  T  T  T
-0.0000000000000000  -0.0000000000000000  0.1915120674139538  T  T  T
0.6666666666666643  0.3333333333333357  0.0274863719265503  T  T  T
0.6666666666666643  0.3333333333333357  0.2723812780593989  T  T  T
0.6666666666666643  0.3333333333333357  0.0000000000000000  T  T  T
0.6666666666666643  0.3333333333333357  0.2998676499859492  T  T  T

0.00000000E+00  0.00000000E+00  0.00000000E+00
0.00000000E+00  0.00000000E+00  0.00000000E+00
0.00000000E+00  0.00000000E+00  0.00000000E+00
0.00000000E+00  0.00000000E+00  0.00000000E+00
0.00000000E+00  0.00000000E+00  0.00000000E+00
0.00000000E+00  0.00000000E+00  0.00000000E+00
0.00000000E+00  0.00000000E+00  0.00000000E+00
0.00000000E+00  0.00000000E+00  0.00000000E+00
0.00000000E+00  0.00000000E+00  0.00000000E+00
