Nb3N2  (n=2)
1.00000000000000
3.1021677931518643  0.0000000000000000  0.0000000000000000
-1.5510838965759328  2.6865561158581004  0.0000000000000000
0.0000000000000002  0.0000000000000000  34.8196024876217365
Nb  N  O  H
3  2  2  2
Selective  dynamics
Direct
-0.0000000000000000  -0.0000000000000000  0.0688588090687625  T  T  T
0.6666666666666643  0.3333333333333357  0.1410068149272033  T  T  T
0.3333333333333357  0.6666666666666643  0.2131548207856521  T  T  T
0.3333333333333357  0.6666666666666643  0.1046817223241682  T  T  T
0.0000000000000000  0.0000000000000000  0.1773319075302387  T  T  T
0.6666666666666643  0.3333333333333357  0.0281898955211469  T  T  T
0.6666666666666643  0.3333333333333357  0.2538237343332675  T  T  T
0.6666666666666643  0.3333333333333357  0.0000000000000000  T  T  T
0.6666666666666643  0.3333333333333357  0.2820136298544067  T  T  T

0.00000000E+00  0.00000000E+00  0.00000000E+00
0.00000000E+00  0.00000000E+00  0.00000000E+00
0.00000000E+00  0.00000000E+00  0.00000000E+00
0.00000000E+00  0.00000000E+00  0.00000000E+00
0.00000000E+00  0.00000000E+00  0.00000000E+00
0.00000000E+00  0.00000000E+00  0.00000000E+00
0.00000000E+00  0.00000000E+00  0.00000000E+00
0.00000000E+00  0.00000000E+00  0.00000000E+00
0.00000000E+00  0.00000000E+00  0.00000000E+00
