Ti3C2  (n=2)
1.00000000000000
3.0688786837051061  0.0000000000000000  0.0000000000000000
-1.5344393418525533  2.6577269012986338  0.0000000000000000
-0.0000000000000010  0.0000000000000002  34.2458431732035962
Ti  C  O  H
3  2  2  2
Selective  dynamics
Direct
-0.0000000000000000  -0.0000000000000000  0.0658716679576382  T  T  T
0.6666666666666643  0.3333333333333357  0.1349921963731675  T  T  T
0.3333333333333357  0.6666666666666643  0.2041127247887047  T  T  T
0.3333333333333357  0.6666666666666643  0.0975539052268194  T  T  T
0.0000000000000000  -0.0000000000000000  0.1724304875195074  T  T  T
0.6666666666666643  0.3333333333333357  0.0284127291571310  T  T  T
0.6666666666666643  0.3333333333333357  0.2415716635892118  T  T  T
0.6666666666666643  0.3333333333333357  0.0000000000000000  T  T  T
0.6666666666666643  0.3333333333333357  0.2699843927463350  T  T  T

0.00000000E+00  0.00000000E+00  0.00000000E+00
0.00000000E+00  0.00000000E+00  0.00000000E+00
0.00000000E+00  0.00000000E+00  0.00000000E+00
0.00000000E+00  0.00000000E+00  0.00000000E+00
0.00000000E+00  0.00000000E+00  0.00000000E+00
0.00000000E+00  0.00000000E+00  0.00000000E+00
0.00000000E+00  0.00000000E+00  0.00000000E+00
0.00000000E+00  0.00000000E+00  0.00000000E+00
0.00000000E+00  0.00000000E+00  0.00000000E+00
