Cr3C2  (n=2)
1.00000000000000
2.9830231806777703  0.0000000000000000  0.0000000000000000
-1.4915115903388851  2.5833738545657705  -0.0000000000000001
-0.0000000000000003  -0.0000000000000020  33.7870626841077026
Cr  C  O  H
3  2  2  2
Selective  dynamics
Direct
0.0000000000000000  0.0000000000000000  0.0662832770580842  T  T  T
0.6666666666666643  0.3333333333333357  0.1300359070313706  T  T  T
0.3333333333333357  0.6666666666666643  0.1937885370046646  T  T  T
0.3333333333333357  0.6666666666666643  0.0953985325767294  T  T  T
0.0000000000000000  -0.0000000000000000  0.1646732814860117  T  T  T
0.6666666666666643  0.3333333333333357  0.0287636324385194  T  T  T
0.6666666666666643  0.3333333333333357  0.2313081816242296  T  T  T
0.6666666666666643  0.3333333333333357  0.0000000000000000  T  T  T
0.6666666666666643  0.3333333333333357  0.2600718140627490  T  T  T

0.00000000E+00  0.00000000E+00  0.00000000E+00
0.00000000E+00  0.00000000E+00  0.00000000E+00
0.00000000E+00  0.00000000E+00  0.00000000E+00
0.00000000E+00  0.00000000E+00  0.00000000E+00
0.00000000E+00  0.00000000E+00  0.00000000E+00
0.00000000E+00  0.00000000E+00  0.00000000E+00
0.00000000E+00  0.00000000E+00  0.00000000E+00
0.00000000E+00  0.00000000E+00  0.00000000E+00
0.00000000E+00  0.00000000E+00  0.00000000E+00
