Mo3C2  (n=2)
1.00000000000000
3.0498916565942573  -0.0000000000000002  0.0000000000000000
-1.5249458282971287  2.6412836535553881  0.0000000000000000
0.0000000000000003  0.0000000000000006  34.8085045041400392
Mo  C  O  H
3  2  2  2
Selective  dynamics
Direct
0.0000000000000000  -0.0000000000000000  0.0709448354203445  T  T  T
0.6666666666666643  0.3333333333333357  0.1408923572538559  T  T  T
0.3333333333333357  0.6666666666666643  0.2108398790873829  T  T  T
0.3333333333333357  0.6666666666666643  0.1034309268571281  T  T  T
-0.0000000000000000  -0.0000000000000000  0.1783537876505835  T  T  T
0.6666666666666643  0.3333333333333357  0.0280665606961892  T  T  T
0.6666666666666643  0.3333333333333357  0.2537181538115382  T  T  T
0.6666666666666643  0.3333333333333357  0.0000000000000000  T  T  T
0.6666666666666643  0.3333333333333357  0.2817847145077272  T  T  T

0.00000000E+00  0.00000000E+00  0.00000000E+00
0.00000000E+00  0.00000000E+00  0.00000000E+00
0.00000000E+00  0.00000000E+00  0.00000000E+00
0.00000000E+00  0.00000000E+00  0.00000000E+00
0.00000000E+00  0.00000000E+00  0.00000000E+00
0.00000000E+00  0.00000000E+00  0.00000000E+00
0.00000000E+00  0.00000000E+00  0.00000000E+00
0.00000000E+00  0.00000000E+00  0.00000000E+00
0.00000000E+00  0.00000000E+00  0.00000000E+00
