Ta3N2  (n=2)
1.00000000000000
3.0127156364578878  0.0000000000000000  0.0000000000000000
-1.5063578182289439  2.6090882757117098  0.0000000000000000
-0.0000000000000001  0.0000000000000001  35.1327790760812348
Ta  N  O  H
3  2  2  2
Selective  dynamics
Direct
0.0000000000000000  0.0000000000000000  0.0691185868870850  T  T  T
0.6666666666666643  0.3333333333333357  0.1442069107903204  T  T  T
0.3333333333333357  0.6666666666666643  0.2192952346935635  T  T  T
0.3333333333333357  0.6666666666666643  0.1069184925079557  T  T  T
-0.0000000000000000  0.0000000000000000  0.1814953290726850  T  T  T
0.6666666666666643  0.3333333333333357  0.0281601666520583  T  T  T
0.6666666666666643  0.3333333333333357  0.2602536549285902  T  T  T
0.6666666666666643  0.3333333333333357  0.0000000000000000  T  T  T
0.6666666666666643  0.3333333333333357  0.2884138215806485  T  T  T

0.00000000E+00  0.00000000E+00  0.00000000E+00
0.00000000E+00  0.00000000E+00  0.00000000E+00
0.00000000E+00  0.00000000E+00  0.00000000E+00
0.00000000E+00  0.00000000E+00  0.00000000E+00
0.00000000E+00  0.00000000E+00  0.00000000E+00
0.00000000E+00  0.00000000E+00  0.00000000E+00
0.00000000E+00  0.00000000E+00  0.00000000E+00
0.00000000E+00  0.00000000E+00  0.00000000E+00
0.00000000E+00  0.00000000E+00  0.00000000E+00
