Sc2N
1.00000000000000
3.1967835602988210  0.0000000000000000  0.0000000000000000
-1.5983917801494105  2.7684957737219582  0.0000000000000000
0.0000000000000000  0.0000000000000000  29.6691204748922779
Sc  N  O
2  1  2
Selective  dynamics
Direct
0.0000000000000000  0.0000000000000000  0.0262396527125021  T  T  T
0.0000000000000000  0.0000000000000000  0.1311334139695235  T  T  T
0.3333333333333357  0.6666666666666643  0.0786865333410128  T  T  T
0.6666666666666643  0.3333333333333357  0.0000000000000000  T  T  T
0.6666666666666643  0.3333333333333357  0.1573730666820257  T  T  T

0.00000000E+00  0.00000000E+00  0.00000000E+00
0.00000000E+00  0.00000000E+00  0.00000000E+00
0.00000000E+00  0.00000000E+00  0.00000000E+00
0.00000000E+00  0.00000000E+00  0.00000000E+00
0.00000000E+00  0.00000000E+00  0.00000000E+00
