Ta2N
1.00000000000000
2.9735855397780133  0.0000000000000000  0.0000000000000000
-1.4867927698890067  2.5752006178485041  0.0000000000000000
0.0000000000000000  0.0000000000000000  30.2322955501034016
Ta  N  O
2  1  2
Selective  dynamics
Direct
0.0000000000000000  0.0000000000000000  0.0387579269424435  T  T  T
0.0000000000000000  0.0000000000000000  0.1343118137073202  T  T  T
0.3333333333333357  0.6666666666666643  0.0865348703248819  T  T  T
0.6666666666666643  0.3333333333333357  0.0000000000000000  T  T  T
0.6666666666666643  0.3333333333333357  0.1730697406497637  T  T  T

0.00000000E+00  0.00000000E+00  0.00000000E+00
0.00000000E+00  0.00000000E+00  0.00000000E+00
0.00000000E+00  0.00000000E+00  0.00000000E+00
0.00000000E+00  0.00000000E+00  0.00000000E+00
0.00000000E+00  0.00000000E+00  0.00000000E+00
