Cr2N
1.00000000000000
2.6901412550726493  0.0000000000000000  0.0000000000000000
-1.3450706275363247  2.3297306667386648  0.0000000000000000
0.0000000000000000  0.0000000000000000  29.7824963808396248
Cr  N  O
2  1  2
Selective  dynamics
Direct
0.0000000000000000  0.0000000000000000  0.0365856193305538  T  T  T
0.0000000000000000  0.0000000000000000  0.1239951566958781  T  T  T
0.3333333333333357  0.6666666666666643  0.0802903880132159  T  T  T
0.6666666666666643  0.3333333333333357  0.0000000000000000  T  T  T
0.6666666666666643  0.3333333333333357  0.1605807760264319  T  T  T

0.00000000E+00  0.00000000E+00  0.00000000E+00
0.00000000E+00  0.00000000E+00  0.00000000E+00
0.00000000E+00  0.00000000E+00  0.00000000E+00
0.00000000E+00  0.00000000E+00  0.00000000E+00
0.00000000E+00  0.00000000E+00  0.00000000E+00
