Ta2CO2
1.00000000000000
3.1485313736105063  -0.0000000000000013  0.0000000000000000
-1.5742656868052534  2.7267081542120581  0.0000000000000000
0.0000000000000000  0.0000000000000000  29.7032433474476925
Ta  C  O
2  1  2
Selective  Dynamics
Direct
0.0000000000000000  0.0000000000000000  0.0344545535284683  T  T  T
0.0000000000000000  0.0000000000000000  0.1238865169207231  T  T  T
0.3333333333333357  0.6666666666666643  0.0791705352245966  T  T  T
0.6666666666666643  0.3333333333333357  0.0000000000000000  T  T  T
0.6666666666666643  0.3333333333333357  0.1583410704491914  T  T  T

0.00000000E+00  0.00000000E+00  0.00000000E+00
0.00000000E+00  0.00000000E+00  0.00000000E+00
0.00000000E+00  0.00000000E+00  0.00000000E+00
0.00000000E+00  0.00000000E+00  0.00000000E+00
0.00000000E+00  0.00000000E+00  0.00000000E+00
