Nb2N
1.00000000000000
3.0109964526470581  0.0000000000000000  0.0000000000000000
-1.5054982263235290  2.6075994187885696  0.0000000000000000
0.0000000000000000  0.0000000000000000  30.1876207914989116
Nb  N  O
2  1  2
Selective  dynamics
Direct
0.0000000000000000  0.0000000000000000  0.0382720389395786  T  T  T
0.0000000000000000  0.0000000000000000  0.1335739249185565  T  T  T
0.3333333333333357  0.6666666666666643  0.0859229819290659  T  T  T
0.6666666666666643  0.3333333333333357  0.0000000000000000  T  T  T
0.6666666666666643  0.3333333333333357  0.1718459638581318  T  T  T

0.00000000E+00  0.00000000E+00  0.00000000E+00
0.00000000E+00  0.00000000E+00  0.00000000E+00
0.00000000E+00  0.00000000E+00  0.00000000E+00
0.00000000E+00  0.00000000E+00  0.00000000E+00
0.00000000E+00  0.00000000E+00  0.00000000E+00
