Mo2CO2
1.00000000000000
2.8992811895016213  0.0000000000000081  0.0000000000000000
-1.4496405947508091  2.5108511628522225  0.0000000000000000
0.0000000000000000  0.0000000000000000  30.2599679682763707
Mo  C  O
2  1  2
Selective  Dynamics
Direct
0.0000000000000000  0.0000000000000000  0.0397659944397461  T  T  T
0.0000000000000000  0.0000000000000000  0.1340599651181344  T  T  T
0.3333333333333357  0.6666666666666643  0.0869129797789403  T  T  T
0.6666666666666643  0.3333333333333357  0.0000000000000000  T  T  T
0.6666666666666643  0.3333333333333357  0.1738259595578805  T  T  T

0.00000000E+00  0.00000000E+00  0.00000000E+00
0.00000000E+00  0.00000000E+00  0.00000000E+00
0.00000000E+00  0.00000000E+00  0.00000000E+00
0.00000000E+00  0.00000000E+00  0.00000000E+00
0.00000000E+00  0.00000000E+00  0.00000000E+00
