Ti2CO2
1.00000000000000
3.0408492590150997  0.0000000000000000  0.0000000000000000
-1.5204246295075499  2.6334527074391985  0.0000000000000000
0.0000000000000000  0.0000000000000000  29.4940083311356815
Ti  C  O
2  1  2
Selective  Dynamics
Direct
0.0000000000000000  0.0000000000000000  0.0294460556571896  T  T  T
0.0000000000000000  0.0000000000000000  0.1229241573257480  T  T  T
0.3333333333333357  0.6666666666666643  0.0761851064914678  T  T  T
0.6666666666666643  0.3333333333333357  0.0000000000000000  T  T  T
0.6666666666666643  0.3333333333333357  0.1523702129829377  T  T  T

0.00000000E+00  0.00000000E+00  0.00000000E+00
0.00000000E+00  0.00000000E+00  0.00000000E+00
0.00000000E+00  0.00000000E+00  0.00000000E+00
0.00000000E+00  0.00000000E+00  0.00000000E+00
0.00000000E+00  0.00000000E+00  0.00000000E+00
