Nb2CO2
1.00000000000000
3.1630962845964761  -0.0000000000000004  0.0000000000000000
-1.5815481422982371  2.7393217371404792  0.0000000000000000
0.0000000000000000  0.0000000000000000  29.7391851167167083
Nb  C  O
2  1  2
Selective  Dynamics
Direct
0.0000000000000000  0.0000000000000000  0.0346259124249275  T  T  T
0.0000000000000000  0.0000000000000000  0.1247323584260369  T  T  T
0.3333333333333357  0.6666666666666643  0.0796791354254822  T  T  T
0.6666666666666643  0.3333333333333357  0.0000000000000000  T  T  T
0.6666666666666643  0.3333333333333357  0.1593582708509643  T  T  T

0.00000000E+00  0.00000000E+00  0.00000000E+00
0.00000000E+00  0.00000000E+00  0.00000000E+00
0.00000000E+00  0.00000000E+00  0.00000000E+00
0.00000000E+00  0.00000000E+00  0.00000000E+00
0.00000000E+00  0.00000000E+00  0.00000000E+00
