Mo2NO2
1.00000000000000
2.8762604890289110  0.0000000000000008  0.0000000000000000
-1.4381302445144577  2.4909146514265976  0.0000000000000000
0.0000000000000000  0.0000000000000000  30.2575863655311750
Mo  N  O
2  1  2
Selective  Dynamics
Direct
0.0000000000000000  0.0000000000000000  0.0399896256903710  T  T  T
0.0000000000000000  0.0000000000000000  0.1337713049409139  T  T  T
0.3333333333333357  0.6666666666666643  0.0868804653156414  T  T  T
0.6666666666666643  0.3333333333333357  0.0000000000000000  T  T  T
0.6666666666666643  0.3333333333333357  0.1737609306312849  T  T  T

0.00000000E+00  0.00000000E+00  0.00000000E+00
0.00000000E+00  0.00000000E+00  0.00000000E+00
0.00000000E+00  0.00000000E+00  0.00000000E+00
0.00000000E+00  0.00000000E+00  0.00000000E+00
0.00000000E+00  0.00000000E+00  0.00000000E+00
