Sc2CO2
1.00000000000000
3.2240087565244639  0.0000000000000000  0.0000000000000000
-1.6120043782622320  2.7920734852695914  0.0000000000000000
0.0000000000000000  0.0000000000000000  29.9870894035321740
Sc  C  O
2  1  2
Selective  Dynamics
Direct
0.0000000000000000  0.0000000000000000  0.0247382468741843  T  T  T
0.0000000000000000  0.0000000000000000  0.1415696377097975  T  T  T
0.3333333333333357  0.6666666666666643  0.0831539422919909  T  T  T
0.6666666666666643  0.3333333333333357  0.0000000000000000  T  T  T
0.6666666666666643  0.3333333333333357  0.1663078845839819  T  T  T

0.00000000E+00  0.00000000E+00  0.00000000E+00
0.00000000E+00  0.00000000E+00  0.00000000E+00
0.00000000E+00  0.00000000E+00  0.00000000E+00
0.00000000E+00  0.00000000E+00  0.00000000E+00
0.00000000E+00  0.00000000E+00  0.00000000E+00
