Hf2N
1.00000000000000
3.2129011480414893  0.0000000000000000  0.0000000000000000
-1.6064505740207446  2.7824540141659191  0.0000000000000000
0.0000000000000000  0.0000000000000000  29.7100397003445700
Hf  N  O
2  1  2
Selective  dynamics
Direct
0.0000000000000000  0.0000000000000000  0.0317699472371903  T  T  T
0.0000000000000000  0.0000000000000000  0.1267636578286434  T  T  T
0.3333333333333357  0.6666666666666643  0.0792668025329168  T  T  T
0.6666666666666643  0.3333333333333357  0.0000000000000000  T  T  T
0.6666666666666643  0.3333333333333357  0.1585336050658305  T  T  T

0.00000000E+00  0.00000000E+00  0.00000000E+00
0.00000000E+00  0.00000000E+00  0.00000000E+00
0.00000000E+00  0.00000000E+00  0.00000000E+00
0.00000000E+00  0.00000000E+00  0.00000000E+00
0.00000000E+00  0.00000000E+00  0.00000000E+00
