Zr2NO2
1.00000000000000
3.2708673390551413  0.0000000000000009  0.0000000000000000
-1.6354336695275704  2.8326542081249118  0.0000000000000000
0.0000000000000000  0.0000000000000000  29.7707295234032081
Zr  N  O
2  1  2
Selective  Dynamics
Direct
0.0000000000000000  0.0000000000000000  0.0318189938354742  T  T  T
0.0000000000000000  0.0000000000000000  0.1284300024026908  T  T  T
0.3333333333333357  0.6666666666666643  0.0801244981190815  T  T  T
0.6666666666666643  0.3333333333333357  0.0000000000000000  T  T  T
0.6666666666666643  0.3333333333333357  0.1602489962381630  T  T  T

0.00000000E+00  0.00000000E+00  0.00000000E+00
0.00000000E+00  0.00000000E+00  0.00000000E+00
0.00000000E+00  0.00000000E+00  0.00000000E+00
0.00000000E+00  0.00000000E+00  0.00000000E+00
0.00000000E+00  0.00000000E+00  0.00000000E+00
