Ti2NO2
1.00000000000000
2.9981509144509886  0.0000000000000017  0.0000000000000000
-1.4990754572254934  2.5964748563292752  0.0000000000000000
0.0000000000000000  0.0000000000000000  29.4823585359331588
Ti  N  O
2  1  2
Selective  Dynamics
Direct
0.0000000000000000  0.0000000000000000  0.0311267543768011  T  T  T
0.0000000000000000  0.0000000000000000  0.1209085222605818  T  T  T
0.3333333333333357  0.6666666666666643  0.0760176383186924  T  T  T
0.6666666666666643  0.3333333333333357  0.0000000000000000  T  T  T
0.6666666666666643  0.3333333333333357  0.1520352766373848  T  T  T

0.00000000E+00  0.00000000E+00  0.00000000E+00
0.00000000E+00  0.00000000E+00  0.00000000E+00
0.00000000E+00  0.00000000E+00  0.00000000E+00
0.00000000E+00  0.00000000E+00  0.00000000E+00
0.00000000E+00  0.00000000E+00  0.00000000E+00
