Cr2CO2
1.00000000000000
2.6982289104916393  0.0000000000000005  0.0000000000000000
-1.3491144552458185  2.3367347817430120  0.0000000000000000
0.0000000000000000  0.0000000000000000  29.8643776669828256
Cr  C  O
2  1  2
Selective  Dynamics
Direct
0.0000000000000000  0.0000000000000000  0.0368239821566806  T  T  T
0.0000000000000000  0.0000000000000000  0.1260582891976875  T  T  T
0.3333333333333357  0.6666666666666643  0.0814411356771840  T  T  T
0.6666666666666643  0.3333333333333357  0.0000000000000000  T  T  T
0.6666666666666643  0.3333333333333357  0.1628822713543681  T  T  T

0.00000000E+00  0.00000000E+00  0.00000000E+00
0.00000000E+00  0.00000000E+00  0.00000000E+00
0.00000000E+00  0.00000000E+00  0.00000000E+00
0.00000000E+00  0.00000000E+00  0.00000000E+00
0.00000000E+00  0.00000000E+00  0.00000000E+00
