Hf2C
1.00000000000000
3.2577078871263465  0.0000000000000000  0.0000000000000000
-1.6288539435631733  2.8212577884891159  0.0000000000000000
0.0000000000000000  0.0000000000000000  29.7083712630453896
Hf  C  O
2  1  2
Selective  dynamics
Direct
0.0000000000000000  0.0000000000000000  0.0301619158443759  T  T  T
0.0000000000000000  0.0000000000000000  0.1283244320390637  T  T  T
0.3333333333333357  0.6666666666666643  0.0792431739417198  T  T  T
0.6666666666666643  0.3333333333333357  0.0000000000000000  T  T  T
0.6666666666666643  0.3333333333333357  0.1584863478834395  T  T  T

0.00000000E+00  0.00000000E+00  0.00000000E+00
0.00000000E+00  0.00000000E+00  0.00000000E+00
0.00000000E+00  0.00000000E+00  0.00000000E+00
0.00000000E+00  0.00000000E+00  0.00000000E+00
0.00000000E+00  0.00000000E+00  0.00000000E+00
