Zr2CO2
1.00000000000000
3.3231020865358767  0.0000000000000000  0.0000000000000000
-1.6615510432679383  2.8778908264262766  0.0000000000000000
0.0000000000000000  0.0000000000000000  29.7606099838491893
Zr  C  O
2  1  2
Selective  Dynamics
Direct
0.0000000000000000  0.0000000000000000  0.0299796307889392  T  T  T
0.0000000000000000  0.0000000000000000  0.1299838238053271  T  T  T
0.3333333333333357  0.6666666666666643  0.0799817272971332  T  T  T
0.6666666666666643  0.3333333333333357  0.0000000000000000  T  T  T
0.6666666666666643  0.3333333333333357  0.1599634545942683  T  T  T

0.00000000E+00  0.00000000E+00  0.00000000E+00
0.00000000E+00  0.00000000E+00  0.00000000E+00
0.00000000E+00  0.00000000E+00  0.00000000E+00
0.00000000E+00  0.00000000E+00  0.00000000E+00
0.00000000E+00  0.00000000E+00  0.00000000E+00
