Mo4C3  (n=3)
1.00000000000000
2.9219026291281747  0.0000000000000000  0.0000000000000000
-1.4609513145640873  2.5304419042696482  0.0000000000000000
0.0000000000000000  0.0000000000000000  38.0139247365651300
Mo  C  N  H
4  3  2  2
Selective  dynamics
Direct
0.0000000000000000  0.0000000000000000  0.0592205149808387  T  T  T
0.0000000000000000  0.0000000000000000  0.1333699857266339  T  T  T
0.0000000000000000  0.0000000000000000  0.2081237148843663  T  T  T
0.0000000000000000  0.0000000000000000  0.2827318326741908  T  T  T
0.3333333333333357  0.6666666666666643  0.0962048707378654  T  T  T
0.3333333333333357  0.6666666666666643  0.1704767502084858  T  T  T
0.3333333333333357  0.6666666666666643  0.2439116933420193  T  T  T
0.3333333333333357  0.6666666666666643  0.0268849966144318  T  T  T
0.6666666666666643  0.3333333333333357  0.3153793112597264  T  T  T
0.3333333333333357  0.6666666666666643  0.0000000000000000  T  T  T
0.6666666666666643  0.3333333333333357  0.3423462540832359  T  T  T

0.00000000E+00  0.00000000E+00  0.00000000E+00
0.00000000E+00  0.00000000E+00  0.00000000E+00
0.00000000E+00  0.00000000E+00  0.00000000E+00
0.00000000E+00  0.00000000E+00  0.00000000E+00
0.00000000E+00  0.00000000E+00  0.00000000E+00
0.00000000E+00  0.00000000E+00  0.00000000E+00
0.00000000E+00  0.00000000E+00  0.00000000E+00
0.00000000E+00  0.00000000E+00  0.00000000E+00
0.00000000E+00  0.00000000E+00  0.00000000E+00
0.00000000E+00  0.00000000E+00  0.00000000E+00
0.00000000E+00  0.00000000E+00  0.00000000E+00
