Sc4C3N2H2  (n=3)
1.00000000000000
3.4732480704636473  0.0000000000000000  0.0000000000000000
-1.7366240352318236  3.0079210626745412  0.0000000000000000
0.0000000000000000  0.0000000000000000  37.5795849491262715
Sc  C  N  H
4  3  2  2
Selective  dynamics
Direct
0.0000000000000000  0.0000000000000000  0.0491502509516536  T  T  T
0.0000000000000000  0.0000000000000000  0.1254765513634963  T  T  T
0.0000000000000000  0.0000000000000000  0.2086663716197239  T  T  T
0.0000000000000000  0.0000000000000000  0.2862752532607769  T  T  T
0.3333333333333357  0.6666666666666643  0.1027163332660461  T  T  T
0.3333333333333357  0.6666666666666643  0.1416574416763264  T  T  T
0.3333333333333357  0.6666666666666643  0.2356408307163851  T  T  T
0.3333333333333357  0.6666666666666643  0.0275514212866018  T  T  T
0.6666666666666643  0.3333333333333357  0.3072435354331164  T  T  T
0.3333333333333357  0.6666666666666643  0.0000000000000000  T  T  T
0.6666666666666643  0.3333333333333357  0.3347451805589659  T  T  T

0.00000000E+00  0.00000000E+00  0.00000000E+00
0.00000000E+00  0.00000000E+00  0.00000000E+00
0.00000000E+00  0.00000000E+00  0.00000000E+00
0.00000000E+00  0.00000000E+00  0.00000000E+00
0.00000000E+00  0.00000000E+00  0.00000000E+00
0.00000000E+00  0.00000000E+00  0.00000000E+00
0.00000000E+00  0.00000000E+00  0.00000000E+00
0.00000000E+00  0.00000000E+00  0.00000000E+00
0.00000000E+00  0.00000000E+00  0.00000000E+00
0.00000000E+00  0.00000000E+00  0.00000000E+00
0.00000000E+00  0.00000000E+00  0.00000000E+00
