Hf4N3  (n=3)
1.00000000000000
3.1496312585668877  -0.0000000000000001  0.0000000000000000
-1.5748156292834439  2.7276606826513903  0.0000000000000000
0.0000000000000000  0.0000000000000000  37.9780037241656601
Hf  N  H
4  5  2
Selective  dynamics
Direct
-0.0000000000000000  -0.0000000000000000  0.0574857663010938  T  T  T
-0.0000000000000000  0.0000000000000000  0.1338326995427433  T  T  T
-0.0000000000000000  -0.0000000000000000  0.2097801198094829  T  T  T
-0.0000000000000000  -0.0000000000000000  0.2853963760554474  T  T  T
0.3333333333333357  0.6666666666666643  0.0958323547103812  T  T  T
0.3333333333333357  0.6666666666666643  0.1718284063231459  T  T  T
0.3333333333333357  0.6666666666666643  0.2490262927437354  T  T  T
0.3333333333333357  0.6666666666666643  0.0270371686833540  T  T  T
0.6666666666666643  0.3333333333333357  0.3148135741172158  T  T  T
0.3333333333333357  0.6666666666666643  0.0000000000000000  T  T  T
0.6666666666666643  0.3333333333333357  0.3417242206416359  T  T  T

0.00000000E+00  0.00000000E+00  0.00000000E+00
0.00000000E+00  0.00000000E+00  0.00000000E+00
0.00000000E+00  0.00000000E+00  0.00000000E+00
0.00000000E+00  0.00000000E+00  0.00000000E+00
0.00000000E+00  0.00000000E+00  0.00000000E+00
0.00000000E+00  0.00000000E+00  0.00000000E+00
0.00000000E+00  0.00000000E+00  0.00000000E+00
0.00000000E+00  0.00000000E+00  0.00000000E+00
0.00000000E+00  0.00000000E+00  0.00000000E+00
0.00000000E+00  0.00000000E+00  0.00000000E+00
0.00000000E+00  0.00000000E+00  0.00000000E+00
