Ta4C3  (n=3)
1.00000000000000
3.0721880600024711  0.0000000000000000  0.0000000000000000
-1.5360940300012356  2.6605929053578077  0.0000000000000000
0.0000000000000000  0.0000000000000000  38.0032038263777068
Ta  C  N  H
4  3  2  2
Selective  dynamics
Direct
-0.0000000000000000  0.0000000000000000  0.0587217177718927  T  T  T
-0.0000000000000000  0.0000000000000000  0.1339639174866694  T  T  T
-0.0000000000000000  0.0000000000000000  0.2093234924385499  T  T  T
-0.0000000000000000  0.0000000000000000  0.2841837778446653  T  T  T
0.3333333333333357  0.6666666666666643  0.0960043694365330  T  T  T
0.3333333333333357  0.6666666666666643  0.1720140245236552  T  T  T
0.3333333333333357  0.6666666666666643  0.2480153611993237  T  T  T
0.3333333333333357  0.6666666666666643  0.0269910935020383  T  T  T
0.6666666666666643  0.3333333333333357  0.3152324227187645  T  T  T
0.3333333333333357  0.6666666666666643  0.0000000000000000  T  T  T
0.6666666666666643  0.3333333333333357  0.3421607263899232  T  T  T

0.00000000E+00  0.00000000E+00  0.00000000E+00
0.00000000E+00  0.00000000E+00  0.00000000E+00
0.00000000E+00  0.00000000E+00  0.00000000E+00
0.00000000E+00  0.00000000E+00  0.00000000E+00
0.00000000E+00  0.00000000E+00  0.00000000E+00
0.00000000E+00  0.00000000E+00  0.00000000E+00
0.00000000E+00  0.00000000E+00  0.00000000E+00
0.00000000E+00  0.00000000E+00  0.00000000E+00
0.00000000E+00  0.00000000E+00  0.00000000E+00
0.00000000E+00  0.00000000E+00  0.00000000E+00
0.00000000E+00  0.00000000E+00  0.00000000E+00
