Sc4N3  (n=3)
1.00000000000000
3.2024231837171153  0.0000000000000000  0.0000000000000000
-1.6012115918585577  2.7733798309900570  0.0000000000000000
0.0000000000000000  0.0000000000000000  37.5792432718879752
Sc  N  H
4  5  2
Selective  dynamics
Direct
0.0000000000000000  -0.0000000000000000  0.0531656836347453  T  T  T
0.0000000000000000  -0.0000000000000000  0.1302874047170368  T  T  T
0.0000000000000000  -0.0000000000000000  0.2061108197455401  T  T  T
0.0000000000000000  -0.0000000000000000  0.2822085893927176  T  T  T
0.3333333333333357  0.6666666666666643  0.0984489102272756  T  T  T
0.3333333333333357  0.6666666666666643  0.1689756912825009  T  T  T
0.3333333333333357  0.6666666666666643  0.2391529258079080  T  T  T
0.3333333333333357  0.6666666666666643  0.0273831580978570  T  T  T
0.6666666666666643  0.3333333333333357  0.3074257910659368  T  T  T
0.3333333333333357  0.6666666666666643  0.0000000000000000  T  T  T
0.6666666666666643  0.3333333333333357  0.3347391319425043  T  T  T

0.00000000E+00  0.00000000E+00  0.00000000E+00
0.00000000E+00  0.00000000E+00  0.00000000E+00
0.00000000E+00  0.00000000E+00  0.00000000E+00
0.00000000E+00  0.00000000E+00  0.00000000E+00
0.00000000E+00  0.00000000E+00  0.00000000E+00
0.00000000E+00  0.00000000E+00  0.00000000E+00
0.00000000E+00  0.00000000E+00  0.00000000E+00
0.00000000E+00  0.00000000E+00  0.00000000E+00
0.00000000E+00  0.00000000E+00  0.00000000E+00
0.00000000E+00  0.00000000E+00  0.00000000E+00
0.00000000E+00  0.00000000E+00  0.00000000E+00
