Nb4N3  (n=3)
1.00000000000000
2.9906528598870619  0.0000000000000000  0.0000000000000000
-1.4953264299435309  2.5899813506634981  0.0000000000000000
0.0000000000000000  0.0000000000000000  38.2275503785232615
Nb  N  H
4  5  2
Selective  dynamics
Direct
-0.0000000000000000  0.0000000000000000  0.0591697807851995  T  T  T
0.0000000000000000  0.0000000000000000  0.1344069317256565  T  T  T
-0.0000000000000000  0.0000000000000000  0.2105514390859356  T  T  T
-0.0000000000000000  0.0000000000000000  0.2864519043935834  T  T  T
0.3333333333333357  0.6666666666666643  0.0975939724697510  T  T  T
0.3333333333333357  0.6666666666666643  0.1724579287469208  T  T  T
0.3333333333333357  0.6666666666666643  0.2470407542476634  T  T  T
0.3333333333333357  0.6666666666666643  0.0267116520103384  T  T  T
0.6666666666666643  0.3333333333333357  0.3192283936261106  T  T  T
0.3333333333333357  0.6666666666666643  0.0000000000000000  T  T  T
0.6666666666666643  0.3333333333333357  0.3460213968079596  T  T  T

0.00000000E+00  0.00000000E+00  0.00000000E+00
0.00000000E+00  0.00000000E+00  0.00000000E+00
0.00000000E+00  0.00000000E+00  0.00000000E+00
0.00000000E+00  0.00000000E+00  0.00000000E+00
0.00000000E+00  0.00000000E+00  0.00000000E+00
0.00000000E+00  0.00000000E+00  0.00000000E+00
0.00000000E+00  0.00000000E+00  0.00000000E+00
0.00000000E+00  0.00000000E+00  0.00000000E+00
0.00000000E+00  0.00000000E+00  0.00000000E+00
0.00000000E+00  0.00000000E+00  0.00000000E+00
0.00000000E+00  0.00000000E+00  0.00000000E+00
