Cr4N3  (n=3)
1.00000000000000
2.6872404768139573  0.0000000000000000  0.0000000000000000
-1.3436202384069786  2.3272185189994095  0.0000000000000000
-0.0000000000000001  0.0000000000000004  37.1127577093545042
Cr  N  H
4  5  2
Selective  dynamics
Direct
0.0000000000000000  0.0000000000000000  0.0583113847898190  T  T  T
0.0000000000000000  0.0000000000000000  0.1281865757821694  T  T  T
0.0000000000000000  0.0000000000000000  0.1984146667780955  T  T  T
0.0000000000000000  0.0000000000000000  0.2682714416767845  T  T  T
0.3333333333333357  0.6666666666666643  0.0935410205802574  T  T  T
0.3333333333333357  0.6666666666666643  0.1625689410237531  T  T  T
0.3333333333333357  0.6666666666666643  0.2313009399455332  T  T  T
0.3333333333333357  0.6666666666666643  0.0275985467001954  T  T  T
0.6666666666666643  0.3333333333333357  0.2987375621364198  T  T  T
0.3333333333333357  0.6666666666666643  0.0000000000000000  T  T  T
0.6666666666666643  0.3333333333333357  0.3263771936382245  T  T  T

0.00000000E+00  0.00000000E+00  0.00000000E+00
0.00000000E+00  0.00000000E+00  0.00000000E+00
0.00000000E+00  0.00000000E+00  0.00000000E+00
0.00000000E+00  0.00000000E+00  0.00000000E+00
0.00000000E+00  0.00000000E+00  0.00000000E+00
0.00000000E+00  0.00000000E+00  0.00000000E+00
0.00000000E+00  0.00000000E+00  0.00000000E+00
0.00000000E+00  0.00000000E+00  0.00000000E+00
0.00000000E+00  0.00000000E+00  0.00000000E+00
0.00000000E+00  0.00000000E+00  0.00000000E+00
0.00000000E+00  0.00000000E+00  0.00000000E+00
