Zr4N3  (n=3)
1.00000000000000
3.2021301606934855  0.0000000000000001  0.0000000000000000
-1.6010650803467428  2.7731260655994481  0.0000000000000000
0.0000000000000000  0.0000000000000000  38.1145774884063613
Zr  N  H
4  5  2
Selective  dynamics
Direct
0.0000000000000000  -0.0000000000000000  0.0577113095523911  T  T  T
0.0000000000000000  -0.0000000000000000  0.1344718733731594  T  T  T
0.0000000000000000  -0.0000000000000000  0.2111402491978337  T  T  T
0.0000000000000000  -0.0000000000000000  0.2873422458808581  T  T  T
0.3333333333333357  0.6666666666666643  0.0964959896737191  T  T  T
0.3333333333333357  0.6666666666666643  0.1727997023972765  T  T  T
0.3333333333333357  0.6666666666666643  0.2501127283852275  T  T  T
0.3333333333333357  0.6666666666666643  0.0269536929043861  T  T  T
0.6666666666666643  0.3333333333333357  0.3172420132279889  T  T  T
0.3333333333333357  0.6666666666666643  0.0000000000000000  T  T  T
0.6666666666666643  0.3333333333333357  0.3440829822236789  T  T  T

0.00000000E+00  0.00000000E+00  0.00000000E+00
0.00000000E+00  0.00000000E+00  0.00000000E+00
0.00000000E+00  0.00000000E+00  0.00000000E+00
0.00000000E+00  0.00000000E+00  0.00000000E+00
0.00000000E+00  0.00000000E+00  0.00000000E+00
0.00000000E+00  0.00000000E+00  0.00000000E+00
0.00000000E+00  0.00000000E+00  0.00000000E+00
0.00000000E+00  0.00000000E+00  0.00000000E+00
0.00000000E+00  0.00000000E+00  0.00000000E+00
0.00000000E+00  0.00000000E+00  0.00000000E+00
0.00000000E+00  0.00000000E+00  0.00000000E+00
