Ta4N3  (n=3)
1.00000000000000
2.9711617701521469  0.0000000000000000  0.0000000000000000
-1.4855808850760734  2.5731015717860428  0.0000000000000000
0.0000000000000000  0.0000000000000000  38.2176747625495068
Ta  N  H
4  5  2
Selective  dynamics
Direct
0.0000000000000000  -0.0000000000000000  0.0590832703739296  T  T  T
0.0000000000000000  0.0000000000000000  0.1345219022471210  T  T  T
0.0000000000000000  0.0000000000000000  0.2107045059340647  T  T  T
0.0000000000000000  -0.0000000000000000  0.2865609600718675  T  T  T
0.3333333333333357  0.6666666666666643  0.0973623699446961  T  T  T
0.3333333333333357  0.6666666666666643  0.1727768212457428  T  T  T
0.3333333333333357  0.6666666666666643  0.2476104479491054  T  T  T
0.3333333333333357  0.6666666666666643  0.0266853692537842  T  T  T
0.6666666666666643  0.3333333333333357  0.3190285779236078  T  T  T
0.3333333333333357  0.6666666666666643  0.0000000000000000  T  T  T
0.6666666666666643  0.3333333333333357  0.3458524058481405  T  T  T

0.00000000E+00  0.00000000E+00  0.00000000E+00
0.00000000E+00  0.00000000E+00  0.00000000E+00
0.00000000E+00  0.00000000E+00  0.00000000E+00
0.00000000E+00  0.00000000E+00  0.00000000E+00
0.00000000E+00  0.00000000E+00  0.00000000E+00
0.00000000E+00  0.00000000E+00  0.00000000E+00
0.00000000E+00  0.00000000E+00  0.00000000E+00
0.00000000E+00  0.00000000E+00  0.00000000E+00
0.00000000E+00  0.00000000E+00  0.00000000E+00
0.00000000E+00  0.00000000E+00  0.00000000E+00
0.00000000E+00  0.00000000E+00  0.00000000E+00
