Mo4N3  (n=3)
1.00000000000000
2.8893058687831021  0.0000000000000000  0.0000000000000000
-1.4446529343915511  2.5022122817054511  0.0000000000000000
0.0000000000000000  0.0000000000000000  38.0896838920134968
Mo  N  H
4  5  2
Selective  dynamics
Direct
0.0000000000000000  -0.0000000000000000  0.0591980079026122  T  T  T
0.0000000000000000  -0.0000000000000000  0.1338682905402478  T  T  T
0.0000000000000000  -0.0000000000000000  0.2085803236210702  T  T  T
0.0000000000000000  -0.0000000000000000  0.2842806255841865  T  T  T
0.3333333333333357  0.6666666666666643  0.0967398762243586  T  T  T
0.3333333333333357  0.6666666666666643  0.1702058750700487  T  T  T
0.3333333333333357  0.6666666666666643  0.2426860030603662  T  T  T
0.3333333333333357  0.6666666666666643  0.0268649977240937  T  T  T
0.6666666666666643  0.3333333333333357  0.3167220294009734  T  T  T
0.3333333333333357  0.6666666666666643  0.0000000000000000  T  T  T
0.6666666666666643  0.3333333333333357  0.3436543062190677  T  T  T

0.00000000E+00  0.00000000E+00  0.00000000E+00
0.00000000E+00  0.00000000E+00  0.00000000E+00
0.00000000E+00  0.00000000E+00  0.00000000E+00
0.00000000E+00  0.00000000E+00  0.00000000E+00
0.00000000E+00  0.00000000E+00  0.00000000E+00
0.00000000E+00  0.00000000E+00  0.00000000E+00
0.00000000E+00  0.00000000E+00  0.00000000E+00
0.00000000E+00  0.00000000E+00  0.00000000E+00
0.00000000E+00  0.00000000E+00  0.00000000E+00
0.00000000E+00  0.00000000E+00  0.00000000E+00
0.00000000E+00  0.00000000E+00  0.00000000E+00
