Zr4C3  (n=3)
1.00000000000000
3.2927176680585619  0.0000000000000000  0.0000000000000000
-1.6463588340292810  2.8515771489148154  0.0000000000000000
0.0000000000000000  0.0000000000000000  38.2643620113420866
Zr  C  N  H
4  3  2  2
Selective  dynamics
Direct
-0.0000000000000000  0.0000000000000000  0.0559387575768130  T  T  T
-0.0000000000000000  0.0000000000000000  0.1345063795814973  T  T  T
-0.0000000000000000  0.0000000000000000  0.2122541865258813  T  T  T
-0.0000000000000000  0.0000000000000000  0.2911574287887768  T  T  T
0.3333333333333357  0.6666666666666643  0.0966494886167328  T  T  T
0.3333333333333357  0.6666666666666643  0.1746344677877605  T  T  T
0.3333333333333357  0.6666666666666643  0.2526340438345807  T  T  T
0.3333333333333357  0.6666666666666643  0.0269497917631449  T  T  T
0.6666666666666643  0.3333333333333357  0.3198469383568732  T  T  T
0.3333333333333357  0.6666666666666643  0.0000000000000000  T  T  T
0.6666666666666643  0.3333333333333357  0.3466505467257064  T  T  T

0.00000000E+00  0.00000000E+00  0.00000000E+00
0.00000000E+00  0.00000000E+00  0.00000000E+00
0.00000000E+00  0.00000000E+00  0.00000000E+00
0.00000000E+00  0.00000000E+00  0.00000000E+00
0.00000000E+00  0.00000000E+00  0.00000000E+00
0.00000000E+00  0.00000000E+00  0.00000000E+00
0.00000000E+00  0.00000000E+00  0.00000000E+00
0.00000000E+00  0.00000000E+00  0.00000000E+00
0.00000000E+00  0.00000000E+00  0.00000000E+00
0.00000000E+00  0.00000000E+00  0.00000000E+00
0.00000000E+00  0.00000000E+00  0.00000000E+00
