Hf4C3  (n=3)
1.00000000000000
3.2389525777227699  0.0000000000000000  0.0000000000000000
-1.6194762888613849  2.8050152145667111  0.0000000000000000
0.0000000000000000  0.0000000000000000  38.1328173545935911
Hf  C  N  H
4  3  2  2
Selective  dynamics
Direct
-0.0000000000000000  0.0000000000000000  0.0562231807601357  T  T  T
-0.0000000000000000  0.0000000000000000  0.1340090387989019  T  T  T
-0.0000000000000000  0.0000000000000000  0.2112181178338247  T  T  T
-0.0000000000000000  0.0000000000000000  0.2891106639817296  T  T  T
0.3333333333333357  0.6666666666666643  0.0962133197878850  T  T  T
0.3333333333333357  0.6666666666666643  0.1735898783820777  T  T  T
0.3333333333333357  0.6666666666666643  0.2510302814992854  T  T  T
0.3333333333333357  0.6666666666666643  0.0270638550894915  T  T  T
0.6666666666666643  0.3333333333333357  0.3175218314216715  T  T  T
0.3333333333333357  0.6666666666666643  0.0000000000000000  T  T  T
0.6666666666666643  0.3333333333333357  0.3443967234960039  T  T  T

0.00000000E+00  0.00000000E+00  0.00000000E+00
0.00000000E+00  0.00000000E+00  0.00000000E+00
0.00000000E+00  0.00000000E+00  0.00000000E+00
0.00000000E+00  0.00000000E+00  0.00000000E+00
0.00000000E+00  0.00000000E+00  0.00000000E+00
0.00000000E+00  0.00000000E+00  0.00000000E+00
0.00000000E+00  0.00000000E+00  0.00000000E+00
0.00000000E+00  0.00000000E+00  0.00000000E+00
0.00000000E+00  0.00000000E+00  0.00000000E+00
0.00000000E+00  0.00000000E+00  0.00000000E+00
0.00000000E+00  0.00000000E+00  0.00000000E+00
