Ti4N3  (n=3)
1.00000000000000
2.9490008738970497  0.0000000000000001  0.0000000000000000
-1.4745004369485248  2.5539096726183921  0.0000000000000000
0.0000000000000001  0.0000000000000001  37.2801342987195099
Ti  N  H
4  5  2
Selective  dynamics
Direct
0.0000000000000000  0.0000000000000000  0.0573899432750069  T  T  T
0.0000000000000000  0.0000000000000000  0.1297070294354317  T  T  T
0.0000000000000000  0.0000000000000000  0.2018003204183629  T  T  T
0.0000000000000000  0.0000000000000000  0.2730340757450444  T  T  T
0.3333333333333357  0.6666666666666643  0.0941531300419717  T  T  T
0.3333333333333357  0.6666666666666643  0.1657997959891805  T  T  T
0.3333333333333357  0.6666666666666643  0.2378454685189663  T  T  T
0.3333333333333357  0.6666666666666643  0.0275536491088685  T  T  T
0.6666666666666643  0.3333333333333357  0.3019940456033816  T  T  T
0.3333333333333357  0.6666666666666643  0.0000000000000000  T  T  T
0.6666666666666643  0.3333333333333357  0.3294015574171713  T  T  T

0.00000000E+00  0.00000000E+00  0.00000000E+00
0.00000000E+00  0.00000000E+00  0.00000000E+00
0.00000000E+00  0.00000000E+00  0.00000000E+00
0.00000000E+00  0.00000000E+00  0.00000000E+00
0.00000000E+00  0.00000000E+00  0.00000000E+00
0.00000000E+00  0.00000000E+00  0.00000000E+00
0.00000000E+00  0.00000000E+00  0.00000000E+00
0.00000000E+00  0.00000000E+00  0.00000000E+00
0.00000000E+00  0.00000000E+00  0.00000000E+00
0.00000000E+00  0.00000000E+00  0.00000000E+00
0.00000000E+00  0.00000000E+00  0.00000000E+00
