Nb4C3  (n=3)
1.00000000000000
3.0855997279193241  0.0000000000000000  0.0000000000000000
-1.5427998639596621  2.6722077504581403  0.0000000000000000
0.0000000000000000  0.0000000000000000  38.0538455406923859
Nb  C  N  H
4  3  2  2
Selective  dynamics
Direct
0.0000000000000000  0.0000000000000000  0.0587623032692553  T  T  T
0.0000000000000000  0.0000000000000000  0.1338322910940640  T  T  T
0.0000000000000000  0.0000000000000000  0.2098279749727232  T  T  T
0.0000000000000000  0.0000000000000000  0.2848456218030555  T  T  T
0.3333333333333357  0.6666666666666643  0.0963027471086218  T  T  T
0.3333333333333357  0.6666666666666643  0.1722697993286390  T  T  T
0.3333333333333357  0.6666666666666643  0.2478866730495060  T  T  T
0.3333333333333357  0.6666666666666643  0.0269661635346373  T  T  T
0.6666666666666643  0.3333333333333357  0.3161385864796268  T  T  T
0.3333333333333357  0.6666666666666643  0.0000000000000000  T  T  T
0.6666666666666643  0.3333333333333357  0.3430361729600606  T  T  T

0.00000000E+00  0.00000000E+00  0.00000000E+00
0.00000000E+00  0.00000000E+00  0.00000000E+00
0.00000000E+00  0.00000000E+00  0.00000000E+00
0.00000000E+00  0.00000000E+00  0.00000000E+00
0.00000000E+00  0.00000000E+00  0.00000000E+00
0.00000000E+00  0.00000000E+00  0.00000000E+00
0.00000000E+00  0.00000000E+00  0.00000000E+00
0.00000000E+00  0.00000000E+00  0.00000000E+00
0.00000000E+00  0.00000000E+00  0.00000000E+00
0.00000000E+00  0.00000000E+00  0.00000000E+00
0.00000000E+00  0.00000000E+00  0.00000000E+00
