Ti4C3  (n=3)
1.00000000000000
3.0269346281992591  0.0000000000000000  0.0000000000000000
-1.5134673140996295  2.6214022837496289  0.0000000000000000
0.0000000000000000  0.0000000000000000  37.4525437136596651
Ti  C  N  H
4  3  2  2
Selective  dynamics
Direct
-0.0000000000000000  -0.0000000000000000  0.0557227228791767  T  T  T
-0.0000000000000000  -0.0000000000000000  0.1300453314173091  T  T  T
-0.0000000000000000  -0.0000000000000000  0.2034340449153413  T  T  T
-0.0000000000000000  -0.0000000000000000  0.2772960527662987  T  T  T
0.3333333333333357  0.6666666666666643  0.0942830049629686  T  T  T
0.3333333333333357  0.6666666666666643  0.1674081060791571  T  T  T
0.3333333333333357  0.6666666666666643  0.2405921293294159  T  T  T
0.3333333333333357  0.6666666666666643  0.0275270810285749  T  T  T
0.6666666666666643  0.3333333333333357  0.3051491198701356  T  T  T
0.3333333333333357  0.6666666666666643  0.0000000000000000  T  T  T
0.6666666666666643  0.3333333333333357  0.3324885970059755  T  T  T

0.00000000E+00  0.00000000E+00  0.00000000E+00
0.00000000E+00  0.00000000E+00  0.00000000E+00
0.00000000E+00  0.00000000E+00  0.00000000E+00
0.00000000E+00  0.00000000E+00  0.00000000E+00
0.00000000E+00  0.00000000E+00  0.00000000E+00
0.00000000E+00  0.00000000E+00  0.00000000E+00
0.00000000E+00  0.00000000E+00  0.00000000E+00
0.00000000E+00  0.00000000E+00  0.00000000E+00
0.00000000E+00  0.00000000E+00  0.00000000E+00
0.00000000E+00  0.00000000E+00  0.00000000E+00
0.00000000E+00  0.00000000E+00  0.00000000E+00
