Cr4C3  (n=3)
1.00000000000000
2.7016356224511324  0.0000000000000000  0.0000000000000000
-1.3508178112255662  2.3396850808061567  0.0000000000000000
0.0000000000000000  0.0000000000000000  37.2302879416548649
Cr  C  N  H
4  3  2  2
Selective  dynamics
Direct
0.0000000000000000  -0.0000000000000000  0.0582494793594927  T  T  T
0.0000000000000000  -0.0000000000000000  0.1287168609208392  T  T  T
0.0000000000000000  -0.0000000000000000  0.1996344804022088  T  T  T
0.0000000000000000  -0.0000000000000000  0.2703038583670887  T  T  T
0.3333333333333357  0.6666666666666643  0.0937847588978470  T  T  T
0.3333333333333357  0.6666666666666643  0.1638739558834211  T  T  T
0.3333333333333357  0.6666666666666643  0.2334760628211939  T  T  T
0.3333333333333357  0.6666666666666643  0.0275248177941162  T  T  T
0.6666666666666643  0.3333333333333357  0.3009553182839183  T  T  T
0.3333333333333357  0.6666666666666643  0.0000000000000000  T  T  T
0.6666666666666643  0.3333333333333357  0.3285037161362131  T  T  T

0.00000000E+00  0.00000000E+00  0.00000000E+00
0.00000000E+00  0.00000000E+00  0.00000000E+00
0.00000000E+00  0.00000000E+00  0.00000000E+00
0.00000000E+00  0.00000000E+00  0.00000000E+00
0.00000000E+00  0.00000000E+00  0.00000000E+00
0.00000000E+00  0.00000000E+00  0.00000000E+00
0.00000000E+00  0.00000000E+00  0.00000000E+00
0.00000000E+00  0.00000000E+00  0.00000000E+00
0.00000000E+00  0.00000000E+00  0.00000000E+00
0.00000000E+00  0.00000000E+00  0.00000000E+00
0.00000000E+00  0.00000000E+00  0.00000000E+00
