Ta4N3  (n=3)
1.00000000000000
2.9280652142553425  -0.0000000000000002  0.0000000000000001
-1.4640326071276712  2.5357788597067907  -0.0000000000000001
0.0000000000000013  -0.0000000000000009  38.5579942643043481
Ta  N  O  H
4  3  2  2
Selective  dynamics
Direct
0.0000000000000000  0.0000000000000000  0.0616825917447622  T  T  T
-0.0000000000000000  0.0000000000000000  0.1370487586536959  T  T  T
-0.0000000000000000  0.0000000000000000  0.2126351643897006  T  T  T
0.0000000000000000  0.0000000000000000  0.2886827532064667  T  T  T
0.3333333333333357  0.6666666666666643  0.0986006835820093  T  T  T
0.3333333333333357  0.6666666666666643  0.1742916640302962  T  T  T
0.3333333333333357  0.6666666666666643  0.2492883133118630  T  T  T
0.3333333333333357  0.6666666666666643  0.0259552823927662  T  T  T
0.6666666666666643  0.3333333333333357  0.3260098328898729  T  T  T
0.3333333333333357  0.6666666666666643  0.0000000000000000  T  T  T
0.6666666666666643  0.3333333333333357  0.3516260252379328  T  T  T

0.00000000E+00  0.00000000E+00  0.00000000E+00
0.00000000E+00  0.00000000E+00  0.00000000E+00
0.00000000E+00  0.00000000E+00  0.00000000E+00
0.00000000E+00  0.00000000E+00  0.00000000E+00
0.00000000E+00  0.00000000E+00  0.00000000E+00
0.00000000E+00  0.00000000E+00  0.00000000E+00
0.00000000E+00  0.00000000E+00  0.00000000E+00
0.00000000E+00  0.00000000E+00  0.00000000E+00
0.00000000E+00  0.00000000E+00  0.00000000E+00
0.00000000E+00  0.00000000E+00  0.00000000E+00
0.00000000E+00  0.00000000E+00  0.00000000E+00
