Sc4C3  (n=3)
1.00000000000000
3.2536423663612464  -0.0000000000000001  0.0000000000000000
-1.6268211831806232  2.8177369445449179  0.0000000000000000
-0.0000000000000003  0.0000000000000001  38.0578957760004783
Sc  C  O  H
4  3  2  2
Selective  dynamics
Direct
-0.0000000000000000  -0.0000000000000000  0.0599543736194821  T  T  T
-0.0000000000000000  -0.0000000000000000  0.1333013951074380  T  T  T
-0.0000000000000000  -0.0000000000000000  0.2103430801199324  T  T  T
-0.0000000000000000  -0.0000000000000000  0.2851803761390147  T  T  T
0.3333333333333357  0.6666666666666643  0.0955309087744200  T  T  T
0.3333333333333357  0.6666666666666643  0.1720277678623496  T  T  T
0.3333333333333357  0.6666666666666643  0.2501122992448062  T  T  T
0.3333333333333357  0.6666666666666643  0.0256455065195857  T  T  T
0.6666666666666643  0.3333333333333357  0.3175534717590763  T  T  T
0.3333333333333357  0.6666666666666643  0.0000000000000000  T  T  T
0.6666666666666643  0.3333333333333357  0.3431060890191112  T  T  T

0.00000000E+00  0.00000000E+00  0.00000000E+00
0.00000000E+00  0.00000000E+00  0.00000000E+00
0.00000000E+00  0.00000000E+00  0.00000000E+00
0.00000000E+00  0.00000000E+00  0.00000000E+00
0.00000000E+00  0.00000000E+00  0.00000000E+00
0.00000000E+00  0.00000000E+00  0.00000000E+00
0.00000000E+00  0.00000000E+00  0.00000000E+00
0.00000000E+00  0.00000000E+00  0.00000000E+00
0.00000000E+00  0.00000000E+00  0.00000000E+00
0.00000000E+00  0.00000000E+00  0.00000000E+00
0.00000000E+00  0.00000000E+00  0.00000000E+00
