Cr4N3  (n=3)
1.00000000000000
2.6927788564577071  -0.0000000000000001  0.0000000000000000
-1.3463894282288535  2.3320148964676073  0.0000000000000000
-0.0000000000000001  0.0000000000000000  37.2729217261260217
Cr  N  O  H
4  3  2  2
Selective  dynamics
Direct
0.0000000000000000  0.0000000000000000  0.0617431479050531  T  T  T
0.0000000000000000  0.0000000000000000  0.1304932169745389  T  T  T
0.0000000000000000  0.0000000000000000  0.2002135272085368  T  T  T
0.0000000000000000  0.0000000000000000  0.2687849695044529  T  T  T
0.3333333333333357  0.6666666666666643  0.0952492075394848  T  T  T
0.3333333333333357  0.6666666666666643  0.1652203792226139  T  T  T
0.3333333333333357  0.6666666666666643  0.2344146687777957  T  T  T
0.3333333333333357  0.6666666666666643  0.0264536534270344  T  T  T
0.6666666666666643  0.3333333333333357  0.3028565857878098  T  T  T
0.3333333333333357  0.6666666666666643  0.0000000000000000  T  T  T
0.6666666666666643  0.3333333333333357  0.3292717919004311  T  T  T

0.00000000E+00  0.00000000E+00  0.00000000E+00
0.00000000E+00  0.00000000E+00  0.00000000E+00
0.00000000E+00  0.00000000E+00  0.00000000E+00
0.00000000E+00  0.00000000E+00  0.00000000E+00
0.00000000E+00  0.00000000E+00  0.00000000E+00
0.00000000E+00  0.00000000E+00  0.00000000E+00
0.00000000E+00  0.00000000E+00  0.00000000E+00
0.00000000E+00  0.00000000E+00  0.00000000E+00
0.00000000E+00  0.00000000E+00  0.00000000E+00
0.00000000E+00  0.00000000E+00  0.00000000E+00
0.00000000E+00  0.00000000E+00  0.00000000E+00
