Ti4N3  (n=3)
1.00000000000000
2.9032160059773147  0.0000000000000006  0.0000000000000000
-1.4516080029886573  2.5142588139050472  0.0000000000000000
-0.0000000000000009  0.0000000000000010  37.5632905804188226
Ti  N  O  H
4  3  2  2
Selective  dynamics
Direct
-0.0000000000000000  0.0000000000000000  0.0604045816232925  T  T  T
-0.0000000000000000  0.0000000000000000  0.1314338884167744  T  T  T
-0.0000000000000000  0.0000000000000000  0.2034831094104306  T  T  T
-0.0000000000000000  0.0000000000000000  0.2741554288784242  T  T  T
0.3333333333333357  0.6666666666666643  0.0946665199756571  T  T  T
0.3333333333333357  0.6666666666666643  0.1672933898620592  T  T  T
0.3333333333333357  0.6666666666666643  0.2402656883047185  T  T  T
0.3333333333333357  0.6666666666666643  0.0258988639735658  T  T  T
0.6666666666666643  0.3333333333333357  0.3083299109073723  T  T  T
0.3333333333333357  0.6666666666666643  0.0000000000000000  T  T  T
0.6666666666666643  0.3333333333333357  0.3344566034097097  T  T  T

0.00000000E+00  0.00000000E+00  0.00000000E+00
0.00000000E+00  0.00000000E+00  0.00000000E+00
0.00000000E+00  0.00000000E+00  0.00000000E+00
0.00000000E+00  0.00000000E+00  0.00000000E+00
0.00000000E+00  0.00000000E+00  0.00000000E+00
0.00000000E+00  0.00000000E+00  0.00000000E+00
0.00000000E+00  0.00000000E+00  0.00000000E+00
0.00000000E+00  0.00000000E+00  0.00000000E+00
0.00000000E+00  0.00000000E+00  0.00000000E+00
0.00000000E+00  0.00000000E+00  0.00000000E+00
0.00000000E+00  0.00000000E+00  0.00000000E+00
