Zr4N3  (n=3)
1.00000000000000
3.1327400182202743  0.0000000000000005  0.0000000000000000
-1.5663700091101371  2.7130324397404704  0.0000000000000000
-0.0000000000000003  0.0000000000000004  38.5662080455541130
Zr  N  O  H
4  3  2  2
Selective  dynamics
Direct
0.0000000000000000  0.0000000000000000  0.0615685654792098  T  T  T
0.0000000000000000  0.0000000000000000  0.1370642854580106  T  T  T
0.0000000000000000  0.0000000000000000  0.2137205875178536  T  T  T
0.0000000000000000  0.0000000000000000  0.2896740980810573  T  T  T
0.3333333333333357  0.6666666666666643  0.0982489064831859  T  T  T
0.3333333333333357  0.6666666666666643  0.1753713700483898  T  T  T
0.3333333333333357  0.6666666666666643  0.2521653336820637  T  T  T
0.3333333333333357  0.6666666666666643  0.0252226888822418  T  T  T
0.6666666666666643  0.3333333333333357  0.3263429094264241  T  T  T
0.3333333333333357  0.6666666666666643  0.0000000000000000  T  T  T
0.6666666666666643  0.3333333333333357  0.3517641150908540  T  T  T

0.00000000E+00  0.00000000E+00  0.00000000E+00
0.00000000E+00  0.00000000E+00  0.00000000E+00
0.00000000E+00  0.00000000E+00  0.00000000E+00
0.00000000E+00  0.00000000E+00  0.00000000E+00
0.00000000E+00  0.00000000E+00  0.00000000E+00
0.00000000E+00  0.00000000E+00  0.00000000E+00
0.00000000E+00  0.00000000E+00  0.00000000E+00
0.00000000E+00  0.00000000E+00  0.00000000E+00
0.00000000E+00  0.00000000E+00  0.00000000E+00
0.00000000E+00  0.00000000E+00  0.00000000E+00
0.00000000E+00  0.00000000E+00  0.00000000E+00
