Nb4N3  (n=3)
1.00000000000000
2.9536713127345875  -0.0000000000000002  -0.0000000000000001
-1.4768356563672937  2.5579543914254885  0.0000000000000001
0.0000000000000000  -0.0000000000000010  38.5237026029303138
Nb  N  O  H
4  3  2  2
Selective  dynamics
Direct
0.0000000000000000  0.0000000000000000  0.0614662027404303  T  T  T
0.0000000000000000  0.0000000000000000  0.1368384077675401  T  T  T
0.0000000000000000  0.0000000000000000  0.2124169321308927  T  T  T
0.0000000000000000  0.0000000000000000  0.2882972832702477  T  T  T
0.3333333333333357  0.6666666666666643  0.0982416492829330  T  T  T
0.3333333333333357  0.6666666666666643  0.1741173661333724  T  T  T
0.3333333333333357  0.6666666666666643  0.2490902081521793  T  T  T
0.3333333333333357  0.6666666666666643  0.0256611870588090  T  T  T
0.6666666666666643  0.3333333333333357  0.3255464022904887  T  T  T
0.3333333333333357  0.6666666666666643  0.0000000000000000  T  T  T
0.6666666666666643  0.3333333333333357  0.3510488787207497  T  T  T

0.00000000E+00  0.00000000E+00  0.00000000E+00
0.00000000E+00  0.00000000E+00  0.00000000E+00
0.00000000E+00  0.00000000E+00  0.00000000E+00
0.00000000E+00  0.00000000E+00  0.00000000E+00
0.00000000E+00  0.00000000E+00  0.00000000E+00
0.00000000E+00  0.00000000E+00  0.00000000E+00
0.00000000E+00  0.00000000E+00  0.00000000E+00
0.00000000E+00  0.00000000E+00  0.00000000E+00
0.00000000E+00  0.00000000E+00  0.00000000E+00
0.00000000E+00  0.00000000E+00  0.00000000E+00
0.00000000E+00  0.00000000E+00  0.00000000E+00
