Hf4C3  (n=3)
1.00000000000000
3.2340382600378841  0.0000000000000000  0.0000000000000000
-1.6170191300189416  2.8007592914561057  0.0000000000000000
0.0000000000000001  0.0000000000000000  38.1924689118753093
Hf  C  O  H
4  3  2  2
Selective  dynamics
Direct
-0.0000000000000000  -0.0000000000000000  0.0625850720818228  T  T  T
-0.0000000000000000  -0.0000000000000000  0.1371972156773343  T  T  T
-0.0000000000000000  -0.0000000000000000  0.2104458424337763  T  T  T
-0.0000000000000000  -0.0000000000000000  0.2848686281746906  T  T  T
0.3333333333333357  0.6666666666666643  0.0954800187762792  T  T  T
0.3333333333333357  0.6666666666666643  0.1744851622122937  T  T  T
0.3333333333333357  0.6666666666666643  0.2535519307030150  T  T  T
0.3333333333333357  0.6666666666666643  0.0255674550682034  T  T  T
0.6666666666666643  0.3333333333333357  0.3197730768195083  T  T  T
0.3333333333333357  0.6666666666666643  0.0000000000000000  T  T  T
0.6666666666666643  0.3333333333333357  0.3454206886262158  T  T  T

0.00000000E+00  0.00000000E+00  0.00000000E+00
0.00000000E+00  0.00000000E+00  0.00000000E+00
0.00000000E+00  0.00000000E+00  0.00000000E+00
0.00000000E+00  0.00000000E+00  0.00000000E+00
0.00000000E+00  0.00000000E+00  0.00000000E+00
0.00000000E+00  0.00000000E+00  0.00000000E+00
0.00000000E+00  0.00000000E+00  0.00000000E+00
0.00000000E+00  0.00000000E+00  0.00000000E+00
0.00000000E+00  0.00000000E+00  0.00000000E+00
0.00000000E+00  0.00000000E+00  0.00000000E+00
0.00000000E+00  0.00000000E+00  0.00000000E+00
