Sc4N3  (n=3)
1.00000000000000
3.1257104596785621  0.0000000000000003  0.0000000000000000
-1.5628552298392808  2.7069446631449234  0.0000000000000000
0.0000000000000001  -0.0000000000000004  37.8371109158535148
Sc  N  O  H
4  3  2  2
Selective  dynamics
Direct
-0.0000000000000000  -0.0000000000000000  0.0608879924287639  T  T  T
-0.0000000000000000  -0.0000000000000000  0.1343797580020164  T  T  T
-0.0000000000000000  -0.0000000000000000  0.2068615359005628  T  T  T
-0.0000000000000000  -0.0000000000000000  0.2799273006884121  T  T  T
0.3333333333333357  0.6666666666666643  0.0943638657352658  T  T  T
0.3333333333333357  0.6666666666666643  0.1712027226203204  T  T  T
0.3333333333333357  0.6666666666666643  0.2481191472996597  T  T  T
0.3333333333333357  0.6666666666666643  0.0257492608703571  T  T  T
0.6666666666666643  0.3333333333333357  0.3135888743348004  T  T  T
0.3333333333333357  0.6666666666666643  0.0000000000000000  T  T  T
0.6666666666666643  0.3333333333333357  0.3392730207230183  T  T  T

0.00000000E+00  0.00000000E+00  0.00000000E+00
0.00000000E+00  0.00000000E+00  0.00000000E+00
0.00000000E+00  0.00000000E+00  0.00000000E+00
0.00000000E+00  0.00000000E+00  0.00000000E+00
0.00000000E+00  0.00000000E+00  0.00000000E+00
0.00000000E+00  0.00000000E+00  0.00000000E+00
0.00000000E+00  0.00000000E+00  0.00000000E+00
0.00000000E+00  0.00000000E+00  0.00000000E+00
0.00000000E+00  0.00000000E+00  0.00000000E+00
0.00000000E+00  0.00000000E+00  0.00000000E+00
0.00000000E+00  0.00000000E+00  0.00000000E+00
