Zr4C3  (n=3)
1.00000000000000
3.2816665036461310  -0.0000000000000006  0.0000000000000000
-1.6408332518230648  2.8420065609806664  0.0000000000000000
0.0000000000000000  0.0000000000000000  38.3680307810485459
Zr  C  O  H
4  3  2  2
Selective  dynamics
Direct
0.0000000000000000  0.0000000000000000  0.0624864864199829  T  T  T
0.0000000000000000  0.0000000000000000  0.1378899741853400  T  T  T
0.0000000000000000  0.0000000000000000  0.2119716129939662  T  T  T
0.0000000000000000  0.0000000000000000  0.2872991293457458  T  T  T
0.3333333333333357  0.6666666666666643  0.0958128112659700  T  T  T
0.3333333333333357  0.6666666666666643  0.1756257986471122  T  T  T
0.3333333333333357  0.6666666666666643  0.2552967875822176  T  T  T
0.3333333333333357  0.6666666666666643  0.0254078990719655  T  T  T
0.6666666666666643  0.3333333333333357  0.3230083305482745  T  T  T
0.3333333333333357  0.6666666666666643  0.0000000000000000  T  T  T
0.6666666666666643  0.3333333333333357  0.3484158688605810  T  T  T

0.00000000E+00  0.00000000E+00  0.00000000E+00
0.00000000E+00  0.00000000E+00  0.00000000E+00
0.00000000E+00  0.00000000E+00  0.00000000E+00
0.00000000E+00  0.00000000E+00  0.00000000E+00
0.00000000E+00  0.00000000E+00  0.00000000E+00
0.00000000E+00  0.00000000E+00  0.00000000E+00
0.00000000E+00  0.00000000E+00  0.00000000E+00
0.00000000E+00  0.00000000E+00  0.00000000E+00
0.00000000E+00  0.00000000E+00  0.00000000E+00
0.00000000E+00  0.00000000E+00  0.00000000E+00
0.00000000E+00  0.00000000E+00  0.00000000E+00
