Cr4C3  (n=3)
1.00000000000000
2.7164528523331479  -0.0000000000000001  0.0000000000000000
-1.3582264261665740  2.3525171782846104  0.0000000000000000
0.0000000000000003  -0.0000000000000009  37.2990095186664590
Cr  C  O  H
4  3  2  2
Selective  dynamics
Direct
-0.0000000000000000  0.0000000000000000  0.0604148531148502  T  T  T
0.0000000000000000  0.0000000000000000  0.1300183550516024  T  T  T
0.0000000000000000  0.0000000000000000  0.2001958212310479  T  T  T
0.0000000000000000  0.0000000000000000  0.2693400666957290  T  T  T
0.3333333333333357  0.6666666666666643  0.0941626426187480  T  T  T
0.3333333333333357  0.6666666666666643  0.1645383728326408  T  T  T
0.3333333333333357  0.6666666666666643  0.2346940729109141  T  T  T
0.3333333333333357  0.6666666666666643  0.0263944292171180  T  T  T
0.6666666666666643  0.3333333333333357  0.3034415912833421  T  T  T
0.3333333333333357  0.6666666666666643  0.0000000000000000  T  T  T
0.6666666666666643  0.3333333333333357  0.3297409147691003  T  T  T

0.00000000E+00  0.00000000E+00  0.00000000E+00
0.00000000E+00  0.00000000E+00  0.00000000E+00
0.00000000E+00  0.00000000E+00  0.00000000E+00
0.00000000E+00  0.00000000E+00  0.00000000E+00
0.00000000E+00  0.00000000E+00  0.00000000E+00
0.00000000E+00  0.00000000E+00  0.00000000E+00
0.00000000E+00  0.00000000E+00  0.00000000E+00
0.00000000E+00  0.00000000E+00  0.00000000E+00
0.00000000E+00  0.00000000E+00  0.00000000E+00
0.00000000E+00  0.00000000E+00  0.00000000E+00
0.00000000E+00  0.00000000E+00  0.00000000E+00
