Ta4C3  (n=3)
1.00000000000000
3.0340702678779170  0.0000000000000000  0.0000000000000001
-1.5170351339389587  2.6275819294777119  0.0000000000000000
0.0000000000000003  0.0000000000000000  38.3316877629293913
Ta  C  O  H
4  3  2  2
Selective  dynamics
Direct
-0.0000000000000000  0.0000000000000000  0.0616536597571689  T  T  T
-0.0000000000000000  0.0000000000000000  0.1357370631614957  T  T  T
-0.0000000000000000  0.0000000000000000  0.2106489644245997  T  T  T
-0.0000000000000000  0.0000000000000000  0.2849983618591017  T  T  T
0.3333333333333357  0.6666666666666643  0.0964591114378532  T  T  T
0.3333333333333357  0.6666666666666643  0.1731642278465958  T  T  T
0.3333333333333357  0.6666666666666643  0.2497772977837271  T  T  T
0.3333333333333357  0.6666666666666643  0.0254075833142748  T  T  T
0.6666666666666643  0.3333333333333357  0.3220501239708373  T  T  T
0.3333333333333357  0.6666666666666643  0.0000000000000000  T  T  T
0.6666666666666643  0.3333333333333357  0.3477980892827390  T  T  T

0.00000000E+00  0.00000000E+00  0.00000000E+00
0.00000000E+00  0.00000000E+00  0.00000000E+00
0.00000000E+00  0.00000000E+00  0.00000000E+00
0.00000000E+00  0.00000000E+00  0.00000000E+00
0.00000000E+00  0.00000000E+00  0.00000000E+00
0.00000000E+00  0.00000000E+00  0.00000000E+00
0.00000000E+00  0.00000000E+00  0.00000000E+00
0.00000000E+00  0.00000000E+00  0.00000000E+00
0.00000000E+00  0.00000000E+00  0.00000000E+00
0.00000000E+00  0.00000000E+00  0.00000000E+00
0.00000000E+00  0.00000000E+00  0.00000000E+00
