Ti4C3  (n=3)
1.00000000000000
3.0341057653747021  -0.0000000000000002  0.0000000000000000
-1.5170528826873511  2.6276126707333600  0.0000000000000000
-0.0000000000000001  -0.0000000000000002  37.4612284366663104
Ti  C  O  H
4  3  2  2
Selective  dynamics
Direct
0.0000000000000000  0.0000000000000000  0.0613499765705055  T  T  T
0.0000000000000000  0.0000000000000000  0.1321535859997707  T  T  T
0.0000000000000000  0.0000000000000000  0.2021526705997139  T  T  T
0.0000000000000000  0.0000000000000000  0.2727511733499656  T  T  T
0.3333333333333357  0.6666666666666643  0.0935010633694848  T  T  T
0.3333333333333357  0.6666666666666643  0.1677442017992330  T  T  T
0.3333333333333357  0.6666666666666643  0.2418427741570456  T  T  T
0.3333333333333357  0.6666666666666643  0.0260478746375776  T  T  T
0.6666666666666643  0.3333333333333357  0.3066618302518938  T  T  T
0.3333333333333357  0.6666666666666643  0.0000000000000000  T  T  T
0.6666666666666643  0.3333333333333357  0.3326433477143933  T  T  T

0.00000000E+00  0.00000000E+00  0.00000000E+00
0.00000000E+00  0.00000000E+00  0.00000000E+00
0.00000000E+00  0.00000000E+00  0.00000000E+00
0.00000000E+00  0.00000000E+00  0.00000000E+00
0.00000000E+00  0.00000000E+00  0.00000000E+00
0.00000000E+00  0.00000000E+00  0.00000000E+00
0.00000000E+00  0.00000000E+00  0.00000000E+00
0.00000000E+00  0.00000000E+00  0.00000000E+00
0.00000000E+00  0.00000000E+00  0.00000000E+00
0.00000000E+00  0.00000000E+00  0.00000000E+00
0.00000000E+00  0.00000000E+00  0.00000000E+00
