Mo4N3  (n=3)
1.00000000000000
2.8678792461060767  0.0000000000000000  0.0000000000000000
-1.4339396230530383  2.4836562822501942  0.0000000000000000
0.0000000000000000  -0.0000000000000004  38.4119727457243130
Mo  N  O  H
4  3  2  2
Selective  dynamics
Direct
0.0000000000000000  0.0000000000000000  0.0652558045306769  T  T  T
0.0000000000000000  0.0000000000000000  0.1378097619503837  T  T  T
0.0000000000000000  0.0000000000000000  0.2128741628115086  T  T  T
0.0000000000000000  0.0000000000000000  0.2859338173791590  T  T  T
0.3333333333333357  0.6666666666666643  0.1007072015013216  T  T  T
0.3333333333333357  0.6666666666666643  0.1755381241117807  T  T  T
0.3333333333333357  0.6666666666666643  0.2487499888458764  T  T  T
0.3333333333333357  0.6666666666666643  0.0257935876045441  T  T  T
0.6666666666666643  0.3333333333333357  0.3235807857106382  T  T  T
0.3333333333333357  0.6666666666666643  0.0000000000000000  T  T  T
0.6666666666666643  0.3333333333333357  0.3491612585093593  T  T  T

0.00000000E+00  0.00000000E+00  0.00000000E+00
0.00000000E+00  0.00000000E+00  0.00000000E+00
0.00000000E+00  0.00000000E+00  0.00000000E+00
0.00000000E+00  0.00000000E+00  0.00000000E+00
0.00000000E+00  0.00000000E+00  0.00000000E+00
0.00000000E+00  0.00000000E+00  0.00000000E+00
0.00000000E+00  0.00000000E+00  0.00000000E+00
0.00000000E+00  0.00000000E+00  0.00000000E+00
0.00000000E+00  0.00000000E+00  0.00000000E+00
0.00000000E+00  0.00000000E+00  0.00000000E+00
0.00000000E+00  0.00000000E+00  0.00000000E+00
