Hf4N3  (n=3)
1.00000000000000
3.0721575778040586  -0.0000000000000006  0.0000000000000000
-1.5360787889020291  2.6605665072652100  0.0000000000000000
0.0000000000000001  -0.0000000000000005  38.4597970428904716
Hf  N  O  H
4  3  2  2
Selective  dynamics
Direct
0.0000000000000000  0.0000000000000000  0.0615807463867389  T  T  T
0.0000000000000000  0.0000000000000000  0.1367918048399287  T  T  T
0.0000000000000000  0.0000000000000000  0.2127687984111448  T  T  T
0.0000000000000000  -0.0000000000000000  0.2881439260161668  T  T  T
0.3333333333333357  0.6666666666666643  0.0984555535330450  T  T  T
0.3333333333333357  0.6666666666666643  0.1747889239362832  T  T  T
0.3333333333333357  0.6666666666666643  0.2510348835576915  T  T  T
0.3333333333333357  0.6666666666666643  0.0253819789554135  T  T  T
0.6666666666666643  0.3333333333333357  0.3242942017128280  T  T  T
0.3333333333333357  0.6666666666666643  0.0000000000000000  T  T  T
0.6666666666666643  0.3333333333333357  0.3499705686922911  T  T  T

0.00000000E+00  0.00000000E+00  0.00000000E+00
0.00000000E+00  0.00000000E+00  0.00000000E+00
0.00000000E+00  0.00000000E+00  0.00000000E+00
0.00000000E+00  0.00000000E+00  0.00000000E+00
0.00000000E+00  0.00000000E+00  0.00000000E+00
0.00000000E+00  0.00000000E+00  0.00000000E+00
0.00000000E+00  0.00000000E+00  0.00000000E+00
0.00000000E+00  0.00000000E+00  0.00000000E+00
0.00000000E+00  0.00000000E+00  0.00000000E+00
0.00000000E+00  0.00000000E+00  0.00000000E+00
0.00000000E+00  0.00000000E+00  0.00000000E+00
