Nb4C3  (n=3)
1.00000000000000
3.0548486761538896  -0.0000000000000002  0.0000000000000000
-1.5274243380769448  2.6455765586781883  0.0000000000000000
0.0000000000000005  0.0000000000000008  38.3428907247781581
Nb  C  O  H
4  3  2  2
Selective  dynamics
Direct
0.0000000000000000  0.0000000000000000  0.0615029823453478  T  T  T
0.0000000000000000  0.0000000000000000  0.1356469134249588  T  T  T
0.0000000000000000  0.0000000000000000  0.2109543387615211  T  T  T
0.0000000000000000  0.0000000000000000  0.2853218557044939  T  T  T
0.3333333333333357  0.6666666666666643  0.0962219959551892  T  T  T
0.3333333333333357  0.6666666666666643  0.1734474438050417  T  T  T
0.3333333333333357  0.6666666666666643  0.2499421986633563  T  T  T
0.3333333333333357  0.6666666666666643  0.0253612200247501  T  T  T
0.6666666666666643  0.3333333333333357  0.3224379590382510  T  T  T
0.3333333333333357  0.6666666666666643  0.0000000000000000  T  T  T
0.6666666666666643  0.3333333333333357  0.3479886485490161  T  T  T

0.00000000E+00  0.00000000E+00  0.00000000E+00
0.00000000E+00  0.00000000E+00  0.00000000E+00
0.00000000E+00  0.00000000E+00  0.00000000E+00
0.00000000E+00  0.00000000E+00  0.00000000E+00
0.00000000E+00  0.00000000E+00  0.00000000E+00
0.00000000E+00  0.00000000E+00  0.00000000E+00
0.00000000E+00  0.00000000E+00  0.00000000E+00
0.00000000E+00  0.00000000E+00  0.00000000E+00
0.00000000E+00  0.00000000E+00  0.00000000E+00
0.00000000E+00  0.00000000E+00  0.00000000E+00
0.00000000E+00  0.00000000E+00  0.00000000E+00
