Mo4C3  (n=3)
1.00000000000000
2.9102127662811643  0.0000000000000001  0.0000000000000000
-1.4551063831405819  2.5203181862535931  0.0000000000000001
-0.0000000000000003  0.0000000000000001  38.2631014422194085
Mo  C  O  H
4  3  2  2
Selective  dynamics
Direct
-0.0000000000000000  -0.0000000000000000  0.0623264392747779  T  T  T
-0.0000000000000000  -0.0000000000000000  0.1359963942779191  T  T  T
-0.0000000000000000  -0.0000000000000000  0.2103335853066590  T  T  T
-0.0000000000000000  -0.0000000000000000  0.2837854614000497  T  T  T
0.3333333333333357  0.6666666666666643  0.0978857240802187  T  T  T
0.3333333333333357  0.6666666666666643  0.1724260794107769  T  T  T
0.3333333333333357  0.6666666666666643  0.2467599932505557  T  T  T
0.3333333333333357  0.6666666666666643  0.0258958410975433  T  T  T
0.6666666666666643  0.3333333333333357  0.3210099066655958  T  T  T
0.3333333333333357  0.6666666666666643  0.0000000000000000  T  T  T
0.6666666666666643  0.3333333333333357  0.3466290222774502  T  T  T

0.00000000E+00  0.00000000E+00  0.00000000E+00
0.00000000E+00  0.00000000E+00  0.00000000E+00
0.00000000E+00  0.00000000E+00  0.00000000E+00
0.00000000E+00  0.00000000E+00  0.00000000E+00
0.00000000E+00  0.00000000E+00  0.00000000E+00
0.00000000E+00  0.00000000E+00  0.00000000E+00
0.00000000E+00  0.00000000E+00  0.00000000E+00
0.00000000E+00  0.00000000E+00  0.00000000E+00
0.00000000E+00  0.00000000E+00  0.00000000E+00
0.00000000E+00  0.00000000E+00  0.00000000E+00
0.00000000E+00  0.00000000E+00  0.00000000E+00
