Hf4C3  (n=3)
1.00000000000000
3.2876455478342725  0.0000000000000002  0.0000000000000000
-1.6438227739171360  2.8471845676794314  0.0000000000000001
-0.0000000000000003  0.0000000000000008  37.5267843923007192
Hf  C  Se
4  3  2
Selective  dynamics
Direct
-0.0000000000000000  -0.0000000000000000  0.0536304993401858  T  T  T
-0.0000000000000000  -0.0000000000000000  0.1302287089091394  T  T  T
-0.0000000000000000  -0.0000000000000000  0.2060378369359868  T  T  T
-0.0000000000000000  -0.0000000000000000  0.2824225243962771  T  T  T
0.3333333333333357  0.6666666666666643  0.0886558666718277  T  T  T
0.3333333333333357  0.6666666666666643  0.1683543630396534  T  T  T
0.3333333333333357  0.6666666666666643  0.2482242412825136  T  T  T
0.3333333333333357  0.6666666666666643  0.0000000000000000  T  T  T
0.6666666666666643  0.3333333333333357  0.3338091604478323  T  T  T

0.00000000E+00  0.00000000E+00  0.00000000E+00
0.00000000E+00  0.00000000E+00  0.00000000E+00
0.00000000E+00  0.00000000E+00  0.00000000E+00
0.00000000E+00  0.00000000E+00  0.00000000E+00
0.00000000E+00  0.00000000E+00  0.00000000E+00
0.00000000E+00  0.00000000E+00  0.00000000E+00
0.00000000E+00  0.00000000E+00  0.00000000E+00
0.00000000E+00  0.00000000E+00  0.00000000E+00
0.00000000E+00  0.00000000E+00  0.00000000E+00
