Zr4N3  (n=3)
1.00000000000000
3.2885350262330082  0.0000000000000005  -0.0000000000000001
-1.6442675131165030  2.8479548758979742  0.0000000000000001
-0.0000000000000011  0.0000000000000008  37.3212986165081873
Zr  N  Se
4  3  2
Selective  dynamics
Direct
0.0000000000000000  0.0000000000000000  0.0489469287680175  T  T  T
0.0000000000000000  0.0000000000000000  0.1265108726558642  T  T  T
0.0000000000000000  0.0000000000000000  0.2044696269531562  T  T  T
0.0000000000000000  0.0000000000000000  0.2814981043673597  T  T  T
0.3333333333333357  0.6666666666666643  0.0882367293705669  T  T  T
0.3333333333333357  0.6666666666666643  0.1656012049010958  T  T  T
0.3333333333333357  0.6666666666666643  0.2438122675498671  T  T  T
0.3333333333333357  0.6666666666666643  0.0000000000000000  T  T  T
0.6666666666666643  0.3333333333333357  0.3301412081909216  T  T  T

0.00000000E+00  0.00000000E+00  0.00000000E+00
0.00000000E+00  0.00000000E+00  0.00000000E+00
0.00000000E+00  0.00000000E+00  0.00000000E+00
0.00000000E+00  0.00000000E+00  0.00000000E+00
0.00000000E+00  0.00000000E+00  0.00000000E+00
0.00000000E+00  0.00000000E+00  0.00000000E+00
0.00000000E+00  0.00000000E+00  0.00000000E+00
0.00000000E+00  0.00000000E+00  0.00000000E+00
0.00000000E+00  0.00000000E+00  0.00000000E+00
