Hf4N3  (n=3)
1.00000000000000
3.2421334742524275  -0.0000000000000005  0.0000000000000000
-1.6210667371262137  2.8077699528393301  0.0000000000000000
0.0000000000000002  -0.0000000000000003  37.1808878429765883
Hf  N  Se
4  3  2
Selective  dynamics
Direct
-0.0000000000000000  -0.0000000000000000  0.0486601183235321  T  T  T
-0.0000000000000000  -0.0000000000000000  0.1259046767207716  T  T  T
-0.0000000000000000  -0.0000000000000000  0.2029706866996148  T  T  T
-0.0000000000000000  -0.0000000000000000  0.2795188592875533  T  T  T
0.3333333333333357  0.6666666666666643  0.0873430540125674  T  T  T
0.3333333333333357  0.6666666666666643  0.1646338229074136  T  T  T
0.3333333333333357  0.6666666666666643  0.2425501337455855  T  T  T
0.3333333333333357  0.6666666666666643  0.0000000000000000  T  T  T
0.6666666666666643  0.3333333333333357  0.3276115377991852  T  T  T

0.00000000E+00  0.00000000E+00  0.00000000E+00
0.00000000E+00  0.00000000E+00  0.00000000E+00
0.00000000E+00  0.00000000E+00  0.00000000E+00
0.00000000E+00  0.00000000E+00  0.00000000E+00
0.00000000E+00  0.00000000E+00  0.00000000E+00
0.00000000E+00  0.00000000E+00  0.00000000E+00
0.00000000E+00  0.00000000E+00  0.00000000E+00
0.00000000E+00  0.00000000E+00  0.00000000E+00
0.00000000E+00  0.00000000E+00  0.00000000E+00
