Nb4C3  (n=3)
1.00000000000000
3.1760496902585986  -0.0000000000000000  0.0000000000000001
-1.5880248451292995  2.7505397171645591  -0.0000000000000002
0.0000000000000001  -0.0000000000000005  37.1483122420865044
Nb  C  Se
4  3  2
Selective  dynamics
Direct
0.0000000000000000  -0.0000000000000000  0.0495512532506108  T  T  T
0.0000000000000000  -0.0000000000000000  0.1251783365010272  T  T  T
-0.0000000000000000  0.0000000000000000  0.2018509765350021  T  T  T
-0.0000000000000000  0.0000000000000000  0.2775976345551955  T  T  T
0.3333333333333357  0.6666666666666643  0.0865552967059717  T  T  T
0.3333333333333357  0.6666666666666643  0.1639599717963362  T  T  T
0.3333333333333357  0.6666666666666643  0.2412146139653728  T  T  T
0.3333333333333357  0.6666666666666643  0.0000000000000000  T  T  T
0.6666666666666643  0.3333333333333357  0.3270219159061363  T  T  T

0.00000000E+00  0.00000000E+00  0.00000000E+00
0.00000000E+00  0.00000000E+00  0.00000000E+00
0.00000000E+00  0.00000000E+00  0.00000000E+00
0.00000000E+00  0.00000000E+00  0.00000000E+00
0.00000000E+00  0.00000000E+00  0.00000000E+00
0.00000000E+00  0.00000000E+00  0.00000000E+00
0.00000000E+00  0.00000000E+00  0.00000000E+00
0.00000000E+00  0.00000000E+00  0.00000000E+00
0.00000000E+00  0.00000000E+00  0.00000000E+00
