Mo4C3  (n=3)
1.00000000000000
3.0121547029503608  -0.0000000000000002  0.0000000000000000
-1.5060773514751804  2.6086024934500478  -0.0000000000000001
0.0000000000000003  -0.0000000000000011  37.0548379978519762
Mo  C  Se
4  3  2
Selective  dynamics
Direct
-0.0000000000000000  -0.0000000000000000  0.0487921501856648  T  T  T
-0.0000000000000000  -0.0000000000000000  0.1238966985838949  T  T  T
0.0000000000000000  0.0000000000000000  0.1997101438491719  T  T  T
0.0000000000000000  0.0000000000000000  0.2749608795831703  T  T  T
0.3333333333333357  0.6666666666666643  0.0860805798144918  T  T  T
0.3333333333333357  0.6666666666666643  0.1615787128444619  T  T  T
0.3333333333333357  0.6666666666666643  0.2366390928896116  T  T  T
0.3333333333333357  0.6666666666666643  0.0000000000000000  T  T  T
0.6666666666666643  0.3333333333333357  0.3253242666598834  T  T  T

0.00000000E+00  0.00000000E+00  0.00000000E+00
0.00000000E+00  0.00000000E+00  0.00000000E+00
0.00000000E+00  0.00000000E+00  0.00000000E+00
0.00000000E+00  0.00000000E+00  0.00000000E+00
0.00000000E+00  0.00000000E+00  0.00000000E+00
0.00000000E+00  0.00000000E+00  0.00000000E+00
0.00000000E+00  0.00000000E+00  0.00000000E+00
0.00000000E+00  0.00000000E+00  0.00000000E+00
0.00000000E+00  0.00000000E+00  0.00000000E+00
