Mo4N3  (n=3)
1.00000000000000
2.9832202982475891  -0.0000000000000005  0.0000000000000001
-1.4916101491237950  2.5835445636825303  -0.0000000000000001
0.0000000000000004  -0.0000000000000010  37.0766076394384214
Mo  N  Se
4  3  2
Selective  dynamics
Direct
-0.0000000000000000  0.0000000000000000  0.0493088175702245  T  T  T
-0.0000000000000000  0.0000000000000000  0.1244513269246992  T  T  T
-0.0000000000000000  0.0000000000000000  0.2002764513082810  T  T  T
-0.0000000000000000  0.0000000000000000  0.2760207356062038  T  T  T
0.3333333333333357  0.6666666666666643  0.0873713758856111  T  T  T
0.3333333333333357  0.6666666666666643  0.1611896334895608  T  T  T
0.3333333333333357  0.6666666666666643  0.2349116036578432  T  T  T
0.3333333333333357  0.6666666666666643  0.0000000000000000  T  T  T
0.6666666666666643  0.3333333333333357  0.3257204045440372  T  T  T

0.00000000E+00  0.00000000E+00  0.00000000E+00
0.00000000E+00  0.00000000E+00  0.00000000E+00
0.00000000E+00  0.00000000E+00  0.00000000E+00
0.00000000E+00  0.00000000E+00  0.00000000E+00
0.00000000E+00  0.00000000E+00  0.00000000E+00
0.00000000E+00  0.00000000E+00  0.00000000E+00
0.00000000E+00  0.00000000E+00  0.00000000E+00
0.00000000E+00  0.00000000E+00  0.00000000E+00
0.00000000E+00  0.00000000E+00  0.00000000E+00
