Zr4C3  (n=3)
1.00000000000000
3.3337226847454144  -0.0000000000000002  0.0000000000000001
-1.6668613423727077  2.8870885420156194  -0.0000000000000000
0.0000000000000006  0.0000000000000005  37.6799304495681824
Zr  C  Se
4  3  2
Selective  dynamics
Direct
0.0000000000000000  0.0000000000000000  0.0533525014943095  T  T  T
0.0000000000000000  0.0000000000000000  0.1309499913596689  T  T  T
-0.0000000000000000  -0.0000000000000000  0.2076206899053724  T  T  T
-0.0000000000000000  -0.0000000000000000  0.2850460068595591  T  T  T
0.3333333333333357  0.6666666666666643  0.0891549567730484  T  T  T
0.3333333333333357  0.6666666666666643  0.1695896246847582  T  T  T
0.3333333333333357  0.6666666666666643  0.2501691912882427  T  T  T
0.3333333333333357  0.6666666666666643  0.0000000000000000  T  T  T
0.6666666666666643  0.3333333333333357  0.3365168220397682  T  T  T

0.00000000E+00  0.00000000E+00  0.00000000E+00
0.00000000E+00  0.00000000E+00  0.00000000E+00
0.00000000E+00  0.00000000E+00  0.00000000E+00
0.00000000E+00  0.00000000E+00  0.00000000E+00
0.00000000E+00  0.00000000E+00  0.00000000E+00
0.00000000E+00  0.00000000E+00  0.00000000E+00
0.00000000E+00  0.00000000E+00  0.00000000E+00
0.00000000E+00  0.00000000E+00  0.00000000E+00
0.00000000E+00  0.00000000E+00  0.00000000E+00
