Sc4C3  (n=3)
1.00000000000000
3.3762774950295014  0.0000000000000001  0.0000000000000000
-1.6881387475147507  2.9239420843023805  0.0000000000000000
0.0000000000000002  0.0000000000000003  37.0509386462254966
Sc  C  Se
4  3  2
Selective  dynamics
Direct
0.0000000000000000  0.0000000000000000  0.0523688391621238  T  T  T
0.0000000000000000  0.0000000000000000  0.1256137218294880  T  T  T
-0.0000000000000000  -0.0000000000000000  0.1985040870407462  T  T  T
-0.0000000000000000  -0.0000000000000000  0.2739686249079704  T  T  T
0.3333333333333357  0.6666666666666643  0.0899058877846199  T  T  T
0.3333333333333357  0.6666666666666643  0.1600762285247740  T  T  T
0.3333333333333357  0.6666666666666643  0.2369257340802917  T  T  T
0.3333333333333357  0.6666666666666643  0.0000000000000000  T  T  T
0.6666666666666643  0.3333333333333357  0.3252532617673147  T  T  T

0.00000000E+00  0.00000000E+00  0.00000000E+00
0.00000000E+00  0.00000000E+00  0.00000000E+00
0.00000000E+00  0.00000000E+00  0.00000000E+00
0.00000000E+00  0.00000000E+00  0.00000000E+00
0.00000000E+00  0.00000000E+00  0.00000000E+00
0.00000000E+00  0.00000000E+00  0.00000000E+00
0.00000000E+00  0.00000000E+00  0.00000000E+00
0.00000000E+00  0.00000000E+00  0.00000000E+00
0.00000000E+00  0.00000000E+00  0.00000000E+00
