Sc4N3  (n=3)
1.00000000000000
3.1760905265100008  0.0000000000000005  0.0000000000000000
-1.5880452632549995  2.7505750817693420  0.0000000000000000
-0.0000000000000003  0.0000000000000001  37.3715530037550678
Sc  N  Se
4  3  2
Selective  dynamics
Direct
0.0000000000000000  0.0000000000000000  0.0552273955317217  T  T  T
0.0000000000000000  0.0000000000000000  0.1294194022349166  T  T  T
0.0000000000000000  0.0000000000000000  0.2035425286683383  T  T  T
0.0000000000000000  0.0000000000000000  0.2772929929957120  T  T  T
0.3333333333333357  0.6666666666666643  0.0896551377558685  T  T  T
0.3333333333333357  0.6666666666666643  0.1668149868442838  T  T  T
0.3333333333333357  0.6666666666666643  0.2439796123279996  T  T  T
0.3333333333333357  0.6666666666666643  0.0000000000000000  T  T  T
0.6666666666666643  0.3333333333333357  0.3310419827217772  T  T  T

0.00000000E+00  0.00000000E+00  0.00000000E+00
0.00000000E+00  0.00000000E+00  0.00000000E+00
0.00000000E+00  0.00000000E+00  0.00000000E+00
0.00000000E+00  0.00000000E+00  0.00000000E+00
0.00000000E+00  0.00000000E+00  0.00000000E+00
0.00000000E+00  0.00000000E+00  0.00000000E+00
0.00000000E+00  0.00000000E+00  0.00000000E+00
0.00000000E+00  0.00000000E+00  0.00000000E+00
0.00000000E+00  0.00000000E+00  0.00000000E+00
