Ta4C3  (n=3)
1.00000000000000
3.1619154379268273  0.0000000000000006  0.0000000000000001
-1.5809577189634130  2.7382990951077715  -0.0000000000000001
0.0000000000000009  0.0000000000000014  37.1143590135997599
Ta  C  Se
4  3  2
Selective  dynamics
Direct
0.0000000000000000  0.0000000000000000  0.0495268152880497  T  T  T
0.0000000000000000  0.0000000000000000  0.1254471391576811  T  T  T
-0.0000000000000000  -0.0000000000000000  0.2016310222600416  T  T  T
-0.0000000000000000  -0.0000000000000000  0.2771948506718769  T  T  T
0.3333333333333357  0.6666666666666643  0.0863112736951541  T  T  T
0.3333333333333357  0.6666666666666643  0.1639767911144329  T  T  T
0.3333333333333357  0.6666666666666643  0.2416001714075045  T  T  T
0.3333333333333357  0.6666666666666643  0.0000000000000000  T  T  T
0.6666666666666643  0.3333333333333357  0.3264062571890495  T  T  T

0.00000000E+00  0.00000000E+00  0.00000000E+00
0.00000000E+00  0.00000000E+00  0.00000000E+00
0.00000000E+00  0.00000000E+00  0.00000000E+00
0.00000000E+00  0.00000000E+00  0.00000000E+00
0.00000000E+00  0.00000000E+00  0.00000000E+00
0.00000000E+00  0.00000000E+00  0.00000000E+00
0.00000000E+00  0.00000000E+00  0.00000000E+00
0.00000000E+00  0.00000000E+00  0.00000000E+00
0.00000000E+00  0.00000000E+00  0.00000000E+00
