Ti4N3  (n=3)
1.00000000000000
3.0173413496593113  0.0000000000000000  0.0000000000000000
-1.5086706748296557  2.6130942609934382  0.0000000000000000
0.0000000000000002  0.0000000000000004  36.6690925050338379
Ti  N  Se
4  3  2
Selective  dynamics
Direct
-0.0000000000000000  0.0000000000000000  0.0516582988262140  T  T  T
-0.0000000000000000  0.0000000000000000  0.1240705506019818  T  T  T
-0.0000000000000000  0.0000000000000000  0.1963406998523421  T  T  T
0.0000000000000000  0.0000000000000000  0.2681875449959982  T  T  T
0.3333333333333357  0.6666666666666643  0.0867192477052373  T  T  T
0.3333333333333357  0.6666666666666643  0.1604725287270002  T  T  T
0.3333333333333357  0.6666666666666643  0.2346974900165697  T  T  T
0.3333333333333357  0.6666666666666643  0.0000000000000000  T  T  T
0.6666666666666643  0.3333333333333357  0.3182269237623466  T  T  T

0.00000000E+00  0.00000000E+00  0.00000000E+00
0.00000000E+00  0.00000000E+00  0.00000000E+00
0.00000000E+00  0.00000000E+00  0.00000000E+00
0.00000000E+00  0.00000000E+00  0.00000000E+00
0.00000000E+00  0.00000000E+00  0.00000000E+00
0.00000000E+00  0.00000000E+00  0.00000000E+00
0.00000000E+00  0.00000000E+00  0.00000000E+00
0.00000000E+00  0.00000000E+00  0.00000000E+00
0.00000000E+00  0.00000000E+00  0.00000000E+00
