Ti4C3  (n=3)
1.00000000000000
3.1009015029102707  -0.0000000000000001  0.0000000000000000
-1.5504507514551353  2.6854594770162343  0.0000000000000000
0.0000000000000000  0.0000000000000006  36.7701421795696533
Ti  C  Se
4  3  2
Selective  dynamics
Direct
0.0000000000000000  0.0000000000000000  0.0531911276752547  T  T  T
0.0000000000000000  0.0000000000000000  0.1255050037739705  T  T  T
-0.0000000000000000  -0.0000000000000000  0.1972198806720876  T  T  T
-0.0000000000000000  -0.0000000000000000  0.2691801925532205  T  T  T
0.3333333333333357  0.6666666666666643  0.0861472999155053  T  T  T
0.3333333333333357  0.6666666666666643  0.1615069945744339  T  T  T
0.3333333333333357  0.6666666666666643  0.2369058548341946  T  T  T
0.3333333333333357  0.6666666666666643  0.0000000000000000  T  T  T
0.6666666666666643  0.3333333333333357  0.3201005348874995  T  T  T

0.00000000E+00  0.00000000E+00  0.00000000E+00
0.00000000E+00  0.00000000E+00  0.00000000E+00
0.00000000E+00  0.00000000E+00  0.00000000E+00
0.00000000E+00  0.00000000E+00  0.00000000E+00
0.00000000E+00  0.00000000E+00  0.00000000E+00
0.00000000E+00  0.00000000E+00  0.00000000E+00
0.00000000E+00  0.00000000E+00  0.00000000E+00
0.00000000E+00  0.00000000E+00  0.00000000E+00
0.00000000E+00  0.00000000E+00  0.00000000E+00
