Cr4C3  (n=3)
1.00000000000000
2.8413486955254967  0.0000000000000001  0.0000000000000000
-1.4206743477627484  2.4606801512824181  0.0000000000000000
0.0000000000000001  0.0000000000000003  36.1545535919830456
Cr  C  Se
4  3  2
Selective  dynamics
Direct
-0.0000000000000000  -0.0000000000000000  0.0478640905036420  T  T  T
-0.0000000000000000  -0.0000000000000000  0.1182170986617935  T  T  T
-0.0000000000000000  -0.0000000000000000  0.1894227148236918  T  T  T
-0.0000000000000000  -0.0000000000000000  0.2596442084015892  T  T  T
0.3333333333333357  0.6666666666666643  0.0825497652750350  T  T  T
0.3333333333333357  0.6666666666666643  0.1537309319364958  T  T  T
0.3333333333333357  0.6666666666666643  0.2246264301777295  T  T  T
0.3333333333333357  0.6666666666666643  0.0000000000000000  T  T  T
0.6666666666666643  0.3333333333333357  0.3085241687082114  T  T  T

0.00000000E+00  0.00000000E+00  0.00000000E+00
0.00000000E+00  0.00000000E+00  0.00000000E+00
0.00000000E+00  0.00000000E+00  0.00000000E+00
0.00000000E+00  0.00000000E+00  0.00000000E+00
0.00000000E+00  0.00000000E+00  0.00000000E+00
0.00000000E+00  0.00000000E+00  0.00000000E+00
0.00000000E+00  0.00000000E+00  0.00000000E+00
0.00000000E+00  0.00000000E+00  0.00000000E+00
0.00000000E+00  0.00000000E+00  0.00000000E+00
