Ta4N3  (n=3)
1.00000000000000
3.0578847529684006  0.0000000000000001  -0.0000000000000001
-1.5289423764842005  2.6482058786040441  0.0000000000000000
-0.0000000000000011  0.0000000000000004  37.3084314651171525
Ta  N  Se
4  3  2
Selective  dynamics
Direct
-0.0000000000000000  -0.0000000000000000  0.0490002171003325  T  T  T
-0.0000000000000000  -0.0000000000000000  0.1257372441675833  T  T  T
-0.0000000000000000  -0.0000000000000000  0.2029243629138762  T  T  T
-0.0000000000000000  -0.0000000000000000  0.2799258856026644  T  T  T
0.3333333333333357  0.6666666666666643  0.0884149681352769  T  T  T
0.3333333333333357  0.6666666666666643  0.1642966973293060  T  T  T
0.3333333333333357  0.6666666666666643  0.2398756171440243  T  T  T
0.3333333333333357  0.6666666666666643  0.0000000000000000  T  T  T
0.6666666666666643  0.3333333333333357  0.3299101833489129  T  T  T

0.00000000E+00  0.00000000E+00  0.00000000E+00
0.00000000E+00  0.00000000E+00  0.00000000E+00
0.00000000E+00  0.00000000E+00  0.00000000E+00
0.00000000E+00  0.00000000E+00  0.00000000E+00
0.00000000E+00  0.00000000E+00  0.00000000E+00
0.00000000E+00  0.00000000E+00  0.00000000E+00
0.00000000E+00  0.00000000E+00  0.00000000E+00
0.00000000E+00  0.00000000E+00  0.00000000E+00
0.00000000E+00  0.00000000E+00  0.00000000E+00
