Nb4N3  (n=3)
1.00000000000000
3.0750870903217780  0.0000000000000004  0.0000000000000001
-1.5375435451608890  2.6631035397340934  0.0000000000000000
0.0000000000000004  0.0000000000000002  37.3244732666387264
Nb  N  Se
4  3  2
Selective  dynamics
Direct
-0.0000000000000000  -0.0000000000000000  0.0492063921760761  T  T  T
-0.0000000000000000  -0.0000000000000000  0.1258401743139569  T  T  T
-0.0000000000000000  -0.0000000000000000  0.2029511308405817  T  T  T
-0.0000000000000000  0.0000000000000000  0.2799302615335174  T  T  T
0.3333333333333357  0.6666666666666643  0.0885745500753187  T  T  T
0.3333333333333357  0.6666666666666643  0.1642630306153632  T  T  T
0.3333333333333357  0.6666666666666643  0.2397444367050841  T  T  T
0.3333333333333357  0.6666666666666643  0.0000000000000000  T  T  T
0.6666666666666643  0.3333333333333357  0.3301981833365766  T  T  T

0.00000000E+00  0.00000000E+00  0.00000000E+00
0.00000000E+00  0.00000000E+00  0.00000000E+00
0.00000000E+00  0.00000000E+00  0.00000000E+00
0.00000000E+00  0.00000000E+00  0.00000000E+00
0.00000000E+00  0.00000000E+00  0.00000000E+00
0.00000000E+00  0.00000000E+00  0.00000000E+00
0.00000000E+00  0.00000000E+00  0.00000000E+00
0.00000000E+00  0.00000000E+00  0.00000000E+00
0.00000000E+00  0.00000000E+00  0.00000000E+00
