Cr4N3  (n=3)
1.00000000000000
2.8035122863745681  0.0000000000000001  0.0000000000000000
-1.4017561431872843  2.4279128598263875  0.0000000000000000
0.0000000000000000  -0.0000000000000005  36.1609956077587427
Cr  N  Se
4  3  2
Selective  dynamics
Direct
0.0000000000000000  0.0000000000000000  0.0482886577956482  T  T  T
0.0000000000000000  0.0000000000000000  0.1185321769876527  T  T  T
0.0000000000000000  0.0000000000000000  0.1894431330794285  T  T  T
0.0000000000000000  0.0000000000000000  0.2591122208838345  T  T  T
0.3333333333333357  0.6666666666666643  0.0826927046089224  T  T  T
0.3333333333333357  0.6666666666666643  0.1532499555626927  T  T  T
0.3333333333333357  0.6666666666666643  0.2239091582953177  T  T  T
0.3333333333333357  0.6666666666666643  0.0000000000000000  T  T  T
0.6666666666666643  0.3333333333333357  0.3086473538732996  T  T  T

0.00000000E+00  0.00000000E+00  0.00000000E+00
0.00000000E+00  0.00000000E+00  0.00000000E+00
0.00000000E+00  0.00000000E+00  0.00000000E+00
0.00000000E+00  0.00000000E+00  0.00000000E+00
0.00000000E+00  0.00000000E+00  0.00000000E+00
0.00000000E+00  0.00000000E+00  0.00000000E+00
0.00000000E+00  0.00000000E+00  0.00000000E+00
0.00000000E+00  0.00000000E+00  0.00000000E+00
0.00000000E+00  0.00000000E+00  0.00000000E+00
