Zr4C3  (n=3)
1.00000000000000
3.2834757181490235  -0.0000000000000001  0.0000000000000000
-1.6417378590745120  2.8435733858754526  0.0000000000000000
0.0000000000000000  0.0000000000000000  36.2399205653037413
Zr  C  F
4  3  2
Selective  dynamics
Direct
0.0000000000000000  0.0000000000000000  0.0366376408010120  T  T  T
0.0000000000000000  0.0000000000000000  0.1158482162023665  T  T  T
0.0000000000000000  0.0000000000000000  0.1943047971037635  T  T  T
0.0000000000000000  0.0000000000000000  0.2735153725051179  T  T  T
0.3333333333333357  0.6666666666666643  0.0702230740371113  T  T  T
0.3333333333333357  0.6666666666666643  0.1550765066530611  T  T  T
0.3333333333333357  0.6666666666666643  0.2399299392690108  T  T  T
0.6666666666666643  0.3333333333333357  0.0000000000000000  T  T  T
0.6666666666666643  0.3333333333333357  0.3101530133061298  T  T  T

0.00000000E+00  0.00000000E+00  0.00000000E+00
0.00000000E+00  0.00000000E+00  0.00000000E+00
0.00000000E+00  0.00000000E+00  0.00000000E+00
0.00000000E+00  0.00000000E+00  0.00000000E+00
0.00000000E+00  0.00000000E+00  0.00000000E+00
0.00000000E+00  0.00000000E+00  0.00000000E+00
0.00000000E+00  0.00000000E+00  0.00000000E+00
0.00000000E+00  0.00000000E+00  0.00000000E+00
0.00000000E+00  0.00000000E+00  0.00000000E+00
