Nb4C3  (n=3)
1.00000000000000
3.0234068787727004  0.0000000000000000  0.0000000000000000
-1.5117034393863502  2.6183471633182820  0.0000000000000000
0.0000000000000000  0.0000000000000000  36.5572599058485395
Nb  C  F
4  3  2
Selective  dynamics
Direct
0.0000000000000000  0.0000000000000000  0.0397520028421724  T  T  T
0.0000000000000000  0.0000000000000000  0.1186038949109265  T  T  T
0.0000000000000000  0.0000000000000000  0.1975374115112097  T  T  T
0.0000000000000000  0.0000000000000000  0.2763893035799637  T  T  T
0.3333333333333357  0.6666666666666643  0.0768179846576141  T  T  T
0.3333333333333357  0.6666666666666643  0.1580706532110641  T  T  T
0.3333333333333357  0.6666666666666643  0.2393233217645142  T  T  T
0.6666666666666643  0.3333333333333357  0.0000000000000000  T  T  T
0.6666666666666643  0.3333333333333357  0.3161413064221363  T  T  T

0.00000000E+00  0.00000000E+00  0.00000000E+00
0.00000000E+00  0.00000000E+00  0.00000000E+00
0.00000000E+00  0.00000000E+00  0.00000000E+00
0.00000000E+00  0.00000000E+00  0.00000000E+00
0.00000000E+00  0.00000000E+00  0.00000000E+00
0.00000000E+00  0.00000000E+00  0.00000000E+00
0.00000000E+00  0.00000000E+00  0.00000000E+00
0.00000000E+00  0.00000000E+00  0.00000000E+00
0.00000000E+00  0.00000000E+00  0.00000000E+00
