Ti4N3  (n=3)
1.00000000000000
2.8820993468954943  -0.0000000000000001  0.0000000000000000
-1.4410496734477476  2.4959712506962610  0.0000000000000000
0.0000000000000000  0.0000000000000000  35.6598395783424635
Ti  N  F
4  3  2
Selective  dynamics
Direct
-0.0000000000000000  0.0000000000000000  0.0365902747461582  T  T  T
-0.0000000000000000  0.0000000000000000  0.1116007755812936  T  T  T
-0.0000000000000000  0.0000000000000000  0.1873304508176208  T  T  T
-0.0000000000000000  0.0000000000000000  0.2623409516527563  T  T  T
0.3333333333333357  0.6666666666666643  0.0717214334935257  T  T  T
0.3333333333333357  0.6666666666666643  0.1494656131994572  T  T  T
0.3333333333333357  0.6666666666666643  0.2272097929053732  T  T  T
0.6666666666666643  0.3333333333333357  0.0000000000000000  T  T  T
0.6666666666666643  0.3333333333333357  0.2989312263989145  T  T  T

0.00000000E+00  0.00000000E+00  0.00000000E+00
0.00000000E+00  0.00000000E+00  0.00000000E+00
0.00000000E+00  0.00000000E+00  0.00000000E+00
0.00000000E+00  0.00000000E+00  0.00000000E+00
0.00000000E+00  0.00000000E+00  0.00000000E+00
0.00000000E+00  0.00000000E+00  0.00000000E+00
0.00000000E+00  0.00000000E+00  0.00000000E+00
0.00000000E+00  0.00000000E+00  0.00000000E+00
0.00000000E+00  0.00000000E+00  0.00000000E+00
