Ta4C3  (n=3)
1.00000000000000
3.0053203684509051  0.0000000000000000  0.0000000000000000
-1.5026601842254526  2.6026837859428649  0.0000000000000000
0.0000000000000000  0.0000000000000000  36.5508459552745677
Ta  C  F
4  3  2
Selective  dynamics
Direct
-0.0000000000000000  -0.0000000000000000  0.0402824064836600  T  T  T
-0.0000000000000000  -0.0000000000000000  0.1186872798406397  T  T  T
-0.0000000000000000  -0.0000000000000000  0.1973340229059165  T  T  T
0.0000000000000000  -0.0000000000000000  0.2757388962628962  T  T  T
0.3333333333333357  0.6666666666666643  0.0769296132429370  T  T  T
0.3333333333333357  0.6666666666666643  0.1580106513732781  T  T  T
0.3333333333333357  0.6666666666666643  0.2390916895036114  T  T  T
0.6666666666666643  0.3333333333333357  0.0000000000000000  T  T  T
0.6666666666666643  0.3333333333333357  0.3160213027465562  T  T  T

0.00000000E+00  0.00000000E+00  0.00000000E+00
0.00000000E+00  0.00000000E+00  0.00000000E+00
0.00000000E+00  0.00000000E+00  0.00000000E+00
0.00000000E+00  0.00000000E+00  0.00000000E+00
0.00000000E+00  0.00000000E+00  0.00000000E+00
0.00000000E+00  0.00000000E+00  0.00000000E+00
0.00000000E+00  0.00000000E+00  0.00000000E+00
0.00000000E+00  0.00000000E+00  0.00000000E+00
0.00000000E+00  0.00000000E+00  0.00000000E+00
