Zr4N3  (n=3)
1.00000000000000
3.0959205428407572  0.0000000000000000  0.0000000000000000
-1.5479602714203786  2.6811458385229452  0.0000000000000000
0.0000000000000000  0.0000000000000000  36.7044208288083667
Zr  N  F
4  3  2
Selective  dynamics
Direct
0.0000000000000000  -0.0000000000000000  0.0386378618371847  T  T  T
0.0000000000000000  -0.0000000000000000  0.1191909453422488  T  T  T
0.0000000000000000  -0.0000000000000000  0.1996921909262191  T  T  T
0.0000000000000000  -0.0000000000000000  0.2802452744312831  T  T  T
0.3333333333333357  0.6666666666666643  0.0781407041669802  T  T  T
0.3333333333333357  0.6666666666666643  0.1594415681342339  T  T  T
0.3333333333333357  0.6666666666666643  0.2407424321014875  T  T  T
0.6666666666666643  0.3333333333333357  0.0000000000000000  T  T  T
0.6666666666666643  0.3333333333333357  0.3188831362684755  T  T  T

0.00000000E+00  0.00000000E+00  0.00000000E+00
0.00000000E+00  0.00000000E+00  0.00000000E+00
0.00000000E+00  0.00000000E+00  0.00000000E+00
0.00000000E+00  0.00000000E+00  0.00000000E+00
0.00000000E+00  0.00000000E+00  0.00000000E+00
0.00000000E+00  0.00000000E+00  0.00000000E+00
0.00000000E+00  0.00000000E+00  0.00000000E+00
0.00000000E+00  0.00000000E+00  0.00000000E+00
0.00000000E+00  0.00000000E+00  0.00000000E+00
