Hf4N3  (n=3)
1.00000000000000
3.0365673656294736  -0.0000000000000002  0.0000000000000000
-1.5182836828147368  2.6297444791510793  0.0000000000000000
0.0000000000000000  0.0000000000000000  36.6212974600208909
Hf  N  F
4  3  2
Selective  dynamics
Direct
0.0000000000000000  -0.0000000000000000  0.0388595897721146  T  T  T
0.0000000000000000  -0.0000000000000000  0.1186357465750884  T  T  T
0.0000000000000000  -0.0000000000000000  0.1987013841671533  T  T  T
0.0000000000000000  -0.0000000000000000  0.2784775409701271  T  T  T
0.3333333333333357  0.6666666666666643  0.0779088595004801  T  T  T
0.3333333333333357  0.6666666666666643  0.1586685653711170  T  T  T
0.3333333333333357  0.6666666666666643  0.2394282712417537  T  T  T
0.6666666666666643  0.3333333333333357  0.0000000000000000  T  T  T
0.6666666666666643  0.3333333333333357  0.3173371307422340  T  T  T

0.00000000E+00  0.00000000E+00  0.00000000E+00
0.00000000E+00  0.00000000E+00  0.00000000E+00
0.00000000E+00  0.00000000E+00  0.00000000E+00
0.00000000E+00  0.00000000E+00  0.00000000E+00
0.00000000E+00  0.00000000E+00  0.00000000E+00
0.00000000E+00  0.00000000E+00  0.00000000E+00
0.00000000E+00  0.00000000E+00  0.00000000E+00
0.00000000E+00  0.00000000E+00  0.00000000E+00
0.00000000E+00  0.00000000E+00  0.00000000E+00
