Ti4C3  (n=3)
1.00000000000000
3.0279326489313259  0.0000000000000001  0.0000000000000000
-1.5139663244656629  2.6222665950375941  0.0000000000000000
0.0000000000000000  0.0000000000000000  35.3637540766578837
Ti  C  F
4  3  2
Selective  dynamics
Direct
0.0000000000000000  -0.0000000000000000  0.0351368647596374  T  T  T
0.0000000000000000  0.0000000000000000  0.1094607777256685  T  T  T
0.0000000000000000  0.0000000000000000  0.1836007013863174  T  T  T
0.0000000000000000  -0.0000000000000000  0.2579246143523485  T  T  T
0.3333333333333357  0.6666666666666643  0.0675564986511455  T  T  T
0.3333333333333357  0.6666666666666643  0.1465307395559930  T  T  T
0.3333333333333357  0.6666666666666643  0.2255049804608324  T  T  T
0.6666666666666643  0.3333333333333357  0.0000000000000000  T  T  T
0.6666666666666643  0.3333333333333357  0.2930614791119860  T  T  T

0.00000000E+00  0.00000000E+00  0.00000000E+00
0.00000000E+00  0.00000000E+00  0.00000000E+00
0.00000000E+00  0.00000000E+00  0.00000000E+00
0.00000000E+00  0.00000000E+00  0.00000000E+00
0.00000000E+00  0.00000000E+00  0.00000000E+00
0.00000000E+00  0.00000000E+00  0.00000000E+00
0.00000000E+00  0.00000000E+00  0.00000000E+00
0.00000000E+00  0.00000000E+00  0.00000000E+00
0.00000000E+00  0.00000000E+00  0.00000000E+00
