Ta4N3  (n=3)
1.00000000000000
2.8881823371278852  0.0000000000000000  0.0000000000000000
-1.4440911685639426  2.5012392748583996  0.0000000000000000
0.0000000000000000  0.0000000000000000  36.8734632653487182
Ta  N  F
4  3  2
Selective  dynamics
Direct
-0.0000000000000000  -0.0000000000000000  0.0412389617835196  T  T  T
-0.0000000000000000  -0.0000000000000000  0.1212899742799106  T  T  T
-0.0000000000000000  -0.0000000000000000  0.2007156691798492  T  T  T
-0.0000000000000000  -0.0000000000000000  0.2807666816762401  T  T  T
0.3333333333333357  0.6666666666666643  0.0819477271595303  T  T  T
0.3333333333333357  0.6666666666666643  0.1610028217298800  T  T  T
0.3333333333333357  0.6666666666666643  0.2400579163002294  T  T  T
0.6666666666666643  0.3333333333333357  0.0000000000000000  T  T  T
0.6666666666666643  0.3333333333333357  0.3220056434597676  T  T  T

0.00000000E+00  0.00000000E+00  0.00000000E+00
0.00000000E+00  0.00000000E+00  0.00000000E+00
0.00000000E+00  0.00000000E+00  0.00000000E+00
0.00000000E+00  0.00000000E+00  0.00000000E+00
0.00000000E+00  0.00000000E+00  0.00000000E+00
0.00000000E+00  0.00000000E+00  0.00000000E+00
0.00000000E+00  0.00000000E+00  0.00000000E+00
0.00000000E+00  0.00000000E+00  0.00000000E+00
0.00000000E+00  0.00000000E+00  0.00000000E+00
