Mo4C3  (n=3)
1.00000000000000
2.8849059559411732  0.0000000000000001  0.0000000000000000
-1.4424529779705866  2.4984018455073960  0.0000000000000000
0.0000000000000000  0.0000000000000000  36.4581632052663664
Mo  C  F
4  3  2
Selective  dynamics
Direct
0.0000000000000000  0.0000000000000000  0.0408829721202154  T  T  T
0.0000000000000000  0.0000000000000000  0.1179879231192142  T  T  T
0.0000000000000000  0.0000000000000000  0.1962945913551089  T  T  T
0.0000000000000000  0.0000000000000000  0.2733995423541077  T  T  T
0.3333333333333357  0.6666666666666643  0.0787997973866540  T  T  T
0.3333333333333357  0.6666666666666643  0.1571412572371577  T  T  T
0.3333333333333357  0.6666666666666643  0.2354827170876614  T  T  T
0.6666666666666643  0.3333333333333357  0.0000000000000000  T  T  T
0.6666666666666643  0.3333333333333357  0.3142825144743233  T  T  T

0.00000000E+00  0.00000000E+00  0.00000000E+00
0.00000000E+00  0.00000000E+00  0.00000000E+00
0.00000000E+00  0.00000000E+00  0.00000000E+00
0.00000000E+00  0.00000000E+00  0.00000000E+00
0.00000000E+00  0.00000000E+00  0.00000000E+00
0.00000000E+00  0.00000000E+00  0.00000000E+00
0.00000000E+00  0.00000000E+00  0.00000000E+00
0.00000000E+00  0.00000000E+00  0.00000000E+00
0.00000000E+00  0.00000000E+00  0.00000000E+00
