Mo4N3  (n=3)
1.00000000000000
2.8365310242507227  -0.0000000000000001  0.0000000000000000
-1.4182655121253613  2.4565079256629541  0.0000000000000000
0.0000000000000000  0.0000000000000000  36.5631837133612265
Mo  N  F
4  3  2
Selective  dynamics
Direct
0.0000000000000000  0.0000000000000000  0.0416889088438918  T  T  T
0.0000000000000000  0.0000000000000000  0.1185162322882685  T  T  T
0.0000000000000000  0.0000000000000000  0.1977358699359692  T  T  T
0.0000000000000000  0.0000000000000000  0.2745631933803461  T  T  T
0.3333333333333357  0.6666666666666643  0.0797568210805260  T  T  T
0.3333333333333357  0.6666666666666643  0.1581260511121151  T  T  T
0.3333333333333357  0.6666666666666643  0.2364952811436966  T  T  T
0.6666666666666643  0.3333333333333357  0.0000000000000000  T  T  T
0.6666666666666643  0.3333333333333357  0.3162521022242302  T  T  T

0.00000000E+00  0.00000000E+00  0.00000000E+00
0.00000000E+00  0.00000000E+00  0.00000000E+00
0.00000000E+00  0.00000000E+00  0.00000000E+00
0.00000000E+00  0.00000000E+00  0.00000000E+00
0.00000000E+00  0.00000000E+00  0.00000000E+00
0.00000000E+00  0.00000000E+00  0.00000000E+00
0.00000000E+00  0.00000000E+00  0.00000000E+00
0.00000000E+00  0.00000000E+00  0.00000000E+00
0.00000000E+00  0.00000000E+00  0.00000000E+00
