Sc4N3  (n=3)
1.00000000000000
3.1210495771386975  0.0000000000000002  0.0000000000000000
-1.5605247885693485  2.7029082204745292  0.0000000000000000
0.0000000000000000  0.0000000000000000  35.6732247245265128
Sc  N  F
4  3  2
Selective  dynamics
Direct
0.0000000000000000  0.0000000000000000  0.0340839331814145  T  T  T
0.0000000000000000  0.0000000000000000  0.1113773841507485  T  T  T
0.0000000000000000  0.0000000000000000  0.1878168941054676  T  T  T
0.0000000000000000  0.0000000000000000  0.2651103450748015  T  T  T
0.3333333333333357  0.6666666666666643  0.0671974748743444  T  T  T
0.3333333333333357  0.6666666666666643  0.1495971391281042  T  T  T
0.3333333333333357  0.6666666666666643  0.2319968033818638  T  T  T
0.6666666666666643  0.3333333333333357  0.0000000000000000  T  T  T
0.6666666666666643  0.3333333333333357  0.2991942782562161  T  T  T

0.00000000E+00  0.00000000E+00  0.00000000E+00
0.00000000E+00  0.00000000E+00  0.00000000E+00
0.00000000E+00  0.00000000E+00  0.00000000E+00
0.00000000E+00  0.00000000E+00  0.00000000E+00
0.00000000E+00  0.00000000E+00  0.00000000E+00
0.00000000E+00  0.00000000E+00  0.00000000E+00
0.00000000E+00  0.00000000E+00  0.00000000E+00
0.00000000E+00  0.00000000E+00  0.00000000E+00
0.00000000E+00  0.00000000E+00  0.00000000E+00
