Cr4N3  (n=3)
1.00000000000000
2.6579476185462751  0.0000000000000000  0.0000000000000000
-1.3289738092731376  2.3018501595904715  0.0000000000000000
0.0000000000000000  0.0000000000000000  35.4434571831530221
Cr  N  F
4  3  2
Selective  dynamics
Direct
-0.0000000000000000  -0.0000000000000000  0.0385201531984094  T  T  T
-0.0000000000000000  -0.0000000000000000  0.1105509102050065  T  T  T
-0.0000000000000000  -0.0000000000000000  0.1841002895689535  T  T  T
-0.0000000000000000  -0.0000000000000000  0.2561310465755508  T  T  T
0.3333333333333357  0.6666666666666643  0.0734414916870011  T  T  T
0.3333333333333357  0.6666666666666643  0.1473255998869800  T  T  T
0.3333333333333357  0.6666666666666643  0.2212097080869516  T  T  T
0.6666666666666643  0.3333333333333357  0.0000000000000000  T  T  T
0.6666666666666643  0.3333333333333357  0.2946511997739600  T  T  T

0.00000000E+00  0.00000000E+00  0.00000000E+00
0.00000000E+00  0.00000000E+00  0.00000000E+00
0.00000000E+00  0.00000000E+00  0.00000000E+00
0.00000000E+00  0.00000000E+00  0.00000000E+00
0.00000000E+00  0.00000000E+00  0.00000000E+00
0.00000000E+00  0.00000000E+00  0.00000000E+00
0.00000000E+00  0.00000000E+00  0.00000000E+00
0.00000000E+00  0.00000000E+00  0.00000000E+00
0.00000000E+00  0.00000000E+00  0.00000000E+00
