Nb4N3  (n=3)
1.00000000000000
2.9124052634424720  -0.0000000000000004  0.0000000000000000
-1.4562026317212360  2.5222169443489411  0.0000000000000000
0.0000000000000000  0.0000000000000000  36.8025224757382716
Nb  N  F
4  3  2
Selective  dynamics
Direct
0.0000000000000000  -0.0000000000000000  0.0406052786270987  T  T  T
0.0000000000000000  -0.0000000000000000  0.1205517877927082  T  T  T
0.0000000000000000  -0.0000000000000000  0.2001469491897629  T  T  T
0.0000000000000000  -0.0000000000000000  0.2800934583553724  T  T  T
0.3333333333333357  0.6666666666666643  0.0811736955353485  T  T  T
0.3333333333333357  0.6666666666666643  0.1603493684912317  T  T  T
0.3333333333333357  0.6666666666666643  0.2395250414471150  T  T  T
0.6666666666666643  0.3333333333333357  0.0000000000000000  T  T  T
0.6666666666666643  0.3333333333333357  0.3206987369824711  T  T  T

0.00000000E+00  0.00000000E+00  0.00000000E+00
0.00000000E+00  0.00000000E+00  0.00000000E+00
0.00000000E+00  0.00000000E+00  0.00000000E+00
0.00000000E+00  0.00000000E+00  0.00000000E+00
0.00000000E+00  0.00000000E+00  0.00000000E+00
0.00000000E+00  0.00000000E+00  0.00000000E+00
0.00000000E+00  0.00000000E+00  0.00000000E+00
0.00000000E+00  0.00000000E+00  0.00000000E+00
0.00000000E+00  0.00000000E+00  0.00000000E+00
