Cr4C3  (n=3)
1.00000000000000
2.6847792357902689  0.0000000000000000  0.0000000000000000
-1.3423896178951344  2.3250870217358663  0.0000000000000000
0.0000000000000000  0.0000000000000000  35.5059811149182423
Cr  C  F
4  3  2
Selective  dynamics
Direct
-0.0000000000000000  -0.0000000000000000  0.0378669860901041  T  T  T
-0.0000000000000000  -0.0000000000000000  0.1108683588623323  T  T  T
-0.0000000000000000  -0.0000000000000000  0.1850249184115491  T  T  T
-0.0000000000000000  -0.0000000000000000  0.2580262911837927  T  T  T
0.3333333333333357  0.6666666666666643  0.0735522272096678  T  T  T
0.3333333333333357  0.6666666666666643  0.1479466386369485  T  T  T
0.3333333333333357  0.6666666666666643  0.2223410500642214  T  T  T
0.6666666666666643  0.3333333333333357  0.0000000000000000  T  T  T
0.6666666666666643  0.3333333333333357  0.2958932772738967  T  T  T

0.00000000E+00  0.00000000E+00  0.00000000E+00
0.00000000E+00  0.00000000E+00  0.00000000E+00
0.00000000E+00  0.00000000E+00  0.00000000E+00
0.00000000E+00  0.00000000E+00  0.00000000E+00
0.00000000E+00  0.00000000E+00  0.00000000E+00
0.00000000E+00  0.00000000E+00  0.00000000E+00
0.00000000E+00  0.00000000E+00  0.00000000E+00
0.00000000E+00  0.00000000E+00  0.00000000E+00
0.00000000E+00  0.00000000E+00  0.00000000E+00
