Hf4C3  (n=3)
1.00000000000000
3.2385295291131970  0.0000000000000001  0.0000000000000000
-1.6192647645565985  2.8046488440267519  0.0000000000000000
0.0000000000000000  0.0000000000000000  36.0808061198415757
Hf  C  F
4  3  2
Selective  dynamics
Direct
-0.0000000000000000  -0.0000000000000000  0.0366459694464119  T  T  T
-0.0000000000000000  -0.0000000000000000  0.1147979128036548  T  T  T
-0.0000000000000000  -0.0000000000000000  0.1923129118003443  T  T  T
-0.0000000000000000  -0.0000000000000000  0.2704648551575951  T  T  T
0.3333333333333357  0.6666666666666643  0.0691287073687732  T  T  T
0.3333333333333357  0.6666666666666643  0.1535554123019996  T  T  T
0.3333333333333357  0.6666666666666643  0.2379821172352181  T  T  T
0.6666666666666643  0.3333333333333357  0.0000000000000000  T  T  T
0.6666666666666643  0.3333333333333357  0.3071108246039994  T  T  T

0.00000000E+00  0.00000000E+00  0.00000000E+00
0.00000000E+00  0.00000000E+00  0.00000000E+00
0.00000000E+00  0.00000000E+00  0.00000000E+00
0.00000000E+00  0.00000000E+00  0.00000000E+00
0.00000000E+00  0.00000000E+00  0.00000000E+00
0.00000000E+00  0.00000000E+00  0.00000000E+00
0.00000000E+00  0.00000000E+00  0.00000000E+00
0.00000000E+00  0.00000000E+00  0.00000000E+00
0.00000000E+00  0.00000000E+00  0.00000000E+00
