Sc4C3  (n=3)
1.00000000000000
3.2450581478285980  0.0000000000000000  0.0000000000000000
-1.6225290739142990  2.8103027931190621  0.0000000000000000
0.0000000000000000  0.0000000000000000  35.8220952170768143
Sc  C  F
4  3  2
Selective  dynamics
Direct
-0.0000000000000000  0.0000000000000000  0.0319132080372300  T  T  T
-0.0000000000000000  0.0000000000000000  0.1101560804517802  T  T  T
-0.0000000000000000  0.0000000000000000  0.1919506263585403  T  T  T
-0.0000000000000000  0.0000000000000000  0.2701934987730903  T  T  T
0.3333333333333357  0.6666666666666643  0.0688662662770707  T  T  T
0.3333333333333357  0.6666666666666643  0.1510533534051562  T  T  T
0.3333333333333357  0.6666666666666643  0.2332404405332418  T  T  T
0.6666666666666643  0.3333333333333357  0.0000000000000000  T  T  T
0.6666666666666643  0.3333333333333357  0.3021067068103207  T  T  T

0.00000000E+00  0.00000000E+00  0.00000000E+00
0.00000000E+00  0.00000000E+00  0.00000000E+00
0.00000000E+00  0.00000000E+00  0.00000000E+00
0.00000000E+00  0.00000000E+00  0.00000000E+00
0.00000000E+00  0.00000000E+00  0.00000000E+00
0.00000000E+00  0.00000000E+00  0.00000000E+00
0.00000000E+00  0.00000000E+00  0.00000000E+00
0.00000000E+00  0.00000000E+00  0.00000000E+00
0.00000000E+00  0.00000000E+00  0.00000000E+00
