Nb3N2  (n=2)
1.00000000000000
3.1204956609403758  0.0000000000000000  0.0000000000000000
-1.5602478304701877  2.7024285148475213  0.0000000000000000
-0.0000000000000007  0.0000000000000000  35.1655829722549598
Nb  N  Te
3  2  2
Selective  dynamics
Direct
-0.0000000000000000  -0.0000000000000000  0.0621850349817668  T  T  T
-0.0000000000000000  -0.0000000000000000  0.1437062774789147  T  T  T
-0.0000000000000000  -0.0000000000000000  0.2250464107073272  T  T  T
0.3333333333333357  0.6666666666666643  0.1035604971152882  T  T  T
0.3333333333333357  0.6666666666666643  0.1832273923733492  T  T  T
0.3333333333333357  0.6666666666666643  0.0000000000000000  T  T  T
0.6666666666666643  0.3333333333333357  0.2890776183143453  T  T  T

0.00000000E+00  0.00000000E+00  0.00000000E+00
0.00000000E+00  0.00000000E+00  0.00000000E+00
0.00000000E+00  0.00000000E+00  0.00000000E+00
0.00000000E+00  0.00000000E+00  0.00000000E+00
0.00000000E+00  0.00000000E+00  0.00000000E+00
0.00000000E+00  0.00000000E+00  0.00000000E+00
0.00000000E+00  0.00000000E+00  0.00000000E+00
