Ta3C2  (n=2)
1.00000000000000
3.1551803623116927  0.0000000000000000  0.0000000000000000
-1.5775901811558464  2.7324663474908997  -0.0000000000000001
-0.0000000000000003  0.0000000000000000  35.2125526623360798
Ta  C  Te
3  2  2
Selective  dynamics
Direct
0.0000000000000000  -0.0000000000000000  0.0651167281520116  T  T  T
0.0000000000000000  -0.0000000000000000  0.1448774371335586  T  T  T
0.0000000000000000  -0.0000000000000000  0.2252373553770586  T  T  T
0.3333333333333357  0.6666666666666643  0.1031826278566838  T  T  T
0.3333333333333357  0.6666666666666643  0.1867993716459672  T  T  T
0.3333333333333357  0.6666666666666643  0.0000000000000000  T  T  T
0.6666666666666643  0.3333333333333357  0.2900259109377092  T  T  T

0.00000000E+00  0.00000000E+00  0.00000000E+00
0.00000000E+00  0.00000000E+00  0.00000000E+00
0.00000000E+00  0.00000000E+00  0.00000000E+00
0.00000000E+00  0.00000000E+00  0.00000000E+00
0.00000000E+00  0.00000000E+00  0.00000000E+00
0.00000000E+00  0.00000000E+00  0.00000000E+00
0.00000000E+00  0.00000000E+00  0.00000000E+00
