Ta3N2  (n=2)
1.00000000000000
3.1038201499944051  -0.0000000000000001  0.0000000000000000
-1.5519100749972026  2.6879870989413837  -0.0000000000000001
0.0000000000000002  -0.0000000000000012  35.1341491575263092
Ta  N  Te
3  2  2
Selective  dynamics
Direct
-0.0000000000000000  -0.0000000000000000  0.0619697056289620  T  T  T
-0.0000000000000000  -0.0000000000000000  0.1435079359150866  T  T  T
-0.0000000000000000  -0.0000000000000000  0.2249389982612869  T  T  T
0.3333333333333357  0.6666666666666643  0.1036221034206705  T  T  T
0.3333333333333357  0.6666666666666643  0.1830432535618265  T  T  T
0.3333333333333357  0.6666666666666643  0.0000000000000000  T  T  T
0.6666666666666643  0.3333333333333357  0.2884415703960603  T  T  T

0.00000000E+00  0.00000000E+00  0.00000000E+00
0.00000000E+00  0.00000000E+00  0.00000000E+00
0.00000000E+00  0.00000000E+00  0.00000000E+00
0.00000000E+00  0.00000000E+00  0.00000000E+00
0.00000000E+00  0.00000000E+00  0.00000000E+00
0.00000000E+00  0.00000000E+00  0.00000000E+00
0.00000000E+00  0.00000000E+00  0.00000000E+00
