Cr3C2  (n=2)
1.00000000000000
3.0250311734471773  -0.0000000000000001  0.0000000000000000
-1.5125155867235887  2.6197538433947725  0.0000000000000001
0.0000000000000004  -0.0000000000000002  33.9637056065863590
Cr  C  Te
3  2  2
Selective  dynamics
Direct
-0.0000000000000000  -0.0000000000000000  0.0569096362594843  T  T  T
-0.0000000000000000  -0.0000000000000000  0.1295713273229922  T  T  T
-0.0000000000000000  -0.0000000000000000  0.2010535593344573  T  T  T
0.3333333333333357  0.6666666666666643  0.0917920902423413  T  T  T
0.3333333333333357  0.6666666666666643  0.1672535801452418  T  T  T
0.3333333333333357  0.6666666666666643  0.0000000000000000  T  T  T
0.6666666666666643  0.3333333333333357  0.2639201302241910  T  T  T

0.00000000E+00  0.00000000E+00  0.00000000E+00
0.00000000E+00  0.00000000E+00  0.00000000E+00
0.00000000E+00  0.00000000E+00  0.00000000E+00
0.00000000E+00  0.00000000E+00  0.00000000E+00
0.00000000E+00  0.00000000E+00  0.00000000E+00
0.00000000E+00  0.00000000E+00  0.00000000E+00
0.00000000E+00  0.00000000E+00  0.00000000E+00
