Hf3C2  (n=2)
1.00000000000000
3.3529988631267673  0.0000000000000000  0.0000000000000000
-1.6764994315633837  2.9037821945577487  0.0000000000000001
0.0000000000000000  0.0000000000000007  35.1074184841142980
Hf  C  Te
3  2  2
Selective  dynamics
Direct
-0.0000000000000000  0.0000000000000000  0.0648258968936534  T  T  T
0.0000000000000000  0.0000000000000000  0.1449942637580668  T  T  T
0.0000000000000000  0.0000000000000000  0.2247392600821209  T  T  T
0.3333333333333357  0.6666666666666643  0.1016873588131278  T  T  T
0.3333333333333357  0.6666666666666643  0.1888015728962466  T  T  T
0.3333333333333357  0.6666666666666643  0.0000000000000000  T  T  T
0.6666666666666643  0.3333333333333357  0.2878997921390258  T  T  T

0.00000000E+00  0.00000000E+00  0.00000000E+00
0.00000000E+00  0.00000000E+00  0.00000000E+00
0.00000000E+00  0.00000000E+00  0.00000000E+00
0.00000000E+00  0.00000000E+00  0.00000000E+00
0.00000000E+00  0.00000000E+00  0.00000000E+00
0.00000000E+00  0.00000000E+00  0.00000000E+00
0.00000000E+00  0.00000000E+00  0.00000000E+00
