Mo3N2  (n=2)
1.00000000000000
3.0870578385265444  -0.0000000000000001  0.0000000000000000
-1.5435289192632722  2.6734705112331874  0.0000000000000000
-0.0000000000000005  0.0000000000000010  34.6372923593090576
Mo  N  Te
3  2  2
Selective  dynamics
Direct
-0.0000000000000000  -0.0000000000000000  0.0597541216775138  T  T  T
-0.0000000000000000  -0.0000000000000000  0.1386559697621896  T  T  T
-0.0000000000000000  -0.0000000000000000  0.2175830948963264  T  T  T
0.3333333333333357  0.6666666666666643  0.0986711884571489  T  T  T
0.3333333333333357  0.6666666666666643  0.1765800984921140  T  T  T
0.3333333333333357  0.6666666666666643  0.0000000000000000  T  T  T
0.6666666666666643  0.3333333333333357  0.2782345761711641  T  T  T

0.00000000E+00  0.00000000E+00  0.00000000E+00
0.00000000E+00  0.00000000E+00  0.00000000E+00
0.00000000E+00  0.00000000E+00  0.00000000E+00
0.00000000E+00  0.00000000E+00  0.00000000E+00
0.00000000E+00  0.00000000E+00  0.00000000E+00
0.00000000E+00  0.00000000E+00  0.00000000E+00
0.00000000E+00  0.00000000E+00  0.00000000E+00
