Sc3N2  (n=2)
1.00000000000000
3.2688007549407505  0.0000000000000000  0.0000000000000000
-1.6344003774703753  2.8308644939783054  0.0000000000000000
0.0000000000000000  0.0000000000000001  35.0392753384719384
Sc  N  Te
3  2  2
Selective  dynamics
Direct
0.0000000000000000  0.0000000000000000  0.0667264780865066  T  T  T
0.0000000000000000  0.0000000000000000  0.1440454393673651  T  T  T
0.0000000000000000  0.0000000000000000  0.2211061898465672  T  T  T
0.3333333333333357  0.6666666666666643  0.1025755518051717  T  T  T
0.3333333333333357  0.6666666666666643  0.1867574276757618  T  T  T
0.3333333333333357  0.6666666666666643  0.0000000000000000  T  T  T
0.6666666666666643  0.3333333333333357  0.2865149247949531  T  T  T

0.00000000E+00  0.00000000E+00  0.00000000E+00
0.00000000E+00  0.00000000E+00  0.00000000E+00
0.00000000E+00  0.00000000E+00  0.00000000E+00
0.00000000E+00  0.00000000E+00  0.00000000E+00
0.00000000E+00  0.00000000E+00  0.00000000E+00
0.00000000E+00  0.00000000E+00  0.00000000E+00
0.00000000E+00  0.00000000E+00  0.00000000E+00
