Cr3N2  (n=2)
1.00000000000000
3.0004328631682933  0.0000000000000000  0.0000000000000000
-1.5002164315841466  2.5984510818421791  0.0000000000000000
0.0000000000000000  0.0000000000000000  34.0496976780306468
Cr  N  Te
3  2  2
Selective  dynamics
Direct
0.0000000000000000  0.0000000000000000  0.0591622971613710  T  T  T
0.0000000000000000  0.0000000000000000  0.1298409888269348  T  T  T
0.0000000000000000  0.0000000000000000  0.2012021062673719  T  T  T
0.3333333333333357  0.6666666666666643  0.0927670303317360  T  T  T
0.3333333333333357  0.6666666666666643  0.1706004085170185  T  T  T
0.3333333333333357  0.6666666666666643  0.0000000000000000  T  T  T
0.6666666666666643  0.3333333333333357  0.2657790904225750  T  T  T

0.00000000E+00  0.00000000E+00  0.00000000E+00
0.00000000E+00  0.00000000E+00  0.00000000E+00
0.00000000E+00  0.00000000E+00  0.00000000E+00
0.00000000E+00  0.00000000E+00  0.00000000E+00
0.00000000E+00  0.00000000E+00  0.00000000E+00
0.00000000E+00  0.00000000E+00  0.00000000E+00
0.00000000E+00  0.00000000E+00  0.00000000E+00
