Hf3N2  (n=2)
1.00000000000000
3.2645969818331366  0.0000000000000001  0.0000000000000000
-1.6322984909165685  2.8272239195350317  0.0000000000000000
-0.0000000000000003  0.0000000000000008  35.1205047300883848
Hf  N  Te
3  2  2
Selective  dynamics
Direct
0.0000000000000000  -0.0000000000000000  0.0637931792225260  T  T  T
0.0000000000000000  -0.0000000000000000  0.1450210206793682  T  T  T
0.0000000000000000  -0.0000000000000000  0.2257390653941123  T  T  T
0.3333333333333357  0.6666666666666643  0.1039783334275793  T  T  T
0.3333333333333357  0.6666666666666643  0.1876091085390095  T  T  T
0.3333333333333357  0.6666666666666643  0.0000000000000000  T  T  T
0.6666666666666643  0.3333333333333357  0.2881651276901486  T  T  T

0.00000000E+00  0.00000000E+00  0.00000000E+00
0.00000000E+00  0.00000000E+00  0.00000000E+00
0.00000000E+00  0.00000000E+00  0.00000000E+00
0.00000000E+00  0.00000000E+00  0.00000000E+00
0.00000000E+00  0.00000000E+00  0.00000000E+00
0.00000000E+00  0.00000000E+00  0.00000000E+00
0.00000000E+00  0.00000000E+00  0.00000000E+00
