Zr3N2  (n=2)
1.00000000000000
3.2904689706139618  0.0000000000000000  0.0000000000000000
-1.6452344853069809  2.8496297193134033  0.0000000000000000
0.0000000000000000  0.0000000000000004  35.3080772390261899
Zr  N  Te
3  2  2
Selective  dynamics
Direct
0.0000000000000000  0.0000000000000000  0.0646844977952232  T  T  T
0.0000000000000000  0.0000000000000000  0.1465764614027999  T  T  T
0.0000000000000000  0.0000000000000000  0.2281766456575067  T  T  T
0.3333333333333357  0.6666666666666643  0.1049973895607108  T  T  T
0.3333333333333357  0.6666666666666643  0.1889618103562514  T  T  T
0.3333333333333357  0.6666666666666643  0.0000000000000000  T  T  T
0.6666666666666643  0.3333333333333357  0.2919467171560569  T  T  T

0.00000000E+00  0.00000000E+00  0.00000000E+00
0.00000000E+00  0.00000000E+00  0.00000000E+00
0.00000000E+00  0.00000000E+00  0.00000000E+00
0.00000000E+00  0.00000000E+00  0.00000000E+00
0.00000000E+00  0.00000000E+00  0.00000000E+00
0.00000000E+00  0.00000000E+00  0.00000000E+00
0.00000000E+00  0.00000000E+00  0.00000000E+00
