Zr3C2  (n=2)
1.00000000000000
3.3857094788371476  0.0000000000000000  0.0000000000000000
-1.6928547394185738  2.9321104188800544  0.0000000000000000
-0.0000000000000004  0.0000000000000002  35.2641235574230762
Zr  C  Te
3  2  2
Selective  dynamics
Direct
-0.0000000000000000  -0.0000000000000000  0.0658722817982512  T  T  T
-0.0000000000000000  -0.0000000000000000  0.1468161146236922  T  T  T
-0.0000000000000000  -0.0000000000000000  0.2273118820108033  T  T  T
0.3333333333333357  0.6666666666666643  0.1029569423233647  T  T  T
0.3333333333333357  0.6666666666666643  0.1910173622694155  T  T  T
0.3333333333333357  0.6666666666666643  0.0000000000000000  T  T  T
0.6666666666666643  0.3333333333333357  0.2910641899467393  T  T  T

0.00000000E+00  0.00000000E+00  0.00000000E+00
0.00000000E+00  0.00000000E+00  0.00000000E+00
0.00000000E+00  0.00000000E+00  0.00000000E+00
0.00000000E+00  0.00000000E+00  0.00000000E+00
0.00000000E+00  0.00000000E+00  0.00000000E+00
0.00000000E+00  0.00000000E+00  0.00000000E+00
0.00000000E+00  0.00000000E+00  0.00000000E+00
