Ti3N2  (n=2)
1.00000000000000
3.1213709673632790  0.0000000000000000  0.0000000000000000
-1.5606854836816395  2.7031865524482059  0.0000000000000000
0.0000000000000002  0.0000000000000004  34.5489350310064509
Ti  N  Te
3  2  2
Selective  dynamics
Direct
-0.0000000000000000  -0.0000000000000000  0.0640580175513239  T  T  T
-0.0000000000000000  -0.0000000000000000  0.1396160813486142  T  T  T
-0.0000000000000000  -0.0000000000000000  0.2144906758797603  T  T  T
0.3333333333333357  0.6666666666666643  0.1000181398384353  T  T  T
0.3333333333333357  0.6666666666666643  0.1799575127717771  T  T  T
0.3333333333333357  0.6666666666666643  0.0000000000000000  T  T  T
0.6666666666666643  0.3333333333333357  0.2763886939622486  T  T  T

0.00000000E+00  0.00000000E+00  0.00000000E+00
0.00000000E+00  0.00000000E+00  0.00000000E+00
0.00000000E+00  0.00000000E+00  0.00000000E+00
0.00000000E+00  0.00000000E+00  0.00000000E+00
0.00000000E+00  0.00000000E+00  0.00000000E+00
0.00000000E+00  0.00000000E+00  0.00000000E+00
0.00000000E+00  0.00000000E+00  0.00000000E+00
