Ti3C2  (n=2)
1.00000000000000
3.1780569198736321  0.0000000000000000  0.0000000000000000
-1.5890284599368161  2.7522780273701808  0.0000000000000000
0.0000000000000000  0.0000000000000000  34.7041370157988638
Ti  C  Te
3  2  2
Selective  dynamics
Direct
0.0000000000000000  -0.0000000000000000  0.0681279428965944  T  T  T
0.0000000000000000  0.0000000000000000  0.1421696291066449  T  T  T
0.0000000000000000  0.0000000000000000  0.2155832974720677  T  T  T
0.3333333333333357  0.6666666666666643  0.1008828292335461  T  T  T
0.3333333333333357  0.6666666666666643  0.1831331103165636  T  T  T
0.3333333333333357  0.6666666666666643  0.0000000000000000  T  T  T
0.6666666666666643  0.3333333333333357  0.2796247897298558  T  T  T

0.00000000E+00  0.00000000E+00  0.00000000E+00
0.00000000E+00  0.00000000E+00  0.00000000E+00
0.00000000E+00  0.00000000E+00  0.00000000E+00
0.00000000E+00  0.00000000E+00  0.00000000E+00
0.00000000E+00  0.00000000E+00  0.00000000E+00
0.00000000E+00  0.00000000E+00  0.00000000E+00
0.00000000E+00  0.00000000E+00  0.00000000E+00
