Nb3C2  (n=2)
1.00000000000000
3.1619509524260936  0.0000000000000000  -0.0000000000000000
-1.5809754762130468  2.7383298504786837  -0.0000000000000000
0.0000000000000002  0.0000000000000008  35.2979723330330089
Nb  C  Te
3  2  2
Selective  dynamics
Direct
0.0000000000000000  0.0000000000000000  0.0654301025763934  T  T  T
0.0000000000000000  0.0000000000000000  0.1453208564169255  T  T  T
-0.0000000000000000  -0.0000000000000000  0.2257281346601256  T  T  T
0.3333333333333357  0.6666666666666643  0.1033806222524174  T  T  T
0.3333333333333357  0.6666666666666643  0.1871664392288117  T  T  T
0.3333333333333357  0.6666666666666643  0.0000000000000000  T  T  T
0.6666666666666643  0.3333333333333357  0.2917440196244877  T  T  T

0.00000000E+00  0.00000000E+00  0.00000000E+00
0.00000000E+00  0.00000000E+00  0.00000000E+00
0.00000000E+00  0.00000000E+00  0.00000000E+00
0.00000000E+00  0.00000000E+00  0.00000000E+00
0.00000000E+00  0.00000000E+00  0.00000000E+00
0.00000000E+00  0.00000000E+00  0.00000000E+00
0.00000000E+00  0.00000000E+00  0.00000000E+00
