Mo3C2  (n=2)
1.00000000000000
3.1185826732231159  -0.0000000000000000  0.0000000000000000
-1.5592913366115579  2.7007718189990748  -0.0000000000000000
-0.0000000000000000  -0.0000000000000001  34.6065042615045968
Mo  C  Te
3  2  2
Selective  dynamics
Direct
0.0000000000000000  0.0000000000000000  0.0584181759908618  T  T  T
-0.0000000000000000  -0.0000000000000000  0.1378994191190019  T  T  T
-0.0000000000000000  -0.0000000000000000  0.2171663472951275  T  T  T
0.3333333333333357  0.6666666666666643  0.0974045566559484  T  T  T
0.3333333333333357  0.6666666666666643  0.1773349905830639  T  T  T
0.3333333333333357  0.6666666666666643  0.0000000000000000  T  T  T
0.6666666666666643  0.3333333333333357  0.2775924487753197  T  T  T

0.00000000E+00  0.00000000E+00  0.00000000E+00
0.00000000E+00  0.00000000E+00  0.00000000E+00
0.00000000E+00  0.00000000E+00  0.00000000E+00
0.00000000E+00  0.00000000E+00  0.00000000E+00
0.00000000E+00  0.00000000E+00  0.00000000E+00
0.00000000E+00  0.00000000E+00  0.00000000E+00
0.00000000E+00  0.00000000E+00  0.00000000E+00
