Sc3C2  (n=2)
1.00000000000000
3.3027647450199691  0.0000000000000000  0.0000000000000000
-1.6513823725099845  2.8602781721286319  0.0000000000000000
0.0000000000000000  0.0000000000000000  35.6265290364371339
Sc  C  Te
3  2  2
Selective  dynamics
Direct
0.0000000000000000  0.0000000000000000  0.0721140901699263  T  T  T
0.0000000000000000  0.0000000000000000  0.1502263861869204  T  T  T
0.0000000000000000  0.0000000000000000  0.2283014246191339  T  T  T
0.3333333333333357  0.6666666666666643  0.1062678210629339  T  T  T
0.3333333333333357  0.6666666666666643  0.1945708326600621  T  T  T
0.3333333333333357  0.6666666666666643  0.0000000000000000  T  T  T
0.6666666666666643  0.3333333333333357  0.2982757322659422  T  T  T

0.00000000E+00  0.00000000E+00  0.00000000E+00
0.00000000E+00  0.00000000E+00  0.00000000E+00
0.00000000E+00  0.00000000E+00  0.00000000E+00
0.00000000E+00  0.00000000E+00  0.00000000E+00
0.00000000E+00  0.00000000E+00  0.00000000E+00
0.00000000E+00  0.00000000E+00  0.00000000E+00
0.00000000E+00  0.00000000E+00  0.00000000E+00
