Hf2N  (n=1)
1.00000000000000
3.0521502163469223  -0.0000000000000002  0.0000000000000000
-1.5260751081734611  2.6432396235886042  0.0000000000000000
0.0000000000000001  0.0000000000000000  30.5611478332156850
Hf  N  F
2  1  2
Selective  dynamics
Direct
-0.0000000000000000  0.0000000000000000  0.0469986241419588  T  T  T
0.6666666666666643  0.3333333333333357  0.1345331509847777  T  T  T
0.3333333333333357  0.6666666666666643  0.0890883126266189  T  T  T
0.3333333333333357  0.6666666666666643  0.0000000000000000  T  T  T
-0.0000000000000000  0.0000000000000000  0.1819678980503310  T  T  T

0.00000000E+00  0.00000000E+00  0.00000000E+00
0.00000000E+00  0.00000000E+00  0.00000000E+00
0.00000000E+00  0.00000000E+00  0.00000000E+00
0.00000000E+00  0.00000000E+00  0.00000000E+00
0.00000000E+00  0.00000000E+00  0.00000000E+00
