Mo2N  (n=1)
1.00000000000000
2.7675339490306654  0.0000000000000000  0.0000000000000002
-1.3837669745153323  2.3967547057515004  -0.0000000000000003
0.0000000000000010  -0.0000000000000027  31.0628299764548359
Mo  N  F
2  1  2
Selective  dynamics
Direct
0.0000000000000000  -0.0000000000000000  0.0514870457971618  T  T  T
0.6666666666666643  0.3333333333333357  0.1460893823225029  T  T  T
0.3333333333333357  0.6666666666666643  0.0971437708664434  T  T  T
0.3333333333333357  0.6666666666666643  0.0000000000000000  T  T  T
-0.0000000000000000  -0.0000000000000000  0.1951795757518028  T  T  T

0.00000000E+00  0.00000000E+00  0.00000000E+00
0.00000000E+00  0.00000000E+00  0.00000000E+00
0.00000000E+00  0.00000000E+00  0.00000000E+00
0.00000000E+00  0.00000000E+00  0.00000000E+00
0.00000000E+00  0.00000000E+00  0.00000000E+00
