Zr2C  (n=1)
1.00000000000000
3.2387634573718338  -0.0000000000000007  0.0000000000000003
-1.6193817286859171  2.8048514310084660  0.0000000000000000
0.0000000000000007  -0.0000000000000020  30.3087471884425206
Zr  C  F
2  1  2
Selective  dynamics
Direct
0.0000000000000000  -0.0000000000000000  0.0457495871065568  T  T  T
0.6666666666666643  0.3333333333333357  0.1301192246762829  T  T  T
0.3333333333333357  0.6666666666666643  0.0903397840273140  T  T  T
0.3333333333333357  0.6666666666666643  0.0000000000000000  T  T  T
0.0000000000000000  0.0000000000000000  0.1751556128478606  T  T  T

0.00000000E+00  0.00000000E+00  0.00000000E+00
0.00000000E+00  0.00000000E+00  0.00000000E+00
0.00000000E+00  0.00000000E+00  0.00000000E+00
0.00000000E+00  0.00000000E+00  0.00000000E+00
0.00000000E+00  0.00000000E+00  0.00000000E+00
