Nb2C  (n=1)
1.00000000000000
3.0446258181420442  0.0000000000000000  0.0000000000000000
-1.5223129090710226  2.6367233035952693  0.0000000000000000
0.0000000000000000  -0.0000000000000003  30.4661231931384471
Nb  C  F
2  1  2
Selective  dynamics
Direct
0.0000000000000000  -0.0000000000000000  0.0490079213663531  T  T  T
0.6666666666666643  0.3333333333333357  0.1319216269505483  T  T  T
0.3333333333333357  0.6666666666666643  0.0886737070795824  T  T  T
0.3333333333333357  0.6666666666666643  0.0000000000000000  T  T  T
0.0000000000000000  -0.0000000000000000  0.1794164343945646  T  T  T

0.00000000E+00  0.00000000E+00  0.00000000E+00
0.00000000E+00  0.00000000E+00  0.00000000E+00
0.00000000E+00  0.00000000E+00  0.00000000E+00
0.00000000E+00  0.00000000E+00  0.00000000E+00
0.00000000E+00  0.00000000E+00  0.00000000E+00
