Ta2N  (n=1)
1.00000000000000
2.8828736055034603  0.0000000000000000  0.0000000000000000
-1.4414368027517301  2.4966417782942689  0.0000000000000000
0.0000000000000001  0.0000000000000001  30.8783244154876684
Ta  N  F
2  1  2
Selective  dynamics
Direct
0.0000000000000000  0.0000000000000000  0.0479912718360968  T  T  T
0.6666666666666643  0.3333333333333357  0.1408658915672633  T  T  T
0.3333333333333357  0.6666666666666643  0.0921303228482623  T  T  T
0.3333333333333357  0.6666666666666643  0.0000000000000000  T  T  T
0.0000000000000000  -0.0000000000000000  0.1903705763431668  T  T  T

0.00000000E+00  0.00000000E+00  0.00000000E+00
0.00000000E+00  0.00000000E+00  0.00000000E+00
0.00000000E+00  0.00000000E+00  0.00000000E+00
0.00000000E+00  0.00000000E+00  0.00000000E+00
0.00000000E+00  0.00000000E+00  0.00000000E+00
