Nb2N  (n=1)
1.00000000000000
2.9085137628626314  0.0000000000000000  0.0000000000000000
-1.4542568814313159  2.5188468059217959  0.0000000000000000
0.0000000000000004  -0.0000000000000003  30.8202418034454126
Nb  N  F
2  1  2
Selective  dynamics
Direct
-0.0000000000000000  0.0000000000000000  0.0475466055654205  T  T  T
0.6666666666666643  0.3333333333333357  0.1399992999558922  T  T  T
0.3333333333333357  0.6666666666666643  0.0915781323725963  T  T  T
0.3333333333333357  0.6666666666666643  0.0000000000000000  T  T  T
0.0000000000000000  0.0000000000000000  0.1888447806660220  T  T  T

0.00000000E+00  0.00000000E+00  0.00000000E+00
0.00000000E+00  0.00000000E+00  0.00000000E+00
0.00000000E+00  0.00000000E+00  0.00000000E+00
0.00000000E+00  0.00000000E+00  0.00000000E+00
0.00000000E+00  0.00000000E+00  0.00000000E+00
