Zr2N  (n=1)
1.00000000000000
3.1259448306565032  0.0000000000000003  -0.0000000000000001
-1.5629724153282514  2.7071476342326206  0.0000000000000002
-0.0000000000000001  0.0000000000000004  30.5422444609588091
Zr  N  F
2  1  2
Selective  dynamics
Direct
0.0000000000000000  0.0000000000000000  0.0470933064806363  T  T  T
0.6666666666666643  0.3333333333333357  0.1345703593027194  T  T  T
0.3333333333333357  0.6666666666666643  0.0893521995950664  T  T  T
0.3333333333333357  0.6666666666666643  0.0000000000000000  T  T  T
-0.0000000000000000  0.0000000000000000  0.1814615971672706  T  T  T

0.00000000E+00  0.00000000E+00  0.00000000E+00
0.00000000E+00  0.00000000E+00  0.00000000E+00
0.00000000E+00  0.00000000E+00  0.00000000E+00
0.00000000E+00  0.00000000E+00  0.00000000E+00
0.00000000E+00  0.00000000E+00  0.00000000E+00
