Ti2C  (n=1)
1.00000000000000
2.9712972831765447  0.0000000000000000  0.0000000000000000
-1.4856486415882724  2.5732189294650092  0.0000000000000000
0.0000000000000000  -0.0000000000000003  29.9590997214699151
Ti  C  F
2  1  2
Selective  dynamics
Direct
0.0000000000000000  -0.0000000000000000  0.0438620956138165  T  T  T
0.6666666666666643  0.3333333333333357  0.1227015532271140  T  T  T
0.3333333333333357  0.6666666666666643  0.0852283903537495  T  T  T
0.3333333333333357  0.6666666666666643  0.0000000000000000  T  T  T
0.0000000000000000  0.0000000000000000  0.1655289967847739  T  T  T

0.00000000E+00  0.00000000E+00  0.00000000E+00
0.00000000E+00  0.00000000E+00  0.00000000E+00
0.00000000E+00  0.00000000E+00  0.00000000E+00
0.00000000E+00  0.00000000E+00  0.00000000E+00
0.00000000E+00  0.00000000E+00  0.00000000E+00
