Cr2N  (n=1)
1.00000000000000
2.8620430660490013  0.0000000000000000  0.0000000000000000
-1.4310215330245006  2.4786020019915163  0.0000000000000000
0.0000000000000000  -0.0000000000000001  29.8841601829234200
Cr  N  F
2  1  2
Selective  dynamics
Direct
0.0000000000000000  0.0000000000000000  0.0444043309637101  T  T  T
0.6666666666666643  0.3333333333333357  0.1210272102087957  T  T  T
0.3333333333333357  0.6666666666666643  0.0846492850630049  T  T  T
0.3333333333333357  0.6666666666666643  0.0000000000000000  T  T  T
0.0000000000000000  0.0000000000000000  0.1634364209342699  T  T  T

0.00000000E+00  0.00000000E+00  0.00000000E+00
0.00000000E+00  0.00000000E+00  0.00000000E+00
0.00000000E+00  0.00000000E+00  0.00000000E+00
0.00000000E+00  0.00000000E+00  0.00000000E+00
0.00000000E+00  0.00000000E+00  0.00000000E+00
