Sc2N
1.00000000000000
3.1113216886839554  0.0000000000000000  0.0000000000000002
-1.5556608443419779  2.6944836217917958  0.0000000000000000
0.0000000000000003  0.0000000000000005  30.0350510111536018
Sc  N  F
2  1  2
Selective  dynamics
Direct
-0.0000000000000000  0.0000000000000000  0.0425468456482841  T  T  T
0.6666666666666643  0.3333333333333357  0.1266604604217281  T  T  T
0.3333333333333357  0.6666666666666643  0.0870577067957153  T  T  T
0.3333333333333357  0.6666666666666643  0.0000000000000000  T  T  T
-0.0000000000000000  -0.0000000000000000  0.1676391696249766  T  T  T

0.00000000E+00  0.00000000E+00  0.00000000E+00
0.00000000E+00  0.00000000E+00  0.00000000E+00
0.00000000E+00  0.00000000E+00  0.00000000E+00
0.00000000E+00  0.00000000E+00  0.00000000E+00
0.00000000E+00  0.00000000E+00  0.00000000E+00
