Mo2C  (n=1)
1.00000000000000
2.9122896577504904  -0.0000000000000001  0.0000000000000000
-1.4561448288752452  2.5221168268569185  0.0000000000000000
-0.0000000000000001  -0.0000000000000001  30.5947285010133356
Mo  C  F
2  1  2
Selective  dynamics
Direct
-0.0000000000000000  -0.0000000000000000  0.0489397242150668  T  T  T
0.6666666666666643  0.3333333333333357  0.1318647478291083  T  T  T
0.3333333333333357  0.6666666666666643  0.0900800147127296  T  T  T
0.3333333333333357  0.6666666666666643  0.0000000000000000  T  T  T
0.0000000000000000  0.0000000000000000  0.1828657672457539  T  T  T

0.00000000E+00  0.00000000E+00  0.00000000E+00
0.00000000E+00  0.00000000E+00  0.00000000E+00
0.00000000E+00  0.00000000E+00  0.00000000E+00
0.00000000E+00  0.00000000E+00  0.00000000E+00
0.00000000E+00  0.00000000E+00  0.00000000E+00
