Sc2C  (n=1)
1.00000000000000
3.1919555698945898  0.0000000000000000  0.0000000000000000
-1.5959777849472949  2.7643146113176891  0.0000000000000000
-0.0000000000000001  0.0000000000000003  30.0604766863554076
Sc  C  F
2  1  2
Selective  dynamics
Direct
0.0000000000000000  0.0000000000000000  0.0426369081231739  T  T  T
0.6666666666666643  0.3333333333333357  0.1291139202658102  T  T  T
0.3333333333333357  0.6666666666666643  0.0869215614438310  T  T  T
0.3333333333333357  0.6666666666666643  0.0000000000000000  T  T  T
-0.0000000000000000  -0.0000000000000000  0.1683431949251950  T  T  T

0.00000000E+00  0.00000000E+00  0.00000000E+00
0.00000000E+00  0.00000000E+00  0.00000000E+00
0.00000000E+00  0.00000000E+00  0.00000000E+00
0.00000000E+00  0.00000000E+00  0.00000000E+00
0.00000000E+00  0.00000000E+00  0.00000000E+00
