Ta2C  (n=1)
1.00000000000000
3.0213635438107342  0.0000000000000001  0.0000000000000002
-1.5106817719053671  2.6165775830723073  -0.0000000000000007
0.0000000000000012  -0.0000000000000020  30.5013930782302012
Ta  C  F
2  1  2
Selective  dynamics
Direct
-0.0000000000000000  0.0000000000000000  0.0498071804356496  T  T  T
0.6666666666666643  0.3333333333333357  0.1322911708514058  T  T  T
0.3333333333333357  0.6666666666666643  0.0893020657208324  T  T  T
0.3333333333333357  0.6666666666666643  0.0000000000000000  T  T  T
0.0000000000000000  0.0000000000000000  0.1803653054180243  T  T  T

0.00000000E+00  0.00000000E+00  0.00000000E+00
0.00000000E+00  0.00000000E+00  0.00000000E+00
0.00000000E+00  0.00000000E+00  0.00000000E+00
0.00000000E+00  0.00000000E+00  0.00000000E+00
0.00000000E+00  0.00000000E+00  0.00000000E+00
