Ti2N  (n=1)
1.00000000000000
2.9087083454315423  0.0000000000000001  0.0000000000000000
-1.4543541727157709  2.5190153193757410  0.0000000000000000
0.0000000000000001  0.0000000000000003  30.0383758889311068
Ti  N  F
2  1  2
Selective  dynamics
Direct
-0.0000000000000000  0.0000000000000000  0.0448384099251626  T  T  T
0.6666666666666643  0.3333333333333357  0.1243259502956586  T  T  T
0.3333333333333357  0.6666666666666643  0.0846937425387866  T  T  T
0.3333333333333357  0.6666666666666643  0.0000000000000000  T  T  T
-0.0000000000000000  -0.0000000000000000  0.1677313017042212  T  T  T

0.00000000E+00  0.00000000E+00  0.00000000E+00
0.00000000E+00  0.00000000E+00  0.00000000E+00
0.00000000E+00  0.00000000E+00  0.00000000E+00
0.00000000E+00  0.00000000E+00  0.00000000E+00
0.00000000E+00  0.00000000E+00  0.00000000E+00
