Cr2C  (n=1)
1.00000000000000
2.8737812401840426  0.0000000000000001  0.0000000000000000
-1.4368906200920213  2.4887675589319160  0.0000000000000000
-0.0000000000000002  -0.0000000000000002  29.8273063972283907
Cr  C  F
2  1  2
Selective  dynamics
Direct
0.0000000000000000  0.0000000000000000  0.0438071388455705  T  T  T
0.6666666666666643  0.3333333333333357  0.1183523774659958  T  T  T
0.3333333333333357  0.6666666666666643  0.0825508703332767  T  T  T
0.3333333333333357  0.6666666666666643  0.0000000000000000  T  T  T
0.0000000000000000  0.0000000000000000  0.1618418483030352  T  T  T

0.00000000E+00  0.00000000E+00  0.00000000E+00
0.00000000E+00  0.00000000E+00  0.00000000E+00
0.00000000E+00  0.00000000E+00  0.00000000E+00
0.00000000E+00  0.00000000E+00  0.00000000E+00
0.00000000E+00  0.00000000E+00  0.00000000E+00
