Hf2C  (n=1)
1.00000000000000
3.1839345430255737  0.0000000000000005  0.0000000000000000
-1.5919672715127868  2.7573681983219842  0.0000000000000000
0.0000000000000001  -0.0000000000000029  30.2519846697602226
Hf  C  F
2  1  2
Selective  dynamics
Direct
0.0000000000000000  -0.0000000000000000  0.0457316309762607  T  T  T
0.6666666666666643  0.3333333333333357  0.1285030026075100  T  T  T
0.3333333333333357  0.6666666666666643  0.0899381675706240  T  T  T
0.3333333333333357  0.6666666666666643  0.0000000000000000  T  T  T
0.0000000000000000  0.0000000000000000  0.1736079376970625  T  T  T

0.00000000E+00  0.00000000E+00  0.00000000E+00
0.00000000E+00  0.00000000E+00  0.00000000E+00
0.00000000E+00  0.00000000E+00  0.00000000E+00
0.00000000E+00  0.00000000E+00  0.00000000E+00
0.00000000E+00  0.00000000E+00  0.00000000E+00
