Zr4C3  (n=3)
1.00000000000000
3.2506038979924274  0.0000000000000001  0.0000000000000000
-1.6253019489962137  2.8151055541288938  0.0000000000000000
0.0000000000000000  0.0000000000000000  36.1357823738688495
Zr  C  H
4  3  2
Selective  dynamics
Direct
-0.0000000000000000  -0.0000000000000000  0.0337982308221627  T  T  T
-0.0000000000000000  -0.0000000000000000  0.1147385922764149  T  T  T
-0.0000000000000000  -0.0000000000000000  0.1934263800121482  T  T  T
-0.0000000000000000  -0.0000000000000000  0.2743667414664003  T  T  T
0.3333333333333357  0.6666666666666643  0.0694539599648718  T  T  T
0.3333333333333357  0.6666666666666643  0.1540824861442775  T  T  T
0.3333333333333357  0.6666666666666643  0.2387110123236831  T  T  T
0.3333333333333357  0.6666666666666643  0.0000000000000000  T  T  T
0.3333333333333357  0.6666666666666643  0.3081649722885634  T  T  T

0.00000000E+00  0.00000000E+00  0.00000000E+00
0.00000000E+00  0.00000000E+00  0.00000000E+00
0.00000000E+00  0.00000000E+00  0.00000000E+00
0.00000000E+00  0.00000000E+00  0.00000000E+00
0.00000000E+00  0.00000000E+00  0.00000000E+00
0.00000000E+00  0.00000000E+00  0.00000000E+00
0.00000000E+00  0.00000000E+00  0.00000000E+00
0.00000000E+00  0.00000000E+00  0.00000000E+00
0.00000000E+00  0.00000000E+00  0.00000000E+00
