Zr4N3  (n=3)
1.00000000000000
3.1236240886512374  -0.0000000000000001  0.0000000000000000
-1.5618120443256187  2.7051378129504329  0.0000000000000000
0.0000000000000000  0.0000000000000000  36.1714239546438350
Zr  N  H
4  3  2
Selective  dynamics
Direct
-0.0000000000000000  -0.0000000000000000  0.0322811759228311  T  T  T
-0.0000000000000000  -0.0000000000000000  0.1134705612323225  T  T  T
-0.0000000000000000  -0.0000000000000000  0.1953761120048620  T  T  T
-0.0000000000000000  -0.0000000000000000  0.2765654973143533  T  T  T
0.3333333333333357  0.6666666666666643  0.0726958693107227  T  T  T
0.3333333333333357  0.6666666666666643  0.1544233366185922  T  T  T
0.3333333333333357  0.6666666666666643  0.2361508039264617  T  T  T
0.3333333333333357  0.6666666666666643  0.0000000000000000  T  T  T
0.3333333333333357  0.6666666666666643  0.3088466732371923  T  T  T

0.00000000E+00  0.00000000E+00  0.00000000E+00
0.00000000E+00  0.00000000E+00  0.00000000E+00
0.00000000E+00  0.00000000E+00  0.00000000E+00
0.00000000E+00  0.00000000E+00  0.00000000E+00
0.00000000E+00  0.00000000E+00  0.00000000E+00
0.00000000E+00  0.00000000E+00  0.00000000E+00
0.00000000E+00  0.00000000E+00  0.00000000E+00
0.00000000E+00  0.00000000E+00  0.00000000E+00
0.00000000E+00  0.00000000E+00  0.00000000E+00
