Mo4C3  (n=3)
1.00000000000000
2.9008485360222704  0.0000000000000000  0.0000000000000000
-1.4504242680111352  2.5122085248155179  0.0000000000000000
0.0000000000000000  0.0000000000000000  35.6379380404178150
Mo  C  H
4  3  2
Selective  dynamics
Direct
0.0000000000000000  -0.0000000000000000  0.0301066778421871  T  T  T
0.0000000000000000  -0.0000000000000000  0.1093188271950212  T  T  T
0.0000000000000000  -0.0000000000000000  0.1891815526067812  T  T  T
0.0000000000000000  -0.0000000000000000  0.2683937019596152  T  T  T
0.3333333333333357  0.6666666666666643  0.0687018211983543  T  T  T
0.3333333333333357  0.6666666666666643  0.1492501899008972  T  T  T
0.3333333333333357  0.6666666666666643  0.2297985586034400  T  T  T
0.3333333333333357  0.6666666666666643  0.0000000000000000  T  T  T
0.3333333333333357  0.6666666666666643  0.2985003798018023  T  T  T

0.00000000E+00  0.00000000E+00  0.00000000E+00
0.00000000E+00  0.00000000E+00  0.00000000E+00
0.00000000E+00  0.00000000E+00  0.00000000E+00
0.00000000E+00  0.00000000E+00  0.00000000E+00
0.00000000E+00  0.00000000E+00  0.00000000E+00
0.00000000E+00  0.00000000E+00  0.00000000E+00
0.00000000E+00  0.00000000E+00  0.00000000E+00
0.00000000E+00  0.00000000E+00  0.00000000E+00
0.00000000E+00  0.00000000E+00  0.00000000E+00
