Nb4N3  (n=3)
1.00000000000000
2.9513164760157067  0.0000000000000000  0.0000000000000000
-1.4756582380078536  2.5559150429994020  0.0000000000000000
0.0000000000000000  0.0000000000000000  36.0169768225334366
Nb  N  H
4  3  2
Selective  dynamics
Direct
-0.0000000000000000  -0.0000000000000000  0.0315882769189669  T  T  T
-0.0000000000000000  -0.0000000000000000  0.1125501876732187  T  T  T
-0.0000000000000000  -0.0000000000000000  0.1933326985228501  T  T  T
-0.0000000000000000  0.0000000000000000  0.2742946092771018  T  T  T
0.3333333333333357  0.6666666666666643  0.0723923905668220  T  T  T
0.3333333333333357  0.6666666666666643  0.1529414430980305  T  T  T
0.3333333333333357  0.6666666666666643  0.2334904956292389  T  T  T
0.3333333333333357  0.6666666666666643  0.0000000000000000  T  T  T
0.3333333333333357  0.6666666666666643  0.3058828861960687  T  T  T

0.00000000E+00  0.00000000E+00  0.00000000E+00
0.00000000E+00  0.00000000E+00  0.00000000E+00
0.00000000E+00  0.00000000E+00  0.00000000E+00
0.00000000E+00  0.00000000E+00  0.00000000E+00
0.00000000E+00  0.00000000E+00  0.00000000E+00
0.00000000E+00  0.00000000E+00  0.00000000E+00
0.00000000E+00  0.00000000E+00  0.00000000E+00
0.00000000E+00  0.00000000E+00  0.00000000E+00
0.00000000E+00  0.00000000E+00  0.00000000E+00
