Ti4C3  (n=3)
1.00000000000000
2.9896128127204187  0.0000000000000000  0.0000000000000000
-1.4948064063602093  2.5890806433490310  0.0000000000000000
0.0000000000000000  0.0000000000000000  35.3451636609659019
Ti  C  H
4  3  2
Selective  dynamics
Direct
0.0000000000000000  -0.0000000000000000  0.0324651684845075  T  T  T
0.0000000000000000  0.0000000000000000  0.1086578583363528  T  T  T
0.0000000000000000  0.0000000000000000  0.1840317939226570  T  T  T
0.0000000000000000  -0.0000000000000000  0.2602244837745023  T  T  T
0.3333333333333357  0.6666666666666643  0.0674393696249154  T  T  T
0.3333333333333357  0.6666666666666643  0.1463448261295049  T  T  T
0.3333333333333357  0.6666666666666643  0.2252502826340861  T  T  T
0.3333333333333357  0.6666666666666643  0.0000000000000000  T  T  T
0.3333333333333357  0.6666666666666643  0.2926896522590098  T  T  T

0.00000000E+00  0.00000000E+00  0.00000000E+00
0.00000000E+00  0.00000000E+00  0.00000000E+00
0.00000000E+00  0.00000000E+00  0.00000000E+00
0.00000000E+00  0.00000000E+00  0.00000000E+00
0.00000000E+00  0.00000000E+00  0.00000000E+00
0.00000000E+00  0.00000000E+00  0.00000000E+00
0.00000000E+00  0.00000000E+00  0.00000000E+00
0.00000000E+00  0.00000000E+00  0.00000000E+00
0.00000000E+00  0.00000000E+00  0.00000000E+00
