Hf4N3  (n=3)
1.00000000000000
3.0682853074635754  0.0000000000000000  0.0000000000000000
-1.5341426537317875  2.6572130225291719  0.0000000000000000
0.0000000000000000  0.0000000000000000  36.0445008943448926
Hf  N  H
4  3  2
Selective  dynamics
Direct
-0.0000000000000000  -0.0000000000000000  0.0319375603627726  T  T  T
-0.0000000000000000  -0.0000000000000000  0.1127233758817081  T  T  T
-0.0000000000000000  -0.0000000000000000  0.1936895475963912  T  T  T
-0.0000000000000000  -0.0000000000000000  0.2744753631153266  T  T  T
0.3333333333333357  0.6666666666666643  0.0723900636553112  T  T  T
0.3333333333333357  0.6666666666666643  0.1532064617390456  T  T  T
0.3333333333333357  0.6666666666666643  0.2340228598227801  T  T  T
0.3333333333333357  0.6666666666666643  0.0000000000000000  T  T  T
0.3333333333333357  0.6666666666666643  0.3064129234780912  T  T  T

0.00000000E+00  0.00000000E+00  0.00000000E+00
0.00000000E+00  0.00000000E+00  0.00000000E+00
0.00000000E+00  0.00000000E+00  0.00000000E+00
0.00000000E+00  0.00000000E+00  0.00000000E+00
0.00000000E+00  0.00000000E+00  0.00000000E+00
0.00000000E+00  0.00000000E+00  0.00000000E+00
0.00000000E+00  0.00000000E+00  0.00000000E+00
0.00000000E+00  0.00000000E+00  0.00000000E+00
0.00000000E+00  0.00000000E+00  0.00000000E+00
