Mo4N3  (n=3)
1.00000000000000
2.8412660331529507  0.0000000000000001  0.0000000000000000
-1.4206330165764751  2.4606085636675243  0.0000000000000000
0.0000000000000000  0.0000000000000000  35.9206625622178848
Mo  N  H
4  3  2
Selective  dynamics
Direct
-0.0000000000000000  -0.0000000000000000  0.0321227169527012  T  T  T
0.0000000000000000  -0.0000000000000000  0.1118301677159320  T  T  T
0.0000000000000000  -0.0000000000000000  0.1921915786341692  T  T  T
0.0000000000000000  -0.0000000000000000  0.2718990293973999  T  T  T
0.3333333333333357  0.6666666666666643  0.0722497318612648  T  T  T
0.3333333333333357  0.6666666666666643  0.1520108731750466  T  T  T
0.3333333333333357  0.6666666666666643  0.2317720144888205  T  T  T
0.3333333333333357  0.6666666666666643  0.0000000000000000  T  T  T
0.3333333333333357  0.6666666666666643  0.3040217463500930  T  T  T

0.00000000E+00  0.00000000E+00  0.00000000E+00
0.00000000E+00  0.00000000E+00  0.00000000E+00
0.00000000E+00  0.00000000E+00  0.00000000E+00
0.00000000E+00  0.00000000E+00  0.00000000E+00
0.00000000E+00  0.00000000E+00  0.00000000E+00
0.00000000E+00  0.00000000E+00  0.00000000E+00
0.00000000E+00  0.00000000E+00  0.00000000E+00
0.00000000E+00  0.00000000E+00  0.00000000E+00
0.00000000E+00  0.00000000E+00  0.00000000E+00
