Ta4C3  (n=3)
1.00000000000000
3.0195707494335040  0.0000000000000001  0.0000000000000000
-1.5097853747167520  2.6150249777617942  0.0000000000000000
0.0000000000000000  0.0000000000000000  35.8397588924786845
Ta  C  H
4  3  2
Selective  dynamics
Direct
0.0000000000000000  0.0000000000000000  0.0314982012424664  T  T  T
0.0000000000000000  0.0000000000000000  0.1110761814783680  T  T  T
0.0000000000000000  0.0000000000000000  0.1913744830196432  T  T  T
0.0000000000000000  0.0000000000000000  0.2709524632555448  T  T  T
0.3333333333333357  0.6666666666666643  0.0695882986824152  T  T  T
0.3333333333333357  0.6666666666666643  0.1512253322490057  T  T  T
0.3333333333333357  0.6666666666666643  0.2328623658155879  T  T  T
0.3333333333333357  0.6666666666666643  0.0000000000000000  T  T  T
0.3333333333333357  0.6666666666666643  0.3024506644980112  T  T  T

0.00000000E+00  0.00000000E+00  0.00000000E+00
0.00000000E+00  0.00000000E+00  0.00000000E+00
0.00000000E+00  0.00000000E+00  0.00000000E+00
0.00000000E+00  0.00000000E+00  0.00000000E+00
0.00000000E+00  0.00000000E+00  0.00000000E+00
0.00000000E+00  0.00000000E+00  0.00000000E+00
0.00000000E+00  0.00000000E+00  0.00000000E+00
0.00000000E+00  0.00000000E+00  0.00000000E+00
0.00000000E+00  0.00000000E+00  0.00000000E+00
