Nb4C3  (n=3)
1.00000000000000
3.0362915139892914  0.0000000000000001  0.0000000000000000
-1.5181457569946459  2.6295055846227422  0.0000000000000000
0.0000000000000000  0.0000000000000000  35.8510182024695752
Nb  C  H
4  3  2
Selective  dynamics
Direct
0.0000000000000000  0.0000000000000000  0.0313040087097158  T  T  T
0.0000000000000000  -0.0000000000000000  0.1110730548782139  T  T  T
0.0000000000000000  -0.0000000000000000  0.1915966807814028  T  T  T
0.0000000000000000  0.0000000000000000  0.2713657269499009  T  T  T
0.3333333333333357  0.6666666666666643  0.0693653041678487  T  T  T
0.3333333333333357  0.6666666666666643  0.1513348678298044  T  T  T
0.3333333333333357  0.6666666666666643  0.2333044314917599  T  T  T
0.3333333333333357  0.6666666666666643  0.0000000000000000  T  T  T
0.3333333333333357  0.6666666666666643  0.3026697356596166  T  T  T

0.00000000E+00  0.00000000E+00  0.00000000E+00
0.00000000E+00  0.00000000E+00  0.00000000E+00
0.00000000E+00  0.00000000E+00  0.00000000E+00
0.00000000E+00  0.00000000E+00  0.00000000E+00
0.00000000E+00  0.00000000E+00  0.00000000E+00
0.00000000E+00  0.00000000E+00  0.00000000E+00
0.00000000E+00  0.00000000E+00  0.00000000E+00
0.00000000E+00  0.00000000E+00  0.00000000E+00
0.00000000E+00  0.00000000E+00  0.00000000E+00
