Sc4C3  (n=3)
1.00000000000000
3.3156149336386065  0.0000000000000003  0.0000000000000000
-1.6578074668193032  2.8714067619400168  0.0000000000000000
0.0000000000000000  0.0000000000000000  35.3494652115879617
Sc  C  H
4  3  2
Selective  dynamics
Direct
0.0000000000000000  0.0000000000000000  0.0312413770899105  T  T  T
0.0000000000000000  0.0000000000000000  0.1083734108343418  T  T  T
0.0000000000000000  0.0000000000000000  0.1844023115037517  T  T  T
0.0000000000000000  0.0000000000000000  0.2615343452481830  T  T  T
0.3333333333333357  0.6666666666666643  0.0685760383617665  T  T  T
0.3333333333333357  0.6666666666666643  0.1463878611690427  T  T  T
0.3333333333333357  0.6666666666666643  0.2241996839763109  T  T  T
0.3333333333333357  0.6666666666666643  0.0000000000000000  T  T  T
0.3333333333333357  0.6666666666666643  0.2927757223380932  T  T  T

0.00000000E+00  0.00000000E+00  0.00000000E+00
0.00000000E+00  0.00000000E+00  0.00000000E+00
0.00000000E+00  0.00000000E+00  0.00000000E+00
0.00000000E+00  0.00000000E+00  0.00000000E+00
0.00000000E+00  0.00000000E+00  0.00000000E+00
0.00000000E+00  0.00000000E+00  0.00000000E+00
0.00000000E+00  0.00000000E+00  0.00000000E+00
0.00000000E+00  0.00000000E+00  0.00000000E+00
0.00000000E+00  0.00000000E+00  0.00000000E+00
