Cr4N3  (n=3)
1.00000000000000
2.6557725888249255  0.0000000000000000  0.0000000000000000
-1.3278862944124628  2.2999665285977078  0.0000000000000000
0.0000000000000000  0.0000000000000000  34.9593614995934203
Cr  N  H
4  3  2
Selective  dynamics
Direct
0.0000000000000000  0.0000000000000000  0.0309312170585262  T  T  T
0.0000000000000000  -0.0000000000000000  0.1052529527750010  T  T  T
0.0000000000000000  -0.0000000000000000  0.1796310117021320  T  T  T
0.0000000000000000  -0.0000000000000000  0.2539527474186068  T  T  T
0.3333333333333357  0.6666666666666643  0.0673715833706190  T  T  T
0.3333333333333357  0.6666666666666643  0.1424419822385665  T  T  T
0.3333333333333357  0.6666666666666643  0.2175123811065061  T  T  T
0.3333333333333357  0.6666666666666643  0.0000000000000000  T  T  T
0.3333333333333357  0.6666666666666643  0.2848839644771330  T  T  T

0.00000000E+00  0.00000000E+00  0.00000000E+00
0.00000000E+00  0.00000000E+00  0.00000000E+00
0.00000000E+00  0.00000000E+00  0.00000000E+00
0.00000000E+00  0.00000000E+00  0.00000000E+00
0.00000000E+00  0.00000000E+00  0.00000000E+00
0.00000000E+00  0.00000000E+00  0.00000000E+00
0.00000000E+00  0.00000000E+00  0.00000000E+00
0.00000000E+00  0.00000000E+00  0.00000000E+00
0.00000000E+00  0.00000000E+00  0.00000000E+00
