Sc4N3  (n=3)
1.00000000000000
3.0942311978422969  0.0000000000000002  0.0000000000000000
-1.5471155989211487  2.6796828226343861  0.0000000000000000
0.0000000000000000  0.0000000000000000  35.7668124028512437
Sc  N  H
4  3  2
Selective  dynamics
Direct
-0.0000000000000000  -0.0000000000000000  0.0339283485138248  T  T  T
-0.0000000000000000  -0.0000000000000000  0.1120429406137975  T  T  T
-0.0000000000000000  -0.0000000000000000  0.1889850705374825  T  T  T
-0.0000000000000000  -0.0000000000000000  0.2670996626374552  T  T  T
0.3333333333333357  0.6666666666666643  0.0695100679213112  T  T  T
0.3333333333333357  0.6666666666666643  0.1505140055756360  T  T  T
0.3333333333333357  0.6666666666666643  0.2315179432299609  T  T  T
0.3333333333333357  0.6666666666666643  0.0000000000000000  T  T  T
0.3333333333333357  0.6666666666666643  0.3010280111512801  T  T  T

0.00000000E+00  0.00000000E+00  0.00000000E+00
0.00000000E+00  0.00000000E+00  0.00000000E+00
0.00000000E+00  0.00000000E+00  0.00000000E+00
0.00000000E+00  0.00000000E+00  0.00000000E+00
0.00000000E+00  0.00000000E+00  0.00000000E+00
0.00000000E+00  0.00000000E+00  0.00000000E+00
0.00000000E+00  0.00000000E+00  0.00000000E+00
0.00000000E+00  0.00000000E+00  0.00000000E+00
0.00000000E+00  0.00000000E+00  0.00000000E+00
