Ta4N3  (n=3)
1.00000000000000
2.9314629988410257  -0.0000000000000001  0.0000000000000000
-1.4657314994205126  2.5387214273626135  0.0000000000000000
0.0000000000000000  0.0000000000000000  35.9770494841935147
Ta  N  H
4  3  2
Selective  dynamics
Direct
-0.0000000000000000  -0.0000000000000000  0.0310333258495989  T  T  T
-0.0000000000000000  -0.0000000000000000  0.1121431924207859  T  T  T
0.0000000000000000  -0.0000000000000000  0.1929693624321623  T  T  T
-0.0000000000000000  -0.0000000000000000  0.2740792290033494  T  T  T
0.3333333333333357  0.6666666666666643  0.0721181754378033  T  T  T
0.3333333333333357  0.6666666666666643  0.1525562774264742  T  T  T
0.3333333333333357  0.6666666666666643  0.2329943794151449  T  T  T
0.3333333333333357  0.6666666666666643  0.0000000000000000  T  T  T
0.3333333333333357  0.6666666666666643  0.3051125548529561  T  T  T

0.00000000E+00  0.00000000E+00  0.00000000E+00
0.00000000E+00  0.00000000E+00  0.00000000E+00
0.00000000E+00  0.00000000E+00  0.00000000E+00
0.00000000E+00  0.00000000E+00  0.00000000E+00
0.00000000E+00  0.00000000E+00  0.00000000E+00
0.00000000E+00  0.00000000E+00  0.00000000E+00
0.00000000E+00  0.00000000E+00  0.00000000E+00
0.00000000E+00  0.00000000E+00  0.00000000E+00
0.00000000E+00  0.00000000E+00  0.00000000E+00
