Cr4C3  (n=3)
1.00000000000000
2.6639056331042887  0.0000000000000000  0.0000000000000000
-1.3319528165521444  2.3070099515464935  0.0000000000000000
0.0000000000000000  0.0000000000000000  34.9748535789382373
Cr  C  H
4  3  2
Selective  dynamics
Direct
0.0000000000000000  0.0000000000000000  0.0298756369809450  T  T  T
0.0000000000000000  -0.0000000000000000  0.1048322631247708  T  T  T
0.0000000000000000  0.0000000000000000  0.1803684613450094  T  T  T
0.0000000000000000  0.0000000000000000  0.2553250874888513  T  T  T
0.3333333333333357  0.6666666666666643  0.0662286798035442  T  T  T
0.3333333333333357  0.6666666666666643  0.1426003622348982  T  T  T
0.3333333333333357  0.6666666666666643  0.2189720446662441  T  T  T
0.3333333333333357  0.6666666666666643  0.0000000000000000  T  T  T
0.3333333333333357  0.6666666666666643  0.2852007244697964  T  T  T

0.00000000E+00  0.00000000E+00  0.00000000E+00
0.00000000E+00  0.00000000E+00  0.00000000E+00
0.00000000E+00  0.00000000E+00  0.00000000E+00
0.00000000E+00  0.00000000E+00  0.00000000E+00
0.00000000E+00  0.00000000E+00  0.00000000E+00
0.00000000E+00  0.00000000E+00  0.00000000E+00
0.00000000E+00  0.00000000E+00  0.00000000E+00
0.00000000E+00  0.00000000E+00  0.00000000E+00
0.00000000E+00  0.00000000E+00  0.00000000E+00
