Hf4C3  (n=3)
1.00000000000000
3.1914889771231376  0.0000000000000000  0.0000000000000000
-1.5957444885615684  2.7639105306368017  0.0000000000000000
0.0000000000000000  0.0000000000000000  36.0541802315000623
Hf  C  H
4  3  2
Selective  dynamics
Direct
0.0000000000000000  0.0000000000000000  0.0336043533063647  T  T  T
0.0000000000000000  0.0000000000000000  0.1138387115198384  T  T  T
0.0000000000000000  0.0000000000000000  0.1927604168065398  T  T  T
0.0000000000000000  0.0000000000000000  0.2729947750200218  T  T  T
0.3333333333333357  0.6666666666666643  0.0699806584964384  T  T  T
0.3333333333333357  0.6666666666666643  0.1532995641631892  T  T  T
0.3333333333333357  0.6666666666666643  0.2366184698299316  T  T  T
0.3333333333333357  0.6666666666666643  0.0000000000000000  T  T  T
0.3333333333333357  0.6666666666666643  0.3065991283263784  T  T  T

0.00000000E+00  0.00000000E+00  0.00000000E+00
0.00000000E+00  0.00000000E+00  0.00000000E+00
0.00000000E+00  0.00000000E+00  0.00000000E+00
0.00000000E+00  0.00000000E+00  0.00000000E+00
0.00000000E+00  0.00000000E+00  0.00000000E+00
0.00000000E+00  0.00000000E+00  0.00000000E+00
0.00000000E+00  0.00000000E+00  0.00000000E+00
0.00000000E+00  0.00000000E+00  0.00000000E+00
0.00000000E+00  0.00000000E+00  0.00000000E+00
