Ti4N3  (n=3)
1.00000000000000
2.8736236234148769  0.0000000000000000  0.0000000000000000
-1.4368118117074384  2.4886310588276097  0.0000000000000000
0.0000000000000000  0.0000000000000000  35.3247235225160097
Ti  N  H
4  3  2
Selective  dynamics
Direct
-0.0000000000000000  -0.0000000000000000  0.0318407591271568  T  T  T
-0.0000000000000000  -0.0000000000000000  0.1078493413405326  T  T  T
-0.0000000000000000  -0.0000000000000000  0.1844310360539291  T  T  T
-0.0000000000000000  -0.0000000000000000  0.2604396182673051  T  T  T
0.3333333333333357  0.6666666666666643  0.0689179623735696  T  T  T
0.3333333333333357  0.6666666666666643  0.1461401886972308  T  T  T
0.3333333333333357  0.6666666666666643  0.2233624150208761  T  T  T
0.3333333333333357  0.6666666666666643  0.0000000000000000  T  T  T
0.3333333333333357  0.6666666666666643  0.2922803773944619  T  T  T

0.00000000E+00  0.00000000E+00  0.00000000E+00
0.00000000E+00  0.00000000E+00  0.00000000E+00
0.00000000E+00  0.00000000E+00  0.00000000E+00
0.00000000E+00  0.00000000E+00  0.00000000E+00
0.00000000E+00  0.00000000E+00  0.00000000E+00
0.00000000E+00  0.00000000E+00  0.00000000E+00
0.00000000E+00  0.00000000E+00  0.00000000E+00
0.00000000E+00  0.00000000E+00  0.00000000E+00
0.00000000E+00  0.00000000E+00  0.00000000E+00
