Sc4C3  (n=3)
1.00000000000000
3.4442768212491655  0.0000000000000002  -0.0000000000000000
-1.7221384106245821  2.9828312286724956  -0.0000000000000001
0.0000000000000001  -0.0000000000000009  36.8318277473076918
Sc  C  Br
4  3  2
Selective  dynamics
Direct
-0.0000000000000000  -0.0000000000000000  0.0519458603286928  T  T  T
-0.0000000000000000  -0.0000000000000000  0.1248771966334907  T  T  T
0.0000000000000000  0.0000000000000000  0.1975916925114091  T  T  T
0.0000000000000000  0.0000000000000000  0.2704634872920521  T  T  T
0.3333333333333357  0.6666666666666643  0.0871736181593168  T  T  T
0.3333333333333357  0.6666666666666643  0.1591606726045441  T  T  T
0.3333333333333357  0.6666666666666643  0.2353735842547091  T  T  T
0.3333333333333357  0.6666666666666643  0.0000000000000000  T  T  T
0.6666666666666643  0.3333333333333357  0.3212392235455263  T  T  T

0.00000000E+00  0.00000000E+00  0.00000000E+00
0.00000000E+00  0.00000000E+00  0.00000000E+00
0.00000000E+00  0.00000000E+00  0.00000000E+00
0.00000000E+00  0.00000000E+00  0.00000000E+00
0.00000000E+00  0.00000000E+00  0.00000000E+00
0.00000000E+00  0.00000000E+00  0.00000000E+00
0.00000000E+00  0.00000000E+00  0.00000000E+00
0.00000000E+00  0.00000000E+00  0.00000000E+00
0.00000000E+00  0.00000000E+00  0.00000000E+00
