Nb4C3  (n=3)
1.00000000000000
3.1613543810995881  0.0000000000000003  0.0000000000000001
-1.5806771905497941  2.7378132061698448  0.0000000000000000
0.0000000000000012  0.0000000000000001  37.4299392227332177
Nb  C  Br
4  3  2
Selective  dynamics
Direct
0.0000000000000000  -0.0000000000000000  0.0521858811312282  T  T  T
0.0000000000000000  -0.0000000000000000  0.1273058960473218  T  T  T
-0.0000000000000000  0.0000000000000000  0.2033248221416118  T  T  T
-0.0000000000000000  0.0000000000000000  0.2788012531535513  T  T  T
0.3333333333333357  0.6666666666666643  0.0872601358078160  T  T  T
0.3333333333333357  0.6666666666666643  0.1654976194740824  T  T  T
0.3333333333333357  0.6666666666666643  0.2430817021402743  T  T  T
0.3333333333333357  0.6666666666666643  0.0000000000000000  T  T  T
0.6666666666666643  0.3333333333333357  0.3320854770499826  T  T  T

0.00000000E+00  0.00000000E+00  0.00000000E+00
0.00000000E+00  0.00000000E+00  0.00000000E+00
0.00000000E+00  0.00000000E+00  0.00000000E+00
0.00000000E+00  0.00000000E+00  0.00000000E+00
0.00000000E+00  0.00000000E+00  0.00000000E+00
0.00000000E+00  0.00000000E+00  0.00000000E+00
0.00000000E+00  0.00000000E+00  0.00000000E+00
0.00000000E+00  0.00000000E+00  0.00000000E+00
0.00000000E+00  0.00000000E+00  0.00000000E+00
