Mo4N3  (n=3)
1.00000000000000
2.9904426379318352  0.0000000000000002  0.0000000000000000
-1.4952213189659176  2.5897992932986762  0.0000000000000000
-0.0000000000000004  0.0000000000000000  37.3510271239267908
Mo  N  Br
4  3  2
Selective  dynamics
Direct
0.0000000000000000  0.0000000000000000  0.0554397386203976  T  T  T
0.0000000000000000  0.0000000000000000  0.1278728545964760  T  T  T
0.0000000000000000  0.0000000000000000  0.2037121372128687  T  T  T
0.0000000000000000  0.0000000000000000  0.2768291889671307  T  T  T
0.3333333333333357  0.6666666666666643  0.0912124315417818  T  T  T
0.3333333333333357  0.6666666666666643  0.1658023669356074  T  T  T
0.3333333333333357  0.6666666666666643  0.2397969590224290  T  T  T
0.3333333333333357  0.6666666666666643  0.0000000000000000  T  T  T
0.6666666666666643  0.3333333333333357  0.3306743635977500  T  T  T

0.00000000E+00  0.00000000E+00  0.00000000E+00
0.00000000E+00  0.00000000E+00  0.00000000E+00
0.00000000E+00  0.00000000E+00  0.00000000E+00
0.00000000E+00  0.00000000E+00  0.00000000E+00
0.00000000E+00  0.00000000E+00  0.00000000E+00
0.00000000E+00  0.00000000E+00  0.00000000E+00
0.00000000E+00  0.00000000E+00  0.00000000E+00
0.00000000E+00  0.00000000E+00  0.00000000E+00
0.00000000E+00  0.00000000E+00  0.00000000E+00
