Hf4C3  (n=3)
1.00000000000000
3.3362024991599046  -0.0000000000000004  0.0000000000000000
-1.6681012495799536  2.8892361211605606  0.0000000000000000
-0.0000000000000004  0.0000000000000002  37.4345036530835529
Hf  C  Br
4  3  2
Selective  dynamics
Direct
0.0000000000000000  0.0000000000000000  0.0538119875905889  T  T  T
0.0000000000000000  0.0000000000000000  0.1294992421055378  T  T  T
0.0000000000000000  -0.0000000000000000  0.2034439392601725  T  T  T
0.0000000000000000  0.0000000000000000  0.2785726108929940  T  T  T
0.3333333333333357  0.6666666666666643  0.0866476724467116  T  T  T
0.3333333333333357  0.6666666666666643  0.1673890912151638  T  T  T
0.3333333333333357  0.6666666666666643  0.2481670905690141  T  T  T
0.3333333333333357  0.6666666666666643  0.0000000000000000  T  T  T
0.6666666666666643  0.3333333333333357  0.3321669166050047  T  T  T

0.00000000E+00  0.00000000E+00  0.00000000E+00
0.00000000E+00  0.00000000E+00  0.00000000E+00
0.00000000E+00  0.00000000E+00  0.00000000E+00
0.00000000E+00  0.00000000E+00  0.00000000E+00
0.00000000E+00  0.00000000E+00  0.00000000E+00
0.00000000E+00  0.00000000E+00  0.00000000E+00
0.00000000E+00  0.00000000E+00  0.00000000E+00
0.00000000E+00  0.00000000E+00  0.00000000E+00
0.00000000E+00  0.00000000E+00  0.00000000E+00
