Hf4N3  (n=3)
1.00000000000000
3.1803538022344289  -0.0000000000000006  0.0000000000000000
-1.5901769011172149  2.7542671875003863  -0.0000000000000001
0.0000000000000003  -0.0000000000000008  37.6426405773355270
Hf  N  Br
4  3  2
Selective  dynamics
Direct
0.0000000000000000  0.0000000000000000  0.0521619871618351  T  T  T
0.0000000000000000  0.0000000000000000  0.1288668413086799  T  T  T
0.0000000000000000  0.0000000000000000  0.2061898296260084  T  T  T
0.0000000000000000  0.0000000000000000  0.2830327175033307  T  T  T
0.3333333333333357  0.6666666666666643  0.0904408158441749  T  T  T
0.3333333333333357  0.6666666666666643  0.1674557342994313  T  T  T
0.3333333333333357  0.6666666666666643  0.2444831984456035  T  T  T
0.3333333333333357  0.6666666666666643  0.0000000000000000  T  T  T
0.6666666666666643  0.3333333333333357  0.3358595567003769  T  T  T

0.00000000E+00  0.00000000E+00  0.00000000E+00
0.00000000E+00  0.00000000E+00  0.00000000E+00
0.00000000E+00  0.00000000E+00  0.00000000E+00
0.00000000E+00  0.00000000E+00  0.00000000E+00
0.00000000E+00  0.00000000E+00  0.00000000E+00
0.00000000E+00  0.00000000E+00  0.00000000E+00
0.00000000E+00  0.00000000E+00  0.00000000E+00
0.00000000E+00  0.00000000E+00  0.00000000E+00
0.00000000E+00  0.00000000E+00  0.00000000E+00
