Nb4N3  (n=3)
1.00000000000000
3.0676409240281255  -0.0000000000000006  0.0000000000000000
-1.5338204620140630  2.6566549713187579  0.0000000000000001
0.0000000000000006  0.0000000000000018  37.5957590661557788
Nb  N  Br
4  3  2
Selective  dynamics
Direct
-0.0000000000000000  -0.0000000000000000  0.0525533728561091  T  T  T
-0.0000000000000000  -0.0000000000000000  0.1288352557524828  T  T  T
-0.0000000000000000  -0.0000000000000000  0.2053589284634360  T  T  T
-0.0000000000000000  -0.0000000000000000  0.2818366713438910  T  T  T
0.3333333333333357  0.6666666666666643  0.0904765160690203  T  T  T
0.3333333333333357  0.6666666666666643  0.1666874773300499  T  T  T
0.3333333333333357  0.6666666666666643  0.2420135020978847  T  T  T
0.3333333333333357  0.6666666666666643  0.0000000000000000  T  T  T
0.6666666666666643  0.3333333333333357  0.3350313806403407  T  T  T

0.00000000E+00  0.00000000E+00  0.00000000E+00
0.00000000E+00  0.00000000E+00  0.00000000E+00
0.00000000E+00  0.00000000E+00  0.00000000E+00
0.00000000E+00  0.00000000E+00  0.00000000E+00
0.00000000E+00  0.00000000E+00  0.00000000E+00
0.00000000E+00  0.00000000E+00  0.00000000E+00
0.00000000E+00  0.00000000E+00  0.00000000E+00
0.00000000E+00  0.00000000E+00  0.00000000E+00
0.00000000E+00  0.00000000E+00  0.00000000E+00
