Zr4C3  (n=3)
1.00000000000000
3.3837150023657268  -0.0000000000000002  0.0000000000000000
-1.6918575011828634  2.9303831583472295  0.0000000000000000
0.0000000000000000  -0.0000000000000005  37.5736565718145528
Zr  C  Br
4  3  2
Selective  dynamics
Direct
-0.0000000000000000  -0.0000000000000000  0.0538386156054361  T  T  T
0.0000000000000000  -0.0000000000000000  0.1303246884597166  T  T  T
0.0000000000000000  -0.0000000000000000  0.2050842357797533  T  T  T
0.0000000000000000  -0.0000000000000000  0.2809259820890490  T  T  T
0.3333333333333357  0.6666666666666643  0.0870682750378658  T  T  T
0.3333333333333357  0.6666666666666643  0.1683640154756832  T  T  T
0.3333333333333357  0.6666666666666643  0.2497454087268381  T  T  T
0.3333333333333357  0.6666666666666643  0.0000000000000000  T  T  T
0.6666666666666643  0.3333333333333357  0.3346402165512562  T  T  T

0.00000000E+00  0.00000000E+00  0.00000000E+00
0.00000000E+00  0.00000000E+00  0.00000000E+00
0.00000000E+00  0.00000000E+00  0.00000000E+00
0.00000000E+00  0.00000000E+00  0.00000000E+00
0.00000000E+00  0.00000000E+00  0.00000000E+00
0.00000000E+00  0.00000000E+00  0.00000000E+00
0.00000000E+00  0.00000000E+00  0.00000000E+00
0.00000000E+00  0.00000000E+00  0.00000000E+00
0.00000000E+00  0.00000000E+00  0.00000000E+00
