Cr4C3  (n=3)
1.00000000000000
2.8854576272425096  -0.0000000000000001  0.0000000000000000
-1.4427288136212548  2.4988796066852781  0.0000000000000000
0.0000000000000005  -0.0000000000000007  36.3314914956039701
Cr  C  Br
4  3  2
Selective  dynamics
Direct
-0.0000000000000000  -0.0000000000000000  0.0516567031803090  T  T  T
-0.0000000000000000  -0.0000000000000000  0.1209337929644590  T  T  T
-0.0000000000000000  -0.0000000000000000  0.1908181527319849  T  T  T
-0.0000000000000000  -0.0000000000000000  0.2595803780775212  T  T  T
0.3333333333333357  0.6666666666666643  0.0844737021764916  T  T  T
0.3333333333333357  0.6666666666666643  0.1555834627010742  T  T  T
0.3333333333333357  0.6666666666666643  0.2263378142793167  T  T  T
0.3333333333333357  0.6666666666666643  0.0000000000000000  T  T  T
0.6666666666666643  0.3333333333333357  0.3118917233820432  T  T  T

0.00000000E+00  0.00000000E+00  0.00000000E+00
0.00000000E+00  0.00000000E+00  0.00000000E+00
0.00000000E+00  0.00000000E+00  0.00000000E+00
0.00000000E+00  0.00000000E+00  0.00000000E+00
0.00000000E+00  0.00000000E+00  0.00000000E+00
0.00000000E+00  0.00000000E+00  0.00000000E+00
0.00000000E+00  0.00000000E+00  0.00000000E+00
0.00000000E+00  0.00000000E+00  0.00000000E+00
0.00000000E+00  0.00000000E+00  0.00000000E+00
