Zr4N3  (n=3)
1.00000000000000
3.2343176975619436  0.0000000000000003  0.0000000000000000
-1.6171588487809718  2.8010012919957221  0.0000000000000001
-0.0000000000000005  0.0000000000000003  37.7406136437946884
Zr  N  Br
4  3  2
Selective  dynamics
Direct
0.0000000000000000  -0.0000000000000000  0.0525404898593095  T  T  T
0.0000000000000000  -0.0000000000000000  0.1294174953074963  T  T  T
0.0000000000000000  -0.0000000000000000  0.2071406884279289  T  T  T
0.0000000000000000  -0.0000000000000000  0.2845126571332318  T  T  T
0.3333333333333357  0.6666666666666643  0.0904024200167098  T  T  T
0.3333333333333357  0.6666666666666643  0.1682315152219745  T  T  T
0.3333333333333357  0.6666666666666643  0.2459178818136331  T  T  T
0.3333333333333357  0.6666666666666643  0.0000000000000000  T  T  T
0.6666666666666643  0.3333333333333357  0.3375836377236411  T  T  T

0.00000000E+00  0.00000000E+00  0.00000000E+00
0.00000000E+00  0.00000000E+00  0.00000000E+00
0.00000000E+00  0.00000000E+00  0.00000000E+00
0.00000000E+00  0.00000000E+00  0.00000000E+00
0.00000000E+00  0.00000000E+00  0.00000000E+00
0.00000000E+00  0.00000000E+00  0.00000000E+00
0.00000000E+00  0.00000000E+00  0.00000000E+00
0.00000000E+00  0.00000000E+00  0.00000000E+00
0.00000000E+00  0.00000000E+00  0.00000000E+00
