Cr4N3  (n=3)
1.00000000000000
2.8600151259861759  0.0000000000000000  0.0000000000000000
-1.4300075629930877  2.4768457543197329  0.0000000000000000
0.0000000000000000  0.0000000000000001  36.4003914897732983
Cr  N  Br
4  3  2
Selective  dynamics
Direct
-0.0000000000000000  -0.0000000000000000  0.0531508343314635  T  T  T
-0.0000000000000000  -0.0000000000000000  0.1215863438306033  T  T  T
-0.0000000000000000  -0.0000000000000000  0.1916613203368895  T  T  T
-0.0000000000000000  -0.0000000000000000  0.2597635012904865  T  T  T
0.3333333333333357  0.6666666666666643  0.0856155853438038  T  T  T
0.3333333333333357  0.6666666666666643  0.1569653316093350  T  T  T
0.3333333333333357  0.6666666666666643  0.2280010460567040  T  T  T
0.3333333333333357  0.6666666666666643  0.0000000000000000  T  T  T
0.6666666666666643  0.3333333333333357  0.3131941999298617  T  T  T

0.00000000E+00  0.00000000E+00  0.00000000E+00
0.00000000E+00  0.00000000E+00  0.00000000E+00
0.00000000E+00  0.00000000E+00  0.00000000E+00
0.00000000E+00  0.00000000E+00  0.00000000E+00
0.00000000E+00  0.00000000E+00  0.00000000E+00
0.00000000E+00  0.00000000E+00  0.00000000E+00
0.00000000E+00  0.00000000E+00  0.00000000E+00
0.00000000E+00  0.00000000E+00  0.00000000E+00
0.00000000E+00  0.00000000E+00  0.00000000E+00
