Ta4N3  (n=3)
1.00000000000000
3.0362557599232489  -0.0000000000000005  -0.0000000000000001
-1.5181278799616245  2.6294746214503171  0.0000000000000001
-0.0000000000000007  0.0000000000000006  37.6666547293277034
Ta  N  Br
4  3  2
Selective  dynamics
Direct
0.0000000000000000  0.0000000000000000  0.0530587044755522  T  T  T
0.0000000000000000  0.0000000000000000  0.1293975397721070  T  T  T
0.0000000000000000  0.0000000000000000  0.2058652662316358  T  T  T
0.0000000000000000  0.0000000000000000  0.2827066947382105  T  T  T
0.3333333333333357  0.6666666666666643  0.0911933060914765  T  T  T
0.3333333333333357  0.6666666666666643  0.1672025448168809  T  T  T
0.3333333333333357  0.6666666666666643  0.2425117688252059  T  T  T
0.3333333333333357  0.6666666666666643  0.0000000000000000  T  T  T
0.6666666666666643  0.3333333333333357  0.3362829754951743  T  T  T

0.00000000E+00  0.00000000E+00  0.00000000E+00
0.00000000E+00  0.00000000E+00  0.00000000E+00
0.00000000E+00  0.00000000E+00  0.00000000E+00
0.00000000E+00  0.00000000E+00  0.00000000E+00
0.00000000E+00  0.00000000E+00  0.00000000E+00
0.00000000E+00  0.00000000E+00  0.00000000E+00
0.00000000E+00  0.00000000E+00  0.00000000E+00
0.00000000E+00  0.00000000E+00  0.00000000E+00
0.00000000E+00  0.00000000E+00  0.00000000E+00
