Ti4C3  (n=3)
1.00000000000000
3.1825706213873772  0.0000000000000002  -0.0000000000000001
-1.5912853106936886  2.7561870085522733  0.0000000000000001
-0.0000000000000013  -0.0000000000000003  36.5337713108665199
Ti  C  Br
4  3  2
Selective  dynamics
Direct
0.0000000000000000  0.0000000000000000  0.0522901172577279  T  T  T
-0.0000000000000000  0.0000000000000000  0.1237154542678054  T  T  T
-0.0000000000000000  0.0000000000000000  0.1938400765938184  T  T  T
-0.0000000000000000  0.0000000000000000  0.2641801798727582  T  T  T
0.3333333333333357  0.6666666666666643  0.0836512907273257  T  T  T
0.3333333333333357  0.6666666666666643  0.1591062467421669  T  T  T
0.3333333333333357  0.6666666666666643  0.2345188658914648  T  T  T
0.3333333333333357  0.6666666666666643  0.0000000000000000  T  T  T
0.6666666666666643  0.3333333333333357  0.3157016343241833  T  T  T

0.00000000E+00  0.00000000E+00  0.00000000E+00
0.00000000E+00  0.00000000E+00  0.00000000E+00
0.00000000E+00  0.00000000E+00  0.00000000E+00
0.00000000E+00  0.00000000E+00  0.00000000E+00
0.00000000E+00  0.00000000E+00  0.00000000E+00
0.00000000E+00  0.00000000E+00  0.00000000E+00
0.00000000E+00  0.00000000E+00  0.00000000E+00
0.00000000E+00  0.00000000E+00  0.00000000E+00
0.00000000E+00  0.00000000E+00  0.00000000E+00
