Mo4C3  (n=3)
1.00000000000000
3.0160588537400228  0.0000000000000001  0.0000000000000000
-1.5080294268700114  2.6119835872863479  -0.0000000000000000
0.0000000000000003  -0.0000000000000000  37.3564965189136089
Mo  C  Br
4  3  2
Selective  dynamics
Direct
0.0000000000000000  0.0000000000000000  0.0537483545295040  T  T  T
0.0000000000000000  -0.0000000000000000  0.1281589247279029  T  T  T
-0.0000000000000000  0.0000000000000000  0.2031457201769992  T  T  T
-0.0000000000000000  -0.0000000000000000  0.2770020630648192  T  T  T
0.3333333333333357  0.6666666666666643  0.0893717921223657  T  T  T
0.3333333333333357  0.6666666666666643  0.1649856835395992  T  T  T
0.3333333333333357  0.6666666666666643  0.2400825923249514  T  T  T
0.3333333333333357  0.6666666666666643  0.0000000000000000  T  T  T
0.6666666666666643  0.3333333333333357  0.3307723601076324  T  T  T

0.00000000E+00  0.00000000E+00  0.00000000E+00
0.00000000E+00  0.00000000E+00  0.00000000E+00
0.00000000E+00  0.00000000E+00  0.00000000E+00
0.00000000E+00  0.00000000E+00  0.00000000E+00
0.00000000E+00  0.00000000E+00  0.00000000E+00
0.00000000E+00  0.00000000E+00  0.00000000E+00
0.00000000E+00  0.00000000E+00  0.00000000E+00
0.00000000E+00  0.00000000E+00  0.00000000E+00
0.00000000E+00  0.00000000E+00  0.00000000E+00
