Sc4N3  (n=3)
1.00000000000000
3.2600319970235847  0.0000000000000012  -0.0000000000000001
-1.6300159985117912  2.8232705282440946  0.0000000000000000
-0.0000000000000006  0.0000000000000005  37.0953007777266421
Sc  N  Br
4  3  2
Selective  dynamics
Direct
0.0000000000000000  0.0000000000000000  0.0529123879552830  T  T  T
0.0000000000000000  0.0000000000000000  0.1270087084242014  T  T  T
0.0000000000000000  0.0000000000000000  0.2001378596979532  T  T  T
0.0000000000000000  0.0000000000000000  0.2740559912151696  T  T  T
0.3333333333333357  0.6666666666666643  0.0854125277057520  T  T  T
0.3333333333333357  0.6666666666666643  0.1643177465607196  T  T  T
0.3333333333333357  0.6666666666666643  0.2434038956661475  T  T  T
0.3333333333333357  0.6666666666666643  0.0000000000000000  T  T  T
0.6666666666666643  0.3333333333333357  0.3260601888686962  T  T  T

0.00000000E+00  0.00000000E+00  0.00000000E+00
0.00000000E+00  0.00000000E+00  0.00000000E+00
0.00000000E+00  0.00000000E+00  0.00000000E+00
0.00000000E+00  0.00000000E+00  0.00000000E+00
0.00000000E+00  0.00000000E+00  0.00000000E+00
0.00000000E+00  0.00000000E+00  0.00000000E+00
0.00000000E+00  0.00000000E+00  0.00000000E+00
0.00000000E+00  0.00000000E+00  0.00000000E+00
0.00000000E+00  0.00000000E+00  0.00000000E+00
