Ti4N3  (n=3)
1.00000000000000
3.0524490949547434  0.0000000000000001  0.0000000000000000
-1.5262245474773715  2.6434984603226748  0.0000000000000001
-0.0000000000000002  -0.0000000000000002  36.6685612033066946
Ti  N  Br
4  3  2
Selective  dynamics
Direct
0.0000000000000000  -0.0000000000000000  0.0510224584023236  T  T  T
0.0000000000000000  -0.0000000000000000  0.1227076783188194  T  T  T
-0.0000000000000000  -0.0000000000000000  0.1953217814687309  T  T  T
-0.0000000000000000  -0.0000000000000000  0.2669975226473177  T  T  T
0.3333333333333357  0.6666666666666643  0.0848493321177029  T  T  T
0.3333333333333357  0.6666666666666643  0.1590954841181818  T  T  T
0.3333333333333357  0.6666666666666643  0.2335807201607959  T  T  T
0.3333333333333357  0.6666666666666643  0.0000000000000000  T  T  T
0.6666666666666643  0.3333333333333357  0.3182170453487672  T  T  T

0.00000000E+00  0.00000000E+00  0.00000000E+00
0.00000000E+00  0.00000000E+00  0.00000000E+00
0.00000000E+00  0.00000000E+00  0.00000000E+00
0.00000000E+00  0.00000000E+00  0.00000000E+00
0.00000000E+00  0.00000000E+00  0.00000000E+00
0.00000000E+00  0.00000000E+00  0.00000000E+00
0.00000000E+00  0.00000000E+00  0.00000000E+00
0.00000000E+00  0.00000000E+00  0.00000000E+00
0.00000000E+00  0.00000000E+00  0.00000000E+00
