Ta4C3  (n=3)
1.00000000000000
3.1355962273931315  0.0000000000000004  0.0000000000000000
-1.5677981136965657  2.7155059908482788  0.0000000000000000
0.0000000000000006  0.0000000000000008  37.4391870329285510
Ta  C  Br
4  3  2
Selective  dynamics
Direct
0.0000000000000000  0.0000000000000000  0.0523024468156648  T  T  T
0.0000000000000000  0.0000000000000000  0.1274180672848347  T  T  T
-0.0000000000000000  -0.0000000000000000  0.2033034161644595  T  T  T
-0.0000000000000000  -0.0000000000000000  0.2787666965261682  T  T  T
0.3333333333333357  0.6666666666666643  0.0874322323210370  T  T  T
0.3333333333333357  0.6666666666666643  0.1653868320227158  T  T  T
0.3333333333333357  0.6666666666666643  0.2431600610251902  T  T  T
0.3333333333333357  0.6666666666666643  0.0000000000000000  T  T  T
0.6666666666666643  0.3333333333333357  0.3322504578421542  T  T  T

0.00000000E+00  0.00000000E+00  0.00000000E+00
0.00000000E+00  0.00000000E+00  0.00000000E+00
0.00000000E+00  0.00000000E+00  0.00000000E+00
0.00000000E+00  0.00000000E+00  0.00000000E+00
0.00000000E+00  0.00000000E+00  0.00000000E+00
0.00000000E+00  0.00000000E+00  0.00000000E+00
0.00000000E+00  0.00000000E+00  0.00000000E+00
0.00000000E+00  0.00000000E+00  0.00000000E+00
0.00000000E+00  0.00000000E+00  0.00000000E+00
