Zr2N  (n=1)
1.00000000000000
3.0905083065547845  0.0000000000000001  0.0000000000000000
-1.5452541532773922  2.6764587041964449  0.0000000000000000
0.0000000000000000  0.0000000000000000  30.7247499652769989
Zr  N  F
2  1  2
Selective  dynamics
Direct
-0.0000000000000000  -0.0000000000000000  0.0456805723310039  T  T  T
-0.0000000000000000  -0.0000000000000000  0.1406431559905192  T  T  T
0.3333333333333357  0.6666666666666643  0.0931618641607655  T  T  T
0.3333333333333357  0.6666666666666643  0.0000000000000000  T  T  T
0.3333333333333357  0.6666666666666643  0.1863237283215231  T  T  T

0.00000000E+00  0.00000000E+00  0.00000000E+00
0.00000000E+00  0.00000000E+00  0.00000000E+00
0.00000000E+00  0.00000000E+00  0.00000000E+00
0.00000000E+00  0.00000000E+00  0.00000000E+00
0.00000000E+00  0.00000000E+00  0.00000000E+00
