Zr2C  (n=1)
1.00000000000000
3.1592190501285051  0.0000000000000000  0.0000000000000000
-1.5796095250642526  2.7359639536697955  0.0000000000000000
0.0000000000000000  0.0000000000000000  30.6788769382313760
Zr  C  F
2  1  2
Selective  dynamics
Direct
-0.0000000000000000  -0.0000000000000000  0.0458417254880207  T  T  T
-0.0000000000000000  -0.0000000000000000  0.1392653418164698  T  T  T
0.3333333333333357  0.6666666666666643  0.0925535336522452  T  T  T
0.3333333333333357  0.6666666666666643  0.0000000000000000  T  T  T
0.3333333333333357  0.6666666666666643  0.1851070673044905  T  T  T

0.00000000E+00  0.00000000E+00  0.00000000E+00
0.00000000E+00  0.00000000E+00  0.00000000E+00
0.00000000E+00  0.00000000E+00  0.00000000E+00
0.00000000E+00  0.00000000E+00  0.00000000E+00
0.00000000E+00  0.00000000E+00  0.00000000E+00
