Nb2N  (n=1)
1.00000000000000
2.9276481145559163  -0.0000000000000001  0.0000000000000000
-1.4638240572779582  2.5354176406317572  0.0000000000000000
0.0000000000000000  0.0000000000000000  30.8097991658337946
Nb  N  F
2  1  2
Selective  dynamics
Direct
0.0000000000000000  0.0000000000000000  0.0480646640434584  T  T  T
0.0000000000000000  0.0000000000000000  0.1405051846128909  T  T  T
0.3333333333333357  0.6666666666666643  0.0942849243281785  T  T  T
0.3333333333333357  0.6666666666666643  0.0000000000000000  T  T  T
0.3333333333333357  0.6666666666666643  0.1885698486563492  T  T  T

0.00000000E+00  0.00000000E+00  0.00000000E+00
0.00000000E+00  0.00000000E+00  0.00000000E+00
0.00000000E+00  0.00000000E+00  0.00000000E+00
0.00000000E+00  0.00000000E+00  0.00000000E+00
0.00000000E+00  0.00000000E+00  0.00000000E+00
