Hf2N  (n=1)
1.00000000000000
3.0186784188815667  0.0000000000000001  0.0000000000000000
-1.5093392094407834  2.6142521967157122  0.0000000000000000
0.0000000000000000  0.0000000000000000  30.7424030840386635
Hf  N  F
2  1  2
Selective  dynamics
Direct
-0.0000000000000000  -0.0000000000000000  0.0460503776937136  T  T  T
-0.0000000000000000  -0.0000000000000000  0.1407405855351857  T  T  T
0.3333333333333357  0.6666666666666643  0.0933954816144457  T  T  T
0.3333333333333357  0.6666666666666643  0.0000000000000000  T  T  T
0.3333333333333357  0.6666666666666643  0.1867909632288993  T  T  T

0.00000000E+00  0.00000000E+00  0.00000000E+00
0.00000000E+00  0.00000000E+00  0.00000000E+00
0.00000000E+00  0.00000000E+00  0.00000000E+00
0.00000000E+00  0.00000000E+00  0.00000000E+00
0.00000000E+00  0.00000000E+00  0.00000000E+00
