Mo2N  (n=1)
1.00000000000000
2.7997480203402061  0.0000000000000000  0.0000000000000000
-1.3998740101701028  2.4246529098636800  0.0000000000000000
0.0000000000000000  0.0000000000000000  30.9928347565718667
Mo  N  F
2  1  2
Selective  dynamics
Direct
-0.0000000000000000  -0.0000000000000000  0.0512624945851434  T  T  T
-0.0000000000000000  -0.0000000000000000  0.1420994487040589  T  T  T
0.3333333333333357  0.6666666666666643  0.0966809716446049  T  T  T
0.3333333333333357  0.6666666666666643  0.0000000000000000  T  T  T
0.3333333333333357  0.6666666666666643  0.1933619432892023  T  T  T

0.00000000E+00  0.00000000E+00  0.00000000E+00
0.00000000E+00  0.00000000E+00  0.00000000E+00
0.00000000E+00  0.00000000E+00  0.00000000E+00
0.00000000E+00  0.00000000E+00  0.00000000E+00
0.00000000E+00  0.00000000E+00  0.00000000E+00
