Sc2N  (n=1)
1.00000000000000
3.0581721002382083  0.0000000000000000  0.0000000000000000
-1.5290860501191041  2.6484547280023194  0.0000000000000000
0.0000000000000000  0.0000000000000000  30.3333830211449218
Sc  N  F
2  1  2
Selective  dynamics
Direct
0.0000000000000000  0.0000000000000000  0.0425421403279492  T  T  T
0.0000000000000000  0.0000000000000000  0.1332833855432374  T  T  T
0.3333333333333357  0.6666666666666643  0.0879127629355892  T  T  T
0.3333333333333357  0.6666666666666643  0.0000000000000000  T  T  T
0.3333333333333357  0.6666666666666643  0.1758255258711863  T  T  T

0.00000000E+00  0.00000000E+00  0.00000000E+00
0.00000000E+00  0.00000000E+00  0.00000000E+00
0.00000000E+00  0.00000000E+00  0.00000000E+00
0.00000000E+00  0.00000000E+00  0.00000000E+00
0.00000000E+00  0.00000000E+00  0.00000000E+00
