Nb2C  (n=1)
1.00000000000000
2.9746756867105026  0.0000000000000000  0.0000000000000000
-1.4873378433552513  2.5761447128028707  0.0000000000000000
0.0000000000000000  0.0000000000000000  30.6932942660135808
Nb  C  F
2  1  2
Selective  dynamics
Direct
-0.0000000000000000  -0.0000000000000000  0.0462071407591612  T  T  T
-0.0000000000000000  -0.0000000000000000  0.1392827000077098  T  T  T
0.3333333333333357  0.6666666666666643  0.0927449203834356  T  T  T
0.3333333333333357  0.6666666666666643  0.0000000000000000  T  T  T
0.3333333333333357  0.6666666666666643  0.1854898407668712  T  T  T

0.00000000E+00  0.00000000E+00  0.00000000E+00
0.00000000E+00  0.00000000E+00  0.00000000E+00
0.00000000E+00  0.00000000E+00  0.00000000E+00
0.00000000E+00  0.00000000E+00  0.00000000E+00
0.00000000E+00  0.00000000E+00  0.00000000E+00
