Ti2N  (n=1)
1.00000000000000
2.8399073515293316  0.0000000000000000  0.0000000000000000
-1.4199536757646658  2.4594319108506761  0.0000000000000000
0.0000000000000000  0.0000000000000000  30.2943646820010599
Ti  N  F
2  1  2
Selective  dynamics
Direct
-0.0000000000000000  -0.0000000000000000  0.0434527895391545  T  T  T
-0.0000000000000000  -0.0000000000000000  0.1313112214436163  T  T  T
0.3333333333333357  0.6666666666666643  0.0873820054913854  T  T  T
0.3333333333333357  0.6666666666666643  0.0000000000000000  T  T  T
0.3333333333333357  0.6666666666666643  0.1747640109827630  T  T  T

0.00000000E+00  0.00000000E+00  0.00000000E+00
0.00000000E+00  0.00000000E+00  0.00000000E+00
0.00000000E+00  0.00000000E+00  0.00000000E+00
0.00000000E+00  0.00000000E+00  0.00000000E+00
0.00000000E+00  0.00000000E+00  0.00000000E+00
