Ta2C  (n=1)
1.00000000000000
2.9587200888070577  -0.0000000000000008  0.0000000000000000
-1.4793600444035291  2.5623267596771471  0.0000000000000000
0.0000000000000000  0.0000000000000000  30.7042069821548793
Ta  C  F
2  1  2
Selective  dynamics
Direct
0.0000000000000000  0.0000000000000000  0.0466845708162909  T  T  T
0.0000000000000000  0.0000000000000000  0.1390947585593266  T  T  T
0.3333333333333357  0.6666666666666643  0.0928896646878087  T  T  T
0.3333333333333357  0.6666666666666643  0.0000000000000000  T  T  T
0.3333333333333357  0.6666666666666643  0.1857793293756173  T  T  T

0.00000000E+00  0.00000000E+00  0.00000000E+00
0.00000000E+00  0.00000000E+00  0.00000000E+00
0.00000000E+00  0.00000000E+00  0.00000000E+00
0.00000000E+00  0.00000000E+00  0.00000000E+00
0.00000000E+00  0.00000000E+00  0.00000000E+00
