Cr2N  (n=1)
1.00000000000000
2.6637938461874144  -0.0000000000000001  0.0000000000000000
-1.3318969230937072  2.3069131413161270  0.0000000000000000
0.0000000000000000  0.0000000000000000  30.3292158416776907
Cr  N  F
2  1  2
Selective  dynamics
Direct
0.0000000000000000  0.0000000000000000  0.0458299761459765  T  T  T
0.0000000000000000  0.0000000000000000  0.1298823096413272  T  T  T
0.3333333333333357  0.6666666666666643  0.0878561428936519  T  T  T
0.3333333333333357  0.6666666666666643  0.0000000000000000  T  T  T
0.3333333333333357  0.6666666666666643  0.1757122857873037  T  T  T

0.00000000E+00  0.00000000E+00  0.00000000E+00
0.00000000E+00  0.00000000E+00  0.00000000E+00
0.00000000E+00  0.00000000E+00  0.00000000E+00
0.00000000E+00  0.00000000E+00  0.00000000E+00
0.00000000E+00  0.00000000E+00  0.00000000E+00
