Hf2C  (n=1)
1.00000000000000
3.1073182682906091  0.0000000000000000  0.0000000000000000
-1.5536591341453045  2.6910165580940371  0.0000000000000000
0.0000000000000000  0.0000000000000000  30.6527861064757907
Hf  C  F
2  1  2
Selective  dynamics
Direct
-0.0000000000000000  -0.0000000000000000  0.0458409660106816  T  T  T
-0.0000000000000000  -0.0000000000000000  0.1385724862229986  T  T  T
0.3333333333333357  0.6666666666666643  0.0922067261168441  T  T  T
0.3333333333333357  0.6666666666666643  0.0000000000000000  T  T  T
0.3333333333333357  0.6666666666666643  0.1844134522336802  T  T  T

0.00000000E+00  0.00000000E+00  0.00000000E+00
0.00000000E+00  0.00000000E+00  0.00000000E+00
0.00000000E+00  0.00000000E+00  0.00000000E+00
0.00000000E+00  0.00000000E+00  0.00000000E+00
0.00000000E+00  0.00000000E+00  0.00000000E+00
