Sc2C  (n=1)
1.00000000000000
3.1417694918935934  0.0000000000000000  0.0000000000000000
-1.5708847459467967  2.7208521929094505  0.0000000000000000
0.0000000000000000  0.0000000000000000  30.3657388246854332
Sc  C  F
2  1  2
Selective  dynamics
Direct
0.0000000000000000  -0.0000000000000000  0.0423835986009746  T  T  T
0.0000000000000000  -0.0000000000000000  0.1343201152676194  T  T  T
0.3333333333333357  0.6666666666666643  0.0883518569342930  T  T  T
0.3333333333333357  0.6666666666666643  0.0000000000000000  T  T  T
0.3333333333333357  0.6666666666666643  0.1767037138685862  T  T  T

0.00000000E+00  0.00000000E+00  0.00000000E+00
0.00000000E+00  0.00000000E+00  0.00000000E+00
0.00000000E+00  0.00000000E+00  0.00000000E+00
0.00000000E+00  0.00000000E+00  0.00000000E+00
0.00000000E+00  0.00000000E+00  0.00000000E+00
