Mo2C  (n=1)
1.00000000000000
2.9075659705445847  0.0000000000000000  0.0000000000000000
-1.4537829852722923  2.5180259937393239  0.0000000000000000
0.0000000000000000  0.0000000000000000  30.6629859869590611
Mo  C  F
2  1  2
Selective  dynamics
Direct
0.0000000000000000  0.0000000000000000  0.0495331760998788  T  T  T
0.0000000000000000  0.0000000000000000  0.1351515766951531  T  T  T
0.3333333333333357  0.6666666666666643  0.0923423763975160  T  T  T
0.3333333333333357  0.6666666666666643  0.0000000000000000  T  T  T
0.3333333333333357  0.6666666666666643  0.1846847527950319  T  T  T

0.00000000E+00  0.00000000E+00  0.00000000E+00
0.00000000E+00  0.00000000E+00  0.00000000E+00
0.00000000E+00  0.00000000E+00  0.00000000E+00
0.00000000E+00  0.00000000E+00  0.00000000E+00
0.00000000E+00  0.00000000E+00  0.00000000E+00
