Ta2N  (n=1)
1.00000000000000
2.9077945871251507  0.0000000000000001  0.0000000000000000
-1.4538972935625754  2.5182239815191685  0.0000000000000000
0.0000000000000000  0.0000000000000000  30.8500440812944419
Ta  N  F
2  1  2
Selective  dynamics
Direct
-0.0000000000000000  -0.0000000000000000  0.0486153617693385  T  T  T
-0.0000000000000000  -0.0000000000000000  0.1410130246886744  T  T  T
0.3333333333333357  0.6666666666666643  0.0948141932290066  T  T  T
0.3333333333333357  0.6666666666666643  0.0000000000000000  T  T  T
0.3333333333333357  0.6666666666666643  0.1896283864580131  T  T  T

0.00000000E+00  0.00000000E+00  0.00000000E+00
0.00000000E+00  0.00000000E+00  0.00000000E+00
0.00000000E+00  0.00000000E+00  0.00000000E+00
0.00000000E+00  0.00000000E+00  0.00000000E+00
0.00000000E+00  0.00000000E+00  0.00000000E+00
