Cr2C  (n=1)
1.00000000000000
2.6765502732840369  0.0000000000000001  0.0000000000000000
-1.3382751366420185  2.3179605312256810  0.0000000000000000
0.0000000000000000  0.0000000000000000  30.2771161765352517
Cr  C  F
2  1  2
Selective  dynamics
Direct
0.0000000000000000  0.0000000000000000  0.0450587582765435  T  T  T
0.0000000000000000  -0.0000000000000000  0.1292351257831615  T  T  T
0.3333333333333357  0.6666666666666643  0.0871469420298524  T  T  T
0.3333333333333357  0.6666666666666643  0.0000000000000000  T  T  T
0.3333333333333357  0.6666666666666643  0.1742938840597049  T  T  T

0.00000000E+00  0.00000000E+00  0.00000000E+00
0.00000000E+00  0.00000000E+00  0.00000000E+00
0.00000000E+00  0.00000000E+00  0.00000000E+00
0.00000000E+00  0.00000000E+00  0.00000000E+00
0.00000000E+00  0.00000000E+00  0.00000000E+00
