Ti2C  (n=1)
1.00000000000000
2.9055981216346023  -0.0000000000000001  0.0000000000000000
-1.4527990608173011  2.5163217865733012  0.0000000000000000
0.0000000000000000  0.0000000000000000  30.3109388277911656
Ti  C  F
2  1  2
Selective  dynamics
Direct
0.0000000000000000  0.0000000000000000  0.0435365390590490  T  T  T
0.0000000000000000  0.0000000000000000  0.1316787143504471  T  T  T
0.3333333333333357  0.6666666666666643  0.0876076267047440  T  T  T
0.3333333333333357  0.6666666666666643  0.0000000000000000  T  T  T
0.3333333333333357  0.6666666666666643  0.1752152534094961  T  T  T

0.00000000E+00  0.00000000E+00  0.00000000E+00
0.00000000E+00  0.00000000E+00  0.00000000E+00
0.00000000E+00  0.00000000E+00  0.00000000E+00
0.00000000E+00  0.00000000E+00  0.00000000E+00
0.00000000E+00  0.00000000E+00  0.00000000E+00
