Ta3N2  (n=2)
1.00000000000000
3.0907768762910233  0.0000000000000001  0.0000000000000000
-1.5453884381455116  2.6766912929542848  0.0000000000000000
0.0000000000000000  0.0000000000000000  34.4338654517153770
Ta  N  Se
3  2  2
Selective  dynamics
Direct
0.0000000000000000  0.0000000000000000  0.0534974205879593  T  T  T
0.0000000000000000  0.0000000000000000  0.1369852807397338  T  T  T
0.0000000000000000  0.0000000000000000  0.2204731408915151  T  T  T
0.3333333333333357  0.6666666666666643  0.0967625544395446  T  T  T
0.3333333333333357  0.6666666666666643  0.1772080070399299  T  T  T
0.6666666666666643  0.3333333333333357  0.0000000000000000  T  T  T
0.6666666666666643  0.3333333333333357  0.2739705614794813  T  T  T

0.00000000E+00  0.00000000E+00  0.00000000E+00
0.00000000E+00  0.00000000E+00  0.00000000E+00
0.00000000E+00  0.00000000E+00  0.00000000E+00
0.00000000E+00  0.00000000E+00  0.00000000E+00
0.00000000E+00  0.00000000E+00  0.00000000E+00
0.00000000E+00  0.00000000E+00  0.00000000E+00
0.00000000E+00  0.00000000E+00  0.00000000E+00
