Hf3C2  (n=2)
1.00000000000000
3.3401299732439642  0.0000000000000003  0.0000000000000000
-1.6700649866219817  2.8926374103877364  -0.0000000000000000
0.0000000000000000  -0.0000000000000000  34.4423728334441250
Hf  C  Se
3  2  2
Selective  dynamics
Direct
0.0000000000000000  0.0000000000000000  0.0545347978128142  T  T  T
0.0000000000000000  0.0000000000000000  0.1370749465942017  T  T  T
0.0000000000000000  0.0000000000000000  0.2196150953755962  T  T  T
0.3333333333333357  0.6666666666666643  0.0928773717112300  T  T  T
0.3333333333333357  0.6666666666666643  0.1812725214771660  T  T  T
0.6666666666666643  0.3333333333333357  0.0000000000000000  T  T  T
0.6666666666666643  0.3333333333333357  0.2741498931884106  T  T  T

0.00000000E+00  0.00000000E+00  0.00000000E+00
0.00000000E+00  0.00000000E+00  0.00000000E+00
0.00000000E+00  0.00000000E+00  0.00000000E+00
0.00000000E+00  0.00000000E+00  0.00000000E+00
0.00000000E+00  0.00000000E+00  0.00000000E+00
0.00000000E+00  0.00000000E+00  0.00000000E+00
0.00000000E+00  0.00000000E+00  0.00000000E+00
