Sc3C2Se2  (n=2)
1.00000000000000
3.2677862027936588  0.0000000000000000  0.0000000000000000
-1.6338931013968294  2.8299858657628763  0.0000000000000000
0.0000000000000000  0.0000000000000000  34.8743730221747867
Sc  C  Se
3  2  2
Selective  dynamics
Direct
0.0000000000000000  0.0000000000000000  0.0586600976667777  T  T  T
0.0000000000000000  0.0000000000000000  0.1415706171390735  T  T  T
0.0000000000000000  0.0000000000000000  0.2244811366113694  T  T  T
0.3333333333333357  0.6666666666666643  0.0966909102986421  T  T  T
0.3333333333333357  0.6666666666666643  0.1864503239794963  T  T  T
0.6666666666666643  0.3333333333333357  0.0000000000000000  T  T  T
0.6666666666666643  0.3333333333333357  0.2831412342781385  T  T  T

0.00000000E+00  0.00000000E+00  0.00000000E+00
0.00000000E+00  0.00000000E+00  0.00000000E+00
0.00000000E+00  0.00000000E+00  0.00000000E+00
0.00000000E+00  0.00000000E+00  0.00000000E+00
0.00000000E+00  0.00000000E+00  0.00000000E+00
0.00000000E+00  0.00000000E+00  0.00000000E+00
0.00000000E+00  0.00000000E+00  0.00000000E+00
