Mo3N2  (n=2)
1.00000000000000
2.9942079729875903  -0.0000000000000005  0.0000000000000000
-1.4971039864937954  2.5930601691157587  0.0000000000000000
0.0000000000000000  0.0000000000000000  34.3325153296931092
Mo  N  Se
3  2  2
Selective  dynamics
Direct
0.0000000000000000  -0.0000000000000000  0.0535679321269709  T  T  T
0.0000000000000000  -0.0000000000000000  0.1359136556129594  T  T  T
0.0000000000000000  -0.0000000000000000  0.2182593790989477  T  T  T
0.3333333333333357  0.6666666666666643  0.0974850259300740  T  T  T
0.3333333333333357  0.6666666666666643  0.1743422852958378  T  T  T
0.6666666666666643  0.3333333333333357  0.0000000000000000  T  T  T
0.6666666666666643  0.3333333333333357  0.2718273112259186  T  T  T

0.00000000E+00  0.00000000E+00  0.00000000E+00
0.00000000E+00  0.00000000E+00  0.00000000E+00
0.00000000E+00  0.00000000E+00  0.00000000E+00
0.00000000E+00  0.00000000E+00  0.00000000E+00
0.00000000E+00  0.00000000E+00  0.00000000E+00
0.00000000E+00  0.00000000E+00  0.00000000E+00
0.00000000E+00  0.00000000E+00  0.00000000E+00
