Cr3C2  (n=2)
1.00000000000000
2.8865011278535833  0.0000000000000000  0.0000000000000000
-1.4432505639267916  2.4997833046391347  0.0000000000000000
0.0000000000000000  0.0000000000000000  33.5318492296531190
Cr  C  Se
3  2  2
Selective  dynamics
Direct
-0.0000000000000000  0.0000000000000000  0.0518619995091774  T  T  T
-0.0000000000000000  0.0000000000000000  0.1272200821854425  T  T  T
-0.0000000000000000  0.0000000000000000  0.2025781648617209  T  T  T
0.3333333333333357  0.6666666666666643  0.0893649115399485  T  T  T
0.3333333333333357  0.6666666666666643  0.1650752528309365  T  T  T
0.6666666666666643  0.3333333333333357  0.0000000000000000  T  T  T
0.6666666666666643  0.3333333333333357  0.2544401643708983  T  T  T

0.00000000E+00  0.00000000E+00  0.00000000E+00
0.00000000E+00  0.00000000E+00  0.00000000E+00
0.00000000E+00  0.00000000E+00  0.00000000E+00
0.00000000E+00  0.00000000E+00  0.00000000E+00
0.00000000E+00  0.00000000E+00  0.00000000E+00
0.00000000E+00  0.00000000E+00  0.00000000E+00
0.00000000E+00  0.00000000E+00  0.00000000E+00
