Zr3N2  (n=2)
1.00000000000000
3.3604493196461167  0.0000000000000000  0.0000000000000000
-1.6802246598230581  2.9102344806793732  0.0000000000000000
0.0000000000000000  0.0000000000000000  34.2719706559351138
Zr  N  Se
3  2  2
Selective  dynamics
Direct
0.0000000000000000  -0.0000000000000000  0.0519579320384002  T  T  T
0.0000000000000000  -0.0000000000000000  0.1352704626911962  T  T  T
0.0000000000000000  -0.0000000000000000  0.2185829933439991  T  T  T
0.3333333333333357  0.6666666666666643  0.0928498099144412  T  T  T
0.3333333333333357  0.6666666666666643  0.1776911154679581  T  T  T
0.6666666666666643  0.3333333333333357  0.0000000000000000  T  T  T
0.6666666666666643  0.3333333333333357  0.2705409253823992  T  T  T

0.00000000E+00  0.00000000E+00  0.00000000E+00
0.00000000E+00  0.00000000E+00  0.00000000E+00
0.00000000E+00  0.00000000E+00  0.00000000E+00
0.00000000E+00  0.00000000E+00  0.00000000E+00
0.00000000E+00  0.00000000E+00  0.00000000E+00
0.00000000E+00  0.00000000E+00  0.00000000E+00
0.00000000E+00  0.00000000E+00  0.00000000E+00
