Mo3C2  (n=2)
1.00000000000000
3.0395859108891523  0.0000000000000000  0.0000000000000000
-1.5197929554445762  2.6323586161203854  0.0000000000000000
-0.0000000000000000  0.0000000000000000  34.2453453425509053
Mo  C  Se
3  2  2
Selective  dynamics
Direct
-0.0000000000000000  0.0000000000000000  0.0536027158571041  T  T  T
-0.0000000000000000  0.0000000000000000  0.1349868901900521  T  T  T
-0.0000000000000000  0.0000000000000000  0.2163710645230140  T  T  T
0.3333333333333357  0.6666666666666643  0.0948268678840493  T  T  T
0.3333333333333357  0.6666666666666643  0.1751469124960549  T  T  T
0.6666666666666643  0.3333333333333357  0.0000000000000000  T  T  T
0.6666666666666643  0.3333333333333357  0.2699737803801112  T  T  T

0.00000000E+00  0.00000000E+00  0.00000000E+00
0.00000000E+00  0.00000000E+00  0.00000000E+00
0.00000000E+00  0.00000000E+00  0.00000000E+00
0.00000000E+00  0.00000000E+00  0.00000000E+00
0.00000000E+00  0.00000000E+00  0.00000000E+00
0.00000000E+00  0.00000000E+00  0.00000000E+00
0.00000000E+00  0.00000000E+00  0.00000000E+00
