Zr3C2  (n=2)
1.00000000000000
3.3757209823885059  0.0000000000000000  -0.0000000000000000
-1.6878604911942530  2.9234601287024500  0.0000000000000000
-0.0000000000000000  0.0000000000000000  34.6061358236677279
Zr  C  Se
3  2  2
Selective  dynamics
Direct
0.0000000000000000  -0.0000000000000000  0.0552642198716419  T  T  T
0.0000000000000000  -0.0000000000000000  0.1387923787939642  T  T  T
0.0000000000000000  -0.0000000000000000  0.2223205377162863  T  T  T
0.3333333333333357  0.6666666666666643  0.0939747787320122  T  T  T
0.3333333333333357  0.6666666666666643  0.1836099788559160  T  T  T
0.6666666666666643  0.3333333333333357  0.0000000000000000  T  T  T
0.6666666666666643  0.3333333333333357  0.2775847575879283  T  T  T

0.00000000E+00  0.00000000E+00  0.00000000E+00
0.00000000E+00  0.00000000E+00  0.00000000E+00
0.00000000E+00  0.00000000E+00  0.00000000E+00
0.00000000E+00  0.00000000E+00  0.00000000E+00
0.00000000E+00  0.00000000E+00  0.00000000E+00
0.00000000E+00  0.00000000E+00  0.00000000E+00
0.00000000E+00  0.00000000E+00  0.00000000E+00
