Hf3N2  (n=2)
1.00000000000000
3.3162042038063535  0.0000000000000000  0.0000000000000000
-1.6581021019031768  2.8719170858538865  0.0000000000000000
0.0000000000000000  0.0000000000000000  34.1558628302711185
Hf  N  Se
3  2  2
Selective  dynamics
Direct
-0.0000000000000000  -0.0000000000000000  0.0513491181560870  T  T  T
-0.0000000000000000  -0.0000000000000000  0.1340306183417009  T  T  T
-0.0000000000000000  -0.0000000000000000  0.2167121185273149  T  T  T
0.3333333333333357  0.6666666666666643  0.0918027036199308  T  T  T
0.3333333333333357  0.6666666666666643  0.1762585330634777  T  T  T
0.6666666666666643  0.3333333333333357  0.0000000000000000  T  T  T
0.6666666666666643  0.3333333333333357  0.2680612366834020  T  T  T

0.00000000E+00  0.00000000E+00  0.00000000E+00
0.00000000E+00  0.00000000E+00  0.00000000E+00
0.00000000E+00  0.00000000E+00  0.00000000E+00
0.00000000E+00  0.00000000E+00  0.00000000E+00
0.00000000E+00  0.00000000E+00  0.00000000E+00
0.00000000E+00  0.00000000E+00  0.00000000E+00
0.00000000E+00  0.00000000E+00  0.00000000E+00
