Sc3N2  (n=2)
1.00000000000000
3.2413780369744454  0.0000000000000000  0.0000000000000000
-1.6206890184872227  2.8071157240422813  0.0000000000000000
0.0000000000000000  0.0000000000000000  34.3585880030922368
Sc  N  Se
3  2  2
Selective  dynamics
Direct
0.0000000000000000  0.0000000000000000  0.0560676330958874  T  T  T
0.0000000000000000  0.0000000000000000  0.1361899389207979  T  T  T
0.0000000000000000  0.0000000000000000  0.2163122447457085  T  T  T
0.3333333333333357  0.6666666666666643  0.0942163539780520  T  T  T
0.3333333333333357  0.6666666666666643  0.1781635238635440  T  T  T
0.6666666666666643  0.3333333333333357  0.0000000000000000  T  T  T
0.6666666666666643  0.3333333333333357  0.2723798778416033  T  T  T

0.00000000E+00  0.00000000E+00  0.00000000E+00
0.00000000E+00  0.00000000E+00  0.00000000E+00
0.00000000E+00  0.00000000E+00  0.00000000E+00
0.00000000E+00  0.00000000E+00  0.00000000E+00
0.00000000E+00  0.00000000E+00  0.00000000E+00
0.00000000E+00  0.00000000E+00  0.00000000E+00
0.00000000E+00  0.00000000E+00  0.00000000E+00
