Ta3C2  (n=2)
1.00000000000000
3.2091068903825390  0.0000000000000003  0.0000000000000000
-1.6045534451912695  2.7791680916178052  -0.0000000000000000
-0.0000000000000000  0.0000000000000000  34.1640839244061993
Ta  C  Se
3  2  2
Selective  dynamics
Direct
-0.0000000000000000  0.0000000000000000  0.0528447834869314  T  T  T
0.0000000000000000  0.0000000000000000  0.1341186835959519  T  T  T
0.0000000000000000  0.0000000000000000  0.2153925837049793  T  T  T
0.3333333333333357  0.6666666666666643  0.0918147548158133  T  T  T
0.3333333333333357  0.6666666666666643  0.1764226123760906  T  T  T
0.6666666666666643  0.3333333333333357  0.0000000000000000  T  T  T
0.6666666666666643  0.3333333333333357  0.2682373671919107  T  T  T

0.00000000E+00  0.00000000E+00  0.00000000E+00
0.00000000E+00  0.00000000E+00  0.00000000E+00
0.00000000E+00  0.00000000E+00  0.00000000E+00
0.00000000E+00  0.00000000E+00  0.00000000E+00
0.00000000E+00  0.00000000E+00  0.00000000E+00
0.00000000E+00  0.00000000E+00  0.00000000E+00
0.00000000E+00  0.00000000E+00  0.00000000E+00
