Ti3N2  (n=2)
1.00000000000000
3.1145065417188640  0.0000000000000000  0.0000000000000000
-1.5572532708594318  2.6972417857346014  0.0000000000000000
0.0000000000000000  0.0000000000000000  33.6628633989021182
Ti  N  Se
3  2  2
Selective  dynamics
Direct
0.0000000000000000  0.0000000000000000  0.0517223189727053  T  T  T
0.0000000000000000  0.0000000000000000  0.1286709228541837  T  T  T
0.0000000000000000  0.0000000000000000  0.2056195267356621  T  T  T
0.3333333333333357  0.6666666666666643  0.0887079107441124  T  T  T
0.3333333333333357  0.6666666666666643  0.1686339349642482  T  T  T
0.6666666666666643  0.3333333333333357  0.0000000000000000  T  T  T
0.6666666666666643  0.3333333333333357  0.2573418457083674  T  T  T

0.00000000E+00  0.00000000E+00  0.00000000E+00
0.00000000E+00  0.00000000E+00  0.00000000E+00
0.00000000E+00  0.00000000E+00  0.00000000E+00
0.00000000E+00  0.00000000E+00  0.00000000E+00
0.00000000E+00  0.00000000E+00  0.00000000E+00
0.00000000E+00  0.00000000E+00  0.00000000E+00
0.00000000E+00  0.00000000E+00  0.00000000E+00
