Nb3C2  (n=2)
1.00000000000000
3.2183006855209100  0.0000000000000001  0.0000000000000000
-1.6091503427604552  2.7871301520768497  0.0000000000000000
0.0000000000000000  0.0000000000000000  34.2238616108483242
Nb  C  Se
3  2  2
Selective  dynamics
Direct
0.0000000000000000  0.0000000000000000  0.0530472317511854  T  T  T
0.0000000000000000  0.0000000000000000  0.1347577563825313  T  T  T
0.0000000000000000  0.0000000000000000  0.2164682810138771  T  T  T
0.3333333333333357  0.6666666666666643  0.0927681502665762  T  T  T
0.3333333333333357  0.6666666666666643  0.1767473624984864  T  T  T
0.6666666666666643  0.3333333333333357  0.0000000000000000  T  T  T
0.6666666666666643  0.3333333333333357  0.2695155127650625  T  T  T

0.00000000E+00  0.00000000E+00  0.00000000E+00
0.00000000E+00  0.00000000E+00  0.00000000E+00
0.00000000E+00  0.00000000E+00  0.00000000E+00
0.00000000E+00  0.00000000E+00  0.00000000E+00
0.00000000E+00  0.00000000E+00  0.00000000E+00
0.00000000E+00  0.00000000E+00  0.00000000E+00
0.00000000E+00  0.00000000E+00  0.00000000E+00
