Cr3N2  (n=2)
1.00000000000000
2.8456680704105417  -0.0000000000000001  0.0000000000000000
-1.4228340352052711  2.4644208396588101  0.0000000000000000
0.0000000000000000  0.0000000000000000  33.5680814626932431
Cr  N  Se
3  2  2
Selective  dynamics
Direct
-0.0000000000000000  -0.0000000000000000  0.0526712341706398  T  T  T
-0.0000000000000000  -0.0000000000000000  0.1276224480123418  T  T  T
-0.0000000000000000  0.0000000000000000  0.2025736618540437  T  T  T
0.3333333333333357  0.6666666666666643  0.0900811593161303  T  T  T
0.3333333333333357  0.6666666666666643  0.1651637367085531  T  T  T
0.6666666666666643  0.3333333333333357  0.0000000000000000  T  T  T
0.6666666666666643  0.3333333333333357  0.2552448960246835  T  T  T

0.00000000E+00  0.00000000E+00  0.00000000E+00
0.00000000E+00  0.00000000E+00  0.00000000E+00
0.00000000E+00  0.00000000E+00  0.00000000E+00
0.00000000E+00  0.00000000E+00  0.00000000E+00
0.00000000E+00  0.00000000E+00  0.00000000E+00
0.00000000E+00  0.00000000E+00  0.00000000E+00
0.00000000E+00  0.00000000E+00  0.00000000E+00
