Cr2N  (n=1)
1.00000000000000
3.1702017782627303  0.0000000000000000  0.0000000000000000
-1.5851008891313652  2.7454752751474598  0.0000000000000000
0.0000000000000000  0.0000000000000000  31.1045332590484662
Cr  N  Te
2  1  2
Selective  dynamics
Direct
0.0000000000000000  0.0000000000000000  0.0675953935939995  T  T  T
0.6666666666666643  0.3333333333333357  0.1286632420269875  T  T  T
0.3333333333333357  0.6666666666666643  0.0981293178104982  T  T  T
0.3333333333333357  0.6666666666666643  0.0000000000000000  T  T  T
0.3333333333333357  0.6666666666666643  0.1962586356209870  T  T  T

0.00000000E+00  0.00000000E+00  0.00000000E+00
0.00000000E+00  0.00000000E+00  0.00000000E+00
0.00000000E+00  0.00000000E+00  0.00000000E+00
0.00000000E+00  0.00000000E+00  0.00000000E+00
0.00000000E+00  0.00000000E+00  0.00000000E+00
