Ti2C  (n=1)
1.00000000000000
3.2435719238541316  0.0000000000000000  0.0000000000000000
-1.6217859619270658  2.8090156851110675  0.0000000000000000
0.0000000000000000  -0.0000000000000001  31.6920583828240368
Ti  C  Te
2  1  2
Selective  dynamics
Direct
0.0000000000000000  0.0000000000000000  0.0704007310747485  T  T  T
0.6666666666666643  0.3333333333333357  0.1407581120015628  T  T  T
0.3333333333333357  0.6666666666666643  0.1055794215381599  T  T  T
0.3333333333333357  0.6666666666666643  0.0000000000000000  T  T  T
0.3333333333333357  0.6666666666666643  0.2111588430763113  T  T  T

0.00000000E+00  0.00000000E+00  0.00000000E+00
0.00000000E+00  0.00000000E+00  0.00000000E+00
0.00000000E+00  0.00000000E+00  0.00000000E+00
0.00000000E+00  0.00000000E+00  0.00000000E+00
0.00000000E+00  0.00000000E+00  0.00000000E+00
