Mo2N  (n=1)
1.00000000000000
3.2359648784270121  -0.0000000000000001  0.0000000000000001
-1.6179824392135058  2.8024277905153210  -0.0000000000000002
0.0000000000000000  -0.0000000000000017  31.4750057804371899
Mo  N  Te
2  1  2
Selective  dynamics
Direct
-0.0000000000000000  0.0000000000000000  0.0646713710820052  T  T  T
0.6666666666666643  0.3333333333333357  0.1410475992529147  T  T  T
0.3333333333333357  0.6666666666666643  0.1028594851674648  T  T  T
0.3333333333333357  0.6666666666666643  0.0000000000000000  T  T  T
0.3333333333333357  0.6666666666666643  0.2057189703349199  T  T  T

0.00000000E+00  0.00000000E+00  0.00000000E+00
0.00000000E+00  0.00000000E+00  0.00000000E+00
0.00000000E+00  0.00000000E+00  0.00000000E+00
0.00000000E+00  0.00000000E+00  0.00000000E+00
0.00000000E+00  0.00000000E+00  0.00000000E+00
