Zr2C  (n=1)
1.00000000000000
3.4205441160295496  -0.0000000000000006  0.0000000000000002
-1.7102720580147748  2.9622780993094500  0.0000000000000000
0.0000000000000003  -0.0000000000000016  32.1543910333758163
Zr  C  Te
2  1  2
Selective  dynamics
Direct
0.0000000000000000  -0.0000000000000000  0.0721383003428732  T  T  T
0.6666666666666643  0.3333333333333357  0.1503629134400089  T  T  T
0.3333333333333357  0.6666666666666643  0.1112506068914452  T  T  T
0.3333333333333357  0.6666666666666643  0.0000000000000000  T  T  T
0.3333333333333357  0.6666666666666643  0.2225012137828906  T  T  T

0.00000000E+00  0.00000000E+00  0.00000000E+00
0.00000000E+00  0.00000000E+00  0.00000000E+00
0.00000000E+00  0.00000000E+00  0.00000000E+00
0.00000000E+00  0.00000000E+00  0.00000000E+00
0.00000000E+00  0.00000000E+00  0.00000000E+00
