Sc2C  (n=1)
1.00000000000000
3.3629205886211988  0.0000000000000000  0.0000000000000000
-1.6814602943105994  2.9123746607447312  0.0000000000000000
0.0000000000000000  0.0000000000000001  32.3393508155011489
Sc  C  Te
2  1  2
Selective  dynamics
Direct
0.0000000000000000  -0.0000000000000000  0.0754160169663601  T  T  T
0.6666666666666643  0.3333333333333357  0.1515319776725177  T  T  T
0.3333333333333357  0.6666666666666643  0.1134739973194388  T  T  T
0.3333333333333357  0.6666666666666643  0.0000000000000000  T  T  T
0.3333333333333357  0.6666666666666643  0.2269479946388779  T  T  T

0.00000000E+00  0.00000000E+00  0.00000000E+00
0.00000000E+00  0.00000000E+00  0.00000000E+00
0.00000000E+00  0.00000000E+00  0.00000000E+00
0.00000000E+00  0.00000000E+00  0.00000000E+00
0.00000000E+00  0.00000000E+00  0.00000000E+00
