Cr2C  (n=1)
1.00000000000000
3.1928176696644495  0.0000000000000000  0.0000000000000000
-1.5964088348322247  2.7650612115893138  0.0000000000000000
0.0000000000000000  -0.0000000000000001  30.9443375505449403
Cr  C  Te
2  1  2
Selective  dynamics
Direct
-0.0000000000000000  0.0000000000000000  0.0646376693278992  T  T  T
0.6666666666666643  0.3333333333333357  0.1274600784695989  T  T  T
0.3333333333333357  0.6666666666666643  0.0960488738987443  T  T  T
0.3333333333333357  0.6666666666666643  0.0000000000000000  T  T  T
0.3333333333333357  0.6666666666666643  0.1920977477974886  T  T  T

0.00000000E+00  0.00000000E+00  0.00000000E+00
0.00000000E+00  0.00000000E+00  0.00000000E+00
0.00000000E+00  0.00000000E+00  0.00000000E+00
0.00000000E+00  0.00000000E+00  0.00000000E+00
0.00000000E+00  0.00000000E+00  0.00000000E+00
