Nb2N  (n=1)
1.00000000000000
3.3524924503404199  0.0000000000000000  0.0000000000000000
-1.6762462251702099  2.9033436280533431  0.0000000000000000
0.0000000000000000  0.0000000000000000  31.4947100465708303
Nb  N  Te
2  1  2
Selective  dynamics
Direct
0.0000000000000000  0.0000000000000000  0.0643815460427408  T  T  T
0.6666666666666643  0.3333333333333357  0.1418343561505858  T  T  T
0.3333333333333357  0.6666666666666643  0.1031079510966633  T  T  T
0.3333333333333357  0.6666666666666643  0.0000000000000000  T  T  T
0.3333333333333357  0.6666666666666643  0.2062159021933266  T  T  T

0.00000000E+00  0.00000000E+00  0.00000000E+00
0.00000000E+00  0.00000000E+00  0.00000000E+00
0.00000000E+00  0.00000000E+00  0.00000000E+00
0.00000000E+00  0.00000000E+00  0.00000000E+00
0.00000000E+00  0.00000000E+00  0.00000000E+00
