Hf2C  (n=1)
1.00000000000000
3.3918987916109948  0.0000000000000004  0.0000000000000000
-1.6959493958054974  2.9374705206607707  0.0000000000000000
-0.0000000000000001  -0.0000000000000026  32.0341239696882099
Hf  C  Te
2  1  2
Selective  dynamics
Direct
0.0000000000000000  0.0000000000000000  0.0714100904488899  T  T  T
0.6666666666666643  0.3333333333333357  0.1481721268249192  T  T  T
0.3333333333333357  0.6666666666666643  0.1097911086369045  T  T  T
0.3333333333333357  0.6666666666666643  0.0000000000000000  T  T  T
0.3333333333333357  0.6666666666666643  0.2195822172738091  T  T  T

0.00000000E+00  0.00000000E+00  0.00000000E+00
0.00000000E+00  0.00000000E+00  0.00000000E+00
0.00000000E+00  0.00000000E+00  0.00000000E+00
0.00000000E+00  0.00000000E+00  0.00000000E+00
0.00000000E+00  0.00000000E+00  0.00000000E+00
