Hf2N  (n=1)
1.00000000000000
3.4376571297436751  -0.0000000000000003  0.0000000000000000
-1.7188285648718378  2.9770984039177399  0.0000000000000000
0.0000000000000000  0.0000000000000000  31.6503484562340880
Hf  N  Te
2  1  2
Selective  dynamics
Direct
-0.0000000000000000  0.0000000000000000  0.0676943771035000  T  T  T
0.6666666666666643  0.3333333333333357  0.1424249037451816  T  T  T
0.3333333333333357  0.6666666666666643  0.1050596404243446  T  T  T
0.3333333333333357  0.6666666666666643  0.0000000000000000  T  T  T
0.3333333333333357  0.6666666666666643  0.2101192808486816  T  T  T

0.00000000E+00  0.00000000E+00  0.00000000E+00
0.00000000E+00  0.00000000E+00  0.00000000E+00
0.00000000E+00  0.00000000E+00  0.00000000E+00
0.00000000E+00  0.00000000E+00  0.00000000E+00
0.00000000E+00  0.00000000E+00  0.00000000E+00
