Ti2N  (n=1)
1.00000000000000
3.2769518991080688  0.0000000000000000  0.0000000000000000
-1.6384759495540344  2.8379235916459349  0.0000000000000000
0.0000000000000000  0.0000000000000000  31.3398281607967277
Ti  N  Te
2  1  2
Selective  dynamics
Direct
0.0000000000000000  0.0000000000000000  0.0673287673394418  T  T  T
0.6666666666666643  0.3333333333333357  0.1349642423180674  T  T  T
0.3333333333333357  0.6666666666666643  0.1011465048287546  T  T  T
0.3333333333333357  0.6666666666666643  0.0000000000000000  T  T  T
0.3333333333333357  0.6666666666666643  0.2022930096575092  T  T  T

0.00000000E+00  0.00000000E+00  0.00000000E+00
0.00000000E+00  0.00000000E+00  0.00000000E+00
0.00000000E+00  0.00000000E+00  0.00000000E+00
0.00000000E+00  0.00000000E+00  0.00000000E+00
0.00000000E+00  0.00000000E+00  0.00000000E+00
