Ta2N  (n=1)
1.00000000000000
3.3332787511538662  0.0000000000000000  0.0000000000000000
-1.6666393755769331  2.8867040764522409  0.0000000000000000
0.0000000000000000  0.0000000000000000  31.4867337324699541
Ta  N  Te
2  1  2
Selective  dynamics
Direct
-0.0000000000000000  0.0000000000000000  0.0640276727832737  T  T  T
0.6666666666666643  0.3333333333333357  0.1419871456347023  T  T  T
0.3333333333333357  0.6666666666666643  0.1030074092089880  T  T  T
0.3333333333333357  0.6666666666666643  0.0000000000000000  T  T  T
0.3333333333333357  0.6666666666666643  0.2060148184179759  T  T  T

0.00000000E+00  0.00000000E+00  0.00000000E+00
0.00000000E+00  0.00000000E+00  0.00000000E+00
0.00000000E+00  0.00000000E+00  0.00000000E+00
0.00000000E+00  0.00000000E+00  0.00000000E+00
0.00000000E+00  0.00000000E+00  0.00000000E+00
