Nb2C  (n=1)
1.00000000000000
3.3934841582090169  0.0000000000000000  0.0000000000000000
-1.6967420791045085  2.9388434884188923  0.0000000000000000
0.0000000000000000  0.0000000000000000  31.4361394599563155
Nb  C  Te
2  1  2
Selective  dynamics
Direct
-0.0000000000000000  -0.0000000000000000  0.0652506447490639  T  T  T
0.6666666666666643  0.3333333333333357  0.1394863099318522  T  T  T
0.3333333333333357  0.6666666666666643  0.1023684773404625  T  T  T
0.3333333333333357  0.6666666666666643  0.0000000000000000  T  T  T
0.3333333333333357  0.6666666666666643  0.2047369546809251  T  T  T

0.00000000E+00  0.00000000E+00  0.00000000E+00
0.00000000E+00  0.00000000E+00  0.00000000E+00
0.00000000E+00  0.00000000E+00  0.00000000E+00
0.00000000E+00  0.00000000E+00  0.00000000E+00
0.00000000E+00  0.00000000E+00  0.00000000E+00
