Ta2C  (n=1)
1.00000000000000
3.3841660633191335  0.0000000000000000  0.0000000000000002
-1.6920830316595667  2.9307737815149806  -0.0000000000000006
0.0000000000000008  -0.0000000000000009  31.4003812490809295
Ta  C  Te
2  1  2
Selective  dynamics
Direct
-0.0000000000000000  0.0000000000000000  0.0649835252929167  T  T  T
0.6666666666666643  0.3333333333333357  0.1388477975916826  T  T  T
0.3333333333333357  0.6666666666666643  0.1019156614422940  T  T  T
0.3333333333333357  0.6666666666666643  0.0000000000000000  T  T  T
0.3333333333333357  0.6666666666666643  0.2038313228845992  T  T  T

0.00000000E+00  0.00000000E+00  0.00000000E+00
0.00000000E+00  0.00000000E+00  0.00000000E+00
0.00000000E+00  0.00000000E+00  0.00000000E+00
0.00000000E+00  0.00000000E+00  0.00000000E+00
0.00000000E+00  0.00000000E+00  0.00000000E+00
