Zr2N  (n=1)
1.00000000000000
3.4760051668203151  0.0000000000000003  -0.0000000000000001
-1.7380025834101576  3.0103087782142182  0.0000000000000002
-0.0000000000000002  0.0000000000000005  31.7314269024594253
Zr  N  Te
2  1  2
Selective  dynamics
Direct
0.0000000000000000  0.0000000000000000  0.0684764092593478  T  T  T
0.6666666666666643  0.3333333333333357  0.1436611325899728  T  T  T
0.3333333333333357  0.6666666666666643  0.1060687709246648  T  T  T
0.3333333333333357  0.6666666666666643  0.0000000000000000  T  T  T
0.3333333333333357  0.6666666666666643  0.2121375418493295  T  T  T

0.00000000E+00  0.00000000E+00  0.00000000E+00
0.00000000E+00  0.00000000E+00  0.00000000E+00
0.00000000E+00  0.00000000E+00  0.00000000E+00
0.00000000E+00  0.00000000E+00  0.00000000E+00
0.00000000E+00  0.00000000E+00  0.00000000E+00
