Mo2C  (n=1)
1.00000000000000
3.2637795658457240  0.0000000000000000  0.0000000000000000
-1.6318897829228620  2.8265160164138616  0.0000000000000000
0.0000000000000000  0.0000000000000000  31.4867342424311509
Mo  C  Te
2  1  2
Selective  dynamics
Direct
0.0000000000000000  -0.0000000000000000  0.0681025874422666  T  T  T
0.6666666666666643  0.3333333333333357  0.1379122438351450  T  T  T
0.3333333333333357  0.6666666666666643  0.1030074156387057  T  T  T
0.3333333333333357  0.6666666666666643  0.0000000000000000  T  T  T
0.3333333333333357  0.6666666666666643  0.2060148312774115  T  T  T

0.00000000E+00  0.00000000E+00  0.00000000E+00
0.00000000E+00  0.00000000E+00  0.00000000E+00
0.00000000E+00  0.00000000E+00  0.00000000E+00
0.00000000E+00  0.00000000E+00  0.00000000E+00
0.00000000E+00  0.00000000E+00  0.00000000E+00
