Sc2N
1.00000000000000
3.3312127704456720  0.0000000000000000  0.0000000000000002
-1.6656063852228362  2.8849148846742403  0.0000000000000000
0.0000000000000004  0.0000000000000005  32.0965106085347642
Sc  N  Te
2  1  2
Selective  dynamics
Direct
0.0000000000000000  0.0000000000000000  0.0729838061761192  T  T  T
0.6666666666666643  0.3333333333333357  0.1481153249751657  T  T  T
0.3333333333333357  0.6666666666666643  0.1105495655756383  T  T  T
0.3333333333333357  0.6666666666666643  0.0000000000000000  T  T  T
0.3333333333333357  0.6666666666666643  0.2210991311512765  T  T  T

0.00000000E+00  0.00000000E+00  0.00000000E+00
0.00000000E+00  0.00000000E+00  0.00000000E+00
0.00000000E+00  0.00000000E+00  0.00000000E+00
0.00000000E+00  0.00000000E+00  0.00000000E+00
0.00000000E+00  0.00000000E+00  0.00000000E+00
