Ta2C  (n=1)
1.00000000000000
3.3141265818242394  0.0000000000000000  0.0000000000000000
-1.6570632909121197  2.8701178112774519  0.0000000000000000
0.0000000000000000  0.0000000000000000  31.8910346481795131
Ta  C  Te
2  1  2
Selective  dynamics
Direct
-0.0000000000000000  0.0000000000000000  0.0652732140282140  T  T  T
-0.0000000000000000  0.0000000000000000  0.1508074093883976  T  T  T
0.3333333333333357  0.6666666666666643  0.1080403117083077  T  T  T
0.3333333333333357  0.6666666666666643  0.0000000000000000  T  T  T
0.3333333333333357  0.6666666666666643  0.2160806234166155  T  T  T

0.00000000E+00  0.00000000E+00  0.00000000E+00
0.00000000E+00  0.00000000E+00  0.00000000E+00
0.00000000E+00  0.00000000E+00  0.00000000E+00
0.00000000E+00  0.00000000E+00  0.00000000E+00
0.00000000E+00  0.00000000E+00  0.00000000E+00
