Ti2C  (n=1)
1.00000000000000
3.2323802172860114  0.0000000000000000  0.0000000000000000
-1.6161901086430057  2.7993233829166408  0.0000000000000000
0.0000000000000000  0.0000000000000000  31.9247445902009517
Ti  C  Te
2  1  2
Selective  dynamics
Direct
-0.0000000000000000  -0.0000000000000000  0.0685900971517856  T  T  T
-0.0000000000000000  -0.0000000000000000  0.1483182815710364  T  T  T
0.3333333333333357  0.6666666666666643  0.1084541893614066  T  T  T
0.3333333333333357  0.6666666666666643  0.0000000000000000  T  T  T
0.3333333333333357  0.6666666666666643  0.2169083787228308  T  T  T

0.00000000E+00  0.00000000E+00  0.00000000E+00
0.00000000E+00  0.00000000E+00  0.00000000E+00
0.00000000E+00  0.00000000E+00  0.00000000E+00
0.00000000E+00  0.00000000E+00  0.00000000E+00
0.00000000E+00  0.00000000E+00  0.00000000E+00
