Ta2N  (n=1)
1.00000000000000
3.3049447551787061  0.0000000000000000  0.0000000000000000
-1.6524723775893531  2.8621661161332206  0.0000000000000000
0.0000000000000000  0.0000000000000000  31.7635457587318193
Ta  N  Te
2  1  2
Selective  dynamics
Direct
-0.0000000000000000  0.0000000000000000  0.0628980976568724  T  T  T
-0.0000000000000000  0.0000000000000000  0.1500361197666580  T  T  T
0.3333333333333357  0.6666666666666643  0.1064671087117671  T  T  T
0.3333333333333357  0.6666666666666643  0.0000000000000000  T  T  T
0.3333333333333357  0.6666666666666643  0.2129342174235229  T  T  T

0.00000000E+00  0.00000000E+00  0.00000000E+00
0.00000000E+00  0.00000000E+00  0.00000000E+00
0.00000000E+00  0.00000000E+00  0.00000000E+00
0.00000000E+00  0.00000000E+00  0.00000000E+00
0.00000000E+00  0.00000000E+00  0.00000000E+00
