Sc2N  (n=1)
1.00000000000000
3.3198727499539356  0.0000000000000000  0.0000000000000000
-1.6599363749769678  2.8750941388782385  0.0000000000000000
0.0000000000000000  0.0000000000000000  32.2747229152307185
Sc  N  Te
2  1  2
Selective  dynamics
Direct
0.0000000000000000  0.0000000000000000  0.0708048657993929  T  T  T
0.0000000000000000  0.0000000000000000  0.1545951456689537  T  T  T
0.3333333333333357  0.6666666666666643  0.1127000057341690  T  T  T
0.3333333333333357  0.6666666666666643  0.0000000000000000  T  T  T
0.3333333333333357  0.6666666666666643  0.2254000114683467  T  T  T

0.00000000E+00  0.00000000E+00  0.00000000E+00
0.00000000E+00  0.00000000E+00  0.00000000E+00
0.00000000E+00  0.00000000E+00  0.00000000E+00
0.00000000E+00  0.00000000E+00  0.00000000E+00
0.00000000E+00  0.00000000E+00  0.00000000E+00
