Sc2C  (n=1)
1.00000000000000
3.3337998776667739  0.0000000000000000  0.0000000000000000
-1.6668999388333869  2.8871553852965839  0.0000000000000000
0.0000000000000000  0.0000000000000000  32.5465620866742285
Sc  C  Te
2  1  2
Selective  dynamics
Direct
-0.0000000000000000  0.0000000000000000  0.0748324129628728  T  T  T
-0.0000000000000000  0.0000000000000000  0.1570373023876263  T  T  T
0.3333333333333357  0.6666666666666643  0.1159348576752455  T  T  T
0.3333333333333357  0.6666666666666643  0.0000000000000000  T  T  T
0.3333333333333357  0.6666666666666643  0.2318697153504909  T  T  T

0.00000000E+00  0.00000000E+00  0.00000000E+00
0.00000000E+00  0.00000000E+00  0.00000000E+00
0.00000000E+00  0.00000000E+00  0.00000000E+00
0.00000000E+00  0.00000000E+00  0.00000000E+00
0.00000000E+00  0.00000000E+00  0.00000000E+00
