Mo2N  (n=1)
1.00000000000000
3.2032749350515264  0.0000000000000000  0.0000000000000000
-1.6016374675257632  2.7741174690890578  0.0000000000000000
0.0000000000000000  0.0000000000000000  31.7010790799747930
Mo  N  Te
2  1  2
Selective  dynamics
Direct
-0.0000000000000000  0.0000000000000000  0.0648033513348833  T  T  T
-0.0000000000000000  0.0000000000000000  0.1465799603520502  T  T  T
0.3333333333333357  0.6666666666666643  0.1056916558434724  T  T  T
0.3333333333333357  0.6666666666666643  0.0000000000000000  T  T  T
0.3333333333333357  0.6666666666666643  0.2113833116869447  T  T  T

0.00000000E+00  0.00000000E+00  0.00000000E+00
0.00000000E+00  0.00000000E+00  0.00000000E+00
0.00000000E+00  0.00000000E+00  0.00000000E+00
0.00000000E+00  0.00000000E+00  0.00000000E+00
0.00000000E+00  0.00000000E+00  0.00000000E+00
