Ti2N  (n=1)
1.00000000000000
3.2064717624057808  0.0000000000000000  0.0000000000000000
-1.6032358812028904  2.7768860027960849  0.0000000000000000
0.0000000000000000  0.0000000000000000  31.8415443057129863
Ti  N  Te
2  1  2
Selective  dynamics
Direct
0.0000000000000000  0.0000000000000000  0.0669221816242799  T  T  T
0.0000000000000000  -0.0000000000000000  0.1479400197823737  T  T  T
0.3333333333333357  0.6666666666666643  0.1074311007033211  T  T  T
0.3333333333333357  0.6666666666666643  0.0000000000000000  T  T  T
0.3333333333333357  0.6666666666666643  0.2148622014066535  T  T  T

0.00000000E+00  0.00000000E+00  0.00000000E+00
0.00000000E+00  0.00000000E+00  0.00000000E+00
0.00000000E+00  0.00000000E+00  0.00000000E+00
0.00000000E+00  0.00000000E+00  0.00000000E+00
0.00000000E+00  0.00000000E+00  0.00000000E+00
