Zr2N  (n=1)
1.00000000000000
3.3542461796340888  0.0000000000000000  0.0000000000000000
-1.6771230898170444  2.9048624021977623  0.0000000000000000
0.0000000000000000  0.0000000000000000  32.3730314928640084
Zr  N  Te
2  1  2
Selective  dynamics
Direct
0.0000000000000000  0.0000000000000000  0.0693895779106900  T  T  T
0.0000000000000000  0.0000000000000000  0.1583626946711644  T  T  T
0.3333333333333357  0.6666666666666643  0.1138761362909317  T  T  T
0.3333333333333357  0.6666666666666643  0.0000000000000000  T  T  T
0.3333333333333357  0.6666666666666643  0.2277522725818634  T  T  T

0.00000000E+00  0.00000000E+00  0.00000000E+00
0.00000000E+00  0.00000000E+00  0.00000000E+00
0.00000000E+00  0.00000000E+00  0.00000000E+00
0.00000000E+00  0.00000000E+00  0.00000000E+00
0.00000000E+00  0.00000000E+00  0.00000000E+00
