Mo2C  (n=1)
1.00000000000000
3.2347785462269742  0.0000000000000000  0.0000000000000000
-1.6173892731134871  2.8014003966817853  0.0000000000000000
0.0000000000000000  0.0000000000000000  31.6341468758407487
Mo  C  Te
2  1  2
Selective  dynamics
Direct
0.0000000000000000  0.0000000000000000  0.0621222133033093  T  T  T
0.0000000000000000  0.0000000000000000  0.1475925263379642  T  T  T
0.3333333333333357  0.6666666666666643  0.1048573698206321  T  T  T
0.3333333333333357  0.6666666666666643  0.0000000000000000  T  T  T
0.3333333333333357  0.6666666666666643  0.2097147396412735  T  T  T

0.00000000E+00  0.00000000E+00  0.00000000E+00
0.00000000E+00  0.00000000E+00  0.00000000E+00
0.00000000E+00  0.00000000E+00  0.00000000E+00
0.00000000E+00  0.00000000E+00  0.00000000E+00
0.00000000E+00  0.00000000E+00  0.00000000E+00
