Zr2C  (n=1)
1.00000000000000
3.3901987180831874  0.0000000000000000  0.0000000000000000
-1.6950993590415937  2.9359982138517675  0.0000000000000000
0.0000000000000000  0.0000000000000000  32.4415940901799331
Zr  C  Te
2  1  2
Selective  dynamics
Direct
-0.0000000000000000  -0.0000000000000000  0.0706635482945996  T  T  T
-0.0000000000000000  -0.0000000000000000  0.1587208053069464  T  T  T
0.3333333333333357  0.6666666666666643  0.1146921768007687  T  T  T
0.3333333333333357  0.6666666666666643  0.0000000000000000  T  T  T
0.3333333333333357  0.6666666666666643  0.2293843536015544  T  T  T

0.00000000E+00  0.00000000E+00  0.00000000E+00
0.00000000E+00  0.00000000E+00  0.00000000E+00
0.00000000E+00  0.00000000E+00  0.00000000E+00
0.00000000E+00  0.00000000E+00  0.00000000E+00
0.00000000E+00  0.00000000E+00  0.00000000E+00
