Cr2C  (n=1)
1.00000000000000
3.1295794212880677  0.0000000000000001  0.0000000000000000
-1.5647897106440338  2.7102952820323600  0.0000000000000000
0.0000000000000000  0.0000000000000000  31.1822063006656762
Cr  C  Te
2  1  2
Selective  dynamics
Direct
0.0000000000000000  0.0000000000000000  0.0601591997791107  T  T  T
0.0000000000000000  0.0000000000000000  0.1381015083008593  T  T  T
0.3333333333333357  0.6666666666666643  0.0991303540399801  T  T  T
0.3333333333333357  0.6666666666666643  0.0000000000000000  T  T  T
0.3333333333333357  0.6666666666666643  0.1982607080799700  T  T  T

0.00000000E+00  0.00000000E+00  0.00000000E+00
0.00000000E+00  0.00000000E+00  0.00000000E+00
0.00000000E+00  0.00000000E+00  0.00000000E+00
0.00000000E+00  0.00000000E+00  0.00000000E+00
0.00000000E+00  0.00000000E+00  0.00000000E+00
