Hf2C  (n=1)
1.00000000000000
3.3728942548726568  0.0000000000000000  0.0000000000000000
-1.6864471274363284  2.9210121090992436  0.0000000000000000
0.0000000000000000  0.0000000000000000  32.2811740168402608
Hf  C  Te
2  1  2
Selective  dynamics
Direct
0.0000000000000000  0.0000000000000000  0.0691931155234978  T  T  T
-0.0000000000000000  -0.0000000000000000  0.1563616927694589  T  T  T
0.3333333333333357  0.6666666666666643  0.1127774041464784  T  T  T
0.3333333333333357  0.6666666666666643  0.0000000000000000  T  T  T
0.3333333333333357  0.6666666666666643  0.2255548082929653  T  T  T

0.00000000E+00  0.00000000E+00  0.00000000E+00
0.00000000E+00  0.00000000E+00  0.00000000E+00
0.00000000E+00  0.00000000E+00  0.00000000E+00
0.00000000E+00  0.00000000E+00  0.00000000E+00
0.00000000E+00  0.00000000E+00  0.00000000E+00
