Nb2N  (n=1)
1.00000000000000
3.3242985656835589  0.0000000000000000  0.0000000000000000
-1.6621492828417794  2.8789270076978637  0.0000000000000000
0.0000000000000000  0.0000000000000000  31.7596651459183512
Nb  N  Te
2  1  2
Selective  dynamics
Direct
0.0000000000000000  0.0000000000000000  0.0630049577400373  T  T  T
0.0000000000000000  0.0000000000000000  0.1498330906103195  T  T  T
0.3333333333333357  0.6666666666666643  0.1064190241751841  T  T  T
0.3333333333333357  0.6666666666666643  0.0000000000000000  T  T  T
0.3333333333333357  0.6666666666666643  0.2128380483503644  T  T  T

0.00000000E+00  0.00000000E+00  0.00000000E+00
0.00000000E+00  0.00000000E+00  0.00000000E+00
0.00000000E+00  0.00000000E+00  0.00000000E+00
0.00000000E+00  0.00000000E+00  0.00000000E+00
0.00000000E+00  0.00000000E+00  0.00000000E+00
