Nb2C  (n=1)
1.00000000000000
3.3295336845690464  0.0000000000000000  0.0000000000000000
-1.6647668422845232  2.8834607536534529  0.0000000000000000
0.0000000000000000  0.0000000000000000  31.8782076107429546
Nb  C  Te
2  1  2
Selective  dynamics
Direct
-0.0000000000000000  0.0000000000000000  0.0650328154854660  T  T  T
-0.0000000000000000  -0.0000000000000000  0.1507323772986126  T  T  T
0.3333333333333357  0.6666666666666643  0.1078825963920412  T  T  T
0.3333333333333357  0.6666666666666643  0.0000000000000000  T  T  T
0.3333333333333357  0.6666666666666643  0.2157651927840823  T  T  T

0.00000000E+00  0.00000000E+00  0.00000000E+00
0.00000000E+00  0.00000000E+00  0.00000000E+00
0.00000000E+00  0.00000000E+00  0.00000000E+00
0.00000000E+00  0.00000000E+00  0.00000000E+00
0.00000000E+00  0.00000000E+00  0.00000000E+00
