Cr2N  (n=1)
1.00000000000000
3.0940774464591940  0.0000000000000000  0.0000000000000000
-1.5470387232295970  2.6795496699582966  0.0000000000000000
0.0000000000000000  0.0000000000000000  31.2713834668657853
Cr  N  Te
2  1  2
Selective  dynamics
Direct
0.0000000000000000  -0.0000000000000000  0.0631751140207048  T  T  T
-0.0000000000000000  -0.0000000000000000  0.1373719284058240  T  T  T
0.3333333333333357  0.6666666666666643  0.1002735212132644  T  T  T
0.3333333333333357  0.6666666666666643  0.0000000000000000  T  T  T
0.3333333333333357  0.6666666666666643  0.2005470424265288  T  T  T

0.00000000E+00  0.00000000E+00  0.00000000E+00
0.00000000E+00  0.00000000E+00  0.00000000E+00
0.00000000E+00  0.00000000E+00  0.00000000E+00
0.00000000E+00  0.00000000E+00  0.00000000E+00
0.00000000E+00  0.00000000E+00  0.00000000E+00
