Hf2N  (n=1)
1.00000000000000
3.2978265545249106  0.0000000000000000  0.0000000000000000
-1.6489132772624553  2.8560015735704165  0.0000000000000000
0.0000000000000000  0.0000000000000000  32.3724268825667352
Hf  N  Te
2  1  2
Selective  dynamics
Direct
-0.0000000000000000  -0.0000000000000000  0.0694362617704878  T  T  T
-0.0000000000000000  0.0000000000000000  0.1583015877676620  T  T  T
0.3333333333333357  0.6666666666666643  0.1138689247690748  T  T  T
0.3333333333333357  0.6666666666666643  0.0000000000000000  T  T  T
0.3333333333333357  0.6666666666666643  0.2277378495381498  T  T  T

0.00000000E+00  0.00000000E+00  0.00000000E+00
0.00000000E+00  0.00000000E+00  0.00000000E+00
0.00000000E+00  0.00000000E+00  0.00000000E+00
0.00000000E+00  0.00000000E+00  0.00000000E+00
0.00000000E+00  0.00000000E+00  0.00000000E+00
