Zr2C  (n=1)
1.00000000000000
3.3000314443918870  -0.0000000000000000  0.0000000000000000
-1.6500157221959435  2.8579110642696626  0.0000000000000000
-0.0000000000000000  0.0000000000000000  29.7759897399983906
Zr  C  H
2  1  2
Selective  dynamics
Direct
-0.0000000000000000  0.0000000000000000  0.0336010781773383  T  T  T
-0.0000000000000000  0.0000000000000000  0.1267962681981126  T  T  T
0.3333333333333357  0.6666666666666643  0.0801986731877254  T  T  T
0.6666666666666643  0.3333333333333357  0.0000000000000000  T  T  T
0.6666666666666643  0.3333333333333357  0.1603973463754508  T  T  T

0.00000000E+00  0.00000000E+00  0.00000000E+00
0.00000000E+00  0.00000000E+00  0.00000000E+00
0.00000000E+00  0.00000000E+00  0.00000000E+00
0.00000000E+00  0.00000000E+00  0.00000000E+00
0.00000000E+00  0.00000000E+00  0.00000000E+00
