Ti2N  (n=1)
1.00000000000000
2.8814011391333598  0.0000000000000000  0.0000000000000000
-1.4407005695666799  2.4953665850144295  0.0000000000000000
0.0000000000000000  0.0000000000000000  29.6720407998432485
Ti  N  H
2  1  2
Selective  dynamics
Direct
-0.0000000000000000  0.0000000000000000  0.0340178329867979  T  T  T
-0.0000000000000000  0.0000000000000000  0.1234381651145585  T  T  T
0.3333333333333357  0.6666666666666643  0.0787279990506781  T  T  T
0.6666666666666643  0.3333333333333357  0.0000000000000000  T  T  T
0.6666666666666643  0.3333333333333357  0.1574559981013483  T  T  T

0.00000000E+00  0.00000000E+00  0.00000000E+00
0.00000000E+00  0.00000000E+00  0.00000000E+00
0.00000000E+00  0.00000000E+00  0.00000000E+00
0.00000000E+00  0.00000000E+00  0.00000000E+00
0.00000000E+00  0.00000000E+00  0.00000000E+00
