Hf2N  (n=1)
1.00000000000000
3.0700601914229004  0.0000000000000001  0.0000000000000000
-1.5350300957114502  2.6587501170029175  0.0000000000000000
0.0000000000000000  0.0000000000000000  30.0131863328013040
Hf  N  H
2  1  2
Selective  dynamics
Direct
0.0000000000000000  -0.0000000000000000  0.0352753177492492  T  T  T
0.0000000000000000  -0.0000000000000000  0.1317574750109922  T  T  T
0.3333333333333357  0.6666666666666643  0.0835163963801167  T  T  T
0.6666666666666643  0.3333333333333357  0.0000000000000000  T  T  T
0.6666666666666643  0.3333333333333357  0.1670327927602413  T  T  T

0.00000000E+00  0.00000000E+00  0.00000000E+00
0.00000000E+00  0.00000000E+00  0.00000000E+00
0.00000000E+00  0.00000000E+00  0.00000000E+00
0.00000000E+00  0.00000000E+00  0.00000000E+00
0.00000000E+00  0.00000000E+00  0.00000000E+00
