Ta2N  (n=1)
1.00000000000000
2.9323937961825717  0.0000000000000000  0.0000000000000000
-1.4661968980912858  2.5395275214451756  0.0000000000000000
0.0000000000000000  0.0000000000000000  30.0202353291934720
Ta  N  H
2  1  2
Selective  dynamics
Direct
0.0000000000000000  0.0000000000000000  0.0366335723443815  T  T  T
-0.0000000000000000  0.0000000000000000  0.1305948079178976  T  T  T
0.3333333333333357  0.6666666666666643  0.0836141901311396  T  T  T
0.6666666666666643  0.3333333333333357  0.0000000000000000  T  T  T
0.6666666666666643  0.3333333333333357  0.1672283802622792  T  T  T

0.00000000E+00  0.00000000E+00  0.00000000E+00
0.00000000E+00  0.00000000E+00  0.00000000E+00
0.00000000E+00  0.00000000E+00  0.00000000E+00
0.00000000E+00  0.00000000E+00  0.00000000E+00
0.00000000E+00  0.00000000E+00  0.00000000E+00
