Sc2C  (n=1)
1.00000000000000
3.2642398055072648  0.0000000000000000  0.0000000000000000
-1.6321199027536324  2.8269145957207535  0.0000000000000000
0.0000000000000000  0.0000000000000000  29.7222821113180160
Sc  C  H
2  1  2
Selective  dynamics
Direct
-0.0000000000000000  -0.0000000000000000  0.0339302664998169  T  T  T
-0.0000000000000000  -0.0000000000000000  0.1249499329960371  T  T  T
0.3333333333333357  0.6666666666666643  0.0794400997479229  T  T  T
0.6666666666666643  0.3333333333333357  0.0000000000000000  T  T  T
0.6666666666666643  0.3333333333333357  0.1588801994958458  T  T  T

0.00000000E+00  0.00000000E+00  0.00000000E+00
0.00000000E+00  0.00000000E+00  0.00000000E+00
0.00000000E+00  0.00000000E+00  0.00000000E+00
0.00000000E+00  0.00000000E+00  0.00000000E+00
0.00000000E+00  0.00000000E+00  0.00000000E+00
