Sc2N  (n=1)
1.00000000000000
3.1764454577587227  0.0000000000000000  0.0000000000000000
-1.5882227288793613  2.7508824602357316  0.0000000000000000
0.0000000000000000  0.0000000000000000  29.6693107907105293
Sc  N  H
2  1  2
Selective  dynamics
Direct
-0.0000000000000000  0.0000000000000000  0.0337697232811469  T  T  T
0.0000000000000000  -0.0000000000000000  0.1236087484888307  T  T  T
0.3333333333333357  0.6666666666666643  0.0786892358849847  T  T  T
0.6666666666666643  0.3333333333333357  0.0000000000000000  T  T  T
0.6666666666666643  0.3333333333333357  0.1573784717699777  T  T  T

0.00000000E+00  0.00000000E+00  0.00000000E+00
0.00000000E+00  0.00000000E+00  0.00000000E+00
0.00000000E+00  0.00000000E+00  0.00000000E+00
0.00000000E+00  0.00000000E+00  0.00000000E+00
0.00000000E+00  0.00000000E+00  0.00000000E+00
