Zr2N  (n=1)
1.00000000000000
3.1361432875673589  0.0000000000000000  0.0000000000000000
-1.5680716437836797  2.7159797570499737  0.0000000000000000
0.0000000000000000  0.0000000000000000  30.0651094321391241
Zr  N  H
2  1  2
Selective  dynamics
Direct
0.0000000000000000  -0.0000000000000000  0.0355521407178270  T  T  T
0.0000000000000000  -0.0000000000000000  0.1329192045660389  T  T  T
0.3333333333333357  0.6666666666666643  0.0842356726419369  T  T  T
0.6666666666666643  0.3333333333333357  0.0000000000000000  T  T  T
0.6666666666666643  0.3333333333333357  0.1684713452838660  T  T  T

0.00000000E+00  0.00000000E+00  0.00000000E+00
0.00000000E+00  0.00000000E+00  0.00000000E+00
0.00000000E+00  0.00000000E+00  0.00000000E+00
0.00000000E+00  0.00000000E+00  0.00000000E+00
0.00000000E+00  0.00000000E+00  0.00000000E+00
