Hf2C  (n=1)
1.00000000000000
3.2430166838933676  0.0000000000000000  0.0000000000000000
-1.6215083419466838  2.8085348332642810  -0.0000000000000000
0.0000000000000000  0.0000000000000000  29.6683559843446325
Hf  C  H
2  1  2
Selective  dynamics
Direct
0.0000000000000000  0.0000000000000000  0.0327198387213406  T  T  T
0.0000000000000000  0.0000000000000000  0.1246315152535148  T  T  T
0.3333333333333357  0.6666666666666643  0.0786756769874317  T  T  T
0.6666666666666643  0.3333333333333357  0.0000000000000000  T  T  T
0.6666666666666643  0.3333333333333357  0.1573513539748554  T  T  T

0.00000000E+00  0.00000000E+00  0.00000000E+00
0.00000000E+00  0.00000000E+00  0.00000000E+00
0.00000000E+00  0.00000000E+00  0.00000000E+00
0.00000000E+00  0.00000000E+00  0.00000000E+00
0.00000000E+00  0.00000000E+00  0.00000000E+00
