Nb2C  (n=1)
1.00000000000000
2.9953060542556300  0.0000000000000000  0.0000000000000000
-1.4976530271278152  2.5940111351645778  0.0000000000000000
0.0000000000000000  0.0000000000000000  29.9672360884159090
Nb  C  H
2  1  2
Selective  dynamics
Direct
-0.0000000000000000  -0.0000000000000000  0.0348633638872364  T  T  T
-0.0000000000000000  0.0000000000000000  0.1308921990802819  T  T  T
0.3333333333333357  0.6666666666666643  0.0828777814837592  T  T  T
0.6666666666666643  0.3333333333333357  0.0000000000000000  T  T  T
0.6666666666666643  0.3333333333333357  0.1657555629675183  T  T  T

0.00000000E+00  0.00000000E+00  0.00000000E+00
0.00000000E+00  0.00000000E+00  0.00000000E+00
0.00000000E+00  0.00000000E+00  0.00000000E+00
0.00000000E+00  0.00000000E+00  0.00000000E+00
0.00000000E+00  0.00000000E+00  0.00000000E+00
