Ti2C  (n=1)
1.00000000000000
3.0284760283452803  0.0000000000000000  0.0000000000000000
-1.5142380141726401  2.6227371753454300  0.0000000000000000
0.0000000000000000  0.0000000000000000  29.4384891891617464
Ti  C  H
2  1  2
Selective  dynamics
Direct
-0.0000000000000000  0.0000000000000000  0.0326038865606951  T  T  T
-0.0000000000000000  0.0000000000000000  0.1181677498721911  T  T  T
0.3333333333333357  0.6666666666666643  0.0753858182164389  T  T  T
0.6666666666666643  0.3333333333333357  0.0000000000000000  T  T  T
0.6666666666666643  0.3333333333333357  0.1507716364328862  T  T  T

0.00000000E+00  0.00000000E+00  0.00000000E+00
0.00000000E+00  0.00000000E+00  0.00000000E+00
0.00000000E+00  0.00000000E+00  0.00000000E+00
0.00000000E+00  0.00000000E+00  0.00000000E+00
0.00000000E+00  0.00000000E+00  0.00000000E+00
