Mo2C  (n=1)
1.00000000000000
2.9169452624739463  -0.0000000000000001  0.0000000000000000
-1.4584726312369731  2.5261486987905379  -0.0000000000000000
0.0000000000000000  -0.0000000000000000  29.8048551884632644
Mo  C  H
2  1  2
Selective  dynamics
Direct
0.0000000000000000  -0.0000000000000000  0.0357037866299722  T  T  T
0.0000000000000000  -0.0000000000000000  0.1255066993153884  T  T  T
0.3333333333333357  0.6666666666666643  0.0806052429726803  T  T  T
0.6666666666666643  0.3333333333333357  0.0000000000000000  T  T  T
0.6666666666666643  0.3333333333333357  0.1612104859453605  T  T  T

0.00000000E+00  0.00000000E+00  0.00000000E+00
0.00000000E+00  0.00000000E+00  0.00000000E+00
0.00000000E+00  0.00000000E+00  0.00000000E+00
0.00000000E+00  0.00000000E+00  0.00000000E+00
0.00000000E+00  0.00000000E+00  0.00000000E+00
