Cr2N  (n=1)
1.00000000000000
2.6365402051499052  0.0000000000000000  0.0000000000000000
-1.3182701025749526  2.2833107958008885  0.0000000000000000
0.0000000000000000  0.0000000000000000  29.5793984627244981
Cr  N  H
2  1  2
Selective  dynamics
Direct
-0.0000000000000000  0.0000000000000000  0.0349696255291087  T  T  T
-0.0000000000000000  -0.0000000000000000  0.1198475344106172  T  T  T
0.3333333333333357  0.6666666666666643  0.0774085799698629  T  T  T
0.6666666666666643  0.3333333333333357  0.0000000000000000  T  T  T
0.6666666666666643  0.3333333333333357  0.1548171599397258  T  T  T

0.00000000E+00  0.00000000E+00  0.00000000E+00
0.00000000E+00  0.00000000E+00  0.00000000E+00
0.00000000E+00  0.00000000E+00  0.00000000E+00
0.00000000E+00  0.00000000E+00  0.00000000E+00
0.00000000E+00  0.00000000E+00  0.00000000E+00
