Ta2C  (n=1)
1.00000000000000
2.9740187592558236  -0.0000000000000007  0.0000000000000000
-1.4870093796279118  2.5755757969012798  0.0000000000000000
0.0000000000000000  0.0000000000000000  29.9537475195581351
Ta  C  H
2  1  2
Selective  dynamics
Direct
0.0000000000000000  -0.0000000000000000  0.0348960981093488  T  T  T
0.0000000000000000  -0.0000000000000000  0.1304837935494030  T  T  T
0.3333333333333357  0.6666666666666643  0.0826899458293759  T  T  T
0.6666666666666643  0.3333333333333357  0.0000000000000000  T  T  T
0.6666666666666643  0.3333333333333357  0.1653798916587519  T  T  T

0.00000000E+00  0.00000000E+00  0.00000000E+00
0.00000000E+00  0.00000000E+00  0.00000000E+00
0.00000000E+00  0.00000000E+00  0.00000000E+00
0.00000000E+00  0.00000000E+00  0.00000000E+00
0.00000000E+00  0.00000000E+00  0.00000000E+00
