Cr2C  (n=1)
1.00000000000000
2.6912721004497415  0.0000000000000001  0.0000000000000000
-1.3456360502248705  2.3307100075226717  0.0000000000000000
0.0000000000000000  0.0000000000000000  29.4683217983051371
Cr  C  H
2  1  2
Selective  dynamics
Direct
0.0000000000000000  0.0000000000000000  0.0338496001717281  T  T  T
-0.0000000000000000  -0.0000000000000000  0.1177817627843439  T  T  T
0.3333333333333357  0.6666666666666643  0.0758156814780359  T  T  T
0.6666666666666643  0.3333333333333357  0.0000000000000000  T  T  T
0.6666666666666643  0.3333333333333357  0.1516313629560720  T  T  T

0.00000000E+00  0.00000000E+00  0.00000000E+00
0.00000000E+00  0.00000000E+00  0.00000000E+00
0.00000000E+00  0.00000000E+00  0.00000000E+00
0.00000000E+00  0.00000000E+00  0.00000000E+00
0.00000000E+00  0.00000000E+00  0.00000000E+00
