Mo2N  (n=1)
1.00000000000000
2.8094702942507461  0.0000000000000000  0.0000000000000000
-1.4047351471253731  2.4330726460307703  0.0000000000000000
0.0000000000000000  0.0000000000000000  30.1296914794649382
Mo  N  H
2  1  2
Selective  dynamics
Direct
-0.0000000000000000  0.0000000000000000  0.0378101389865716  T  T  T
0.0000000000000000  0.0000000000000000  0.1324435618507273  T  T  T
0.3333333333333357  0.6666666666666643  0.0851268504186535  T  T  T
0.6666666666666643  0.3333333333333357  0.0000000000000000  T  T  T
0.6666666666666643  0.3333333333333357  0.1702537008372990  T  T  T

0.00000000E+00  0.00000000E+00  0.00000000E+00
0.00000000E+00  0.00000000E+00  0.00000000E+00
0.00000000E+00  0.00000000E+00  0.00000000E+00
0.00000000E+00  0.00000000E+00  0.00000000E+00
0.00000000E+00  0.00000000E+00  0.00000000E+00
