Nb2N  (n=1)
1.00000000000000
2.9604954684831268  0.0000000000000000  0.0000000000000000
-1.4802477342415634  2.5638642835571090  0.0000000000000000
0.0000000000000000  0.0000000000000000  29.9993892640347894
Nb  N  H
2  1  2
Selective  dynamics
Direct
-0.0000000000000000  0.0000000000000000  0.0364539371839296  T  T  T
0.0000000000000000  -0.0000000000000000  0.1301957642494387  T  T  T
0.3333333333333357  0.6666666666666643  0.0833248507166882  T  T  T
0.6666666666666643  0.3333333333333357  0.0000000000000000  T  T  T
0.6666666666666643  0.3333333333333357  0.1666497014333682  T  T  T

0.00000000E+00  0.00000000E+00  0.00000000E+00
0.00000000E+00  0.00000000E+00  0.00000000E+00
0.00000000E+00  0.00000000E+00  0.00000000E+00
0.00000000E+00  0.00000000E+00  0.00000000E+00
0.00000000E+00  0.00000000E+00  0.00000000E+00
