Sc3N2  (n=2)
1.00000000000000
3.2656005227218210  0.0000000000000000  0.0000000000000000
-1.6328002613609105  2.8280930119510397  0.0000000000000000
0.0000000000000000  0.0000000000000000  33.8503260767074181
Sc  N  Cl
3  2  2
Selective  dynamics
Direct
-0.0000000000000000  -0.0000000000000000  0.0511932859968042  T  T  T
-0.0000000000000000  0.0000000000000000  0.1307273385882850  T  T  T
-0.0000000000000000  0.0000000000000000  0.2102613911797659  T  T  T
0.3333333333333357  0.6666666666666643  0.0864942098740589  T  T  T
0.3333333333333357  0.6666666666666643  0.1749604673025112  T  T  T
0.6666666666666643  0.3333333333333357  0.0000000000000000  T  T  T
0.6666666666666643  0.3333333333333357  0.2614546771765774  T  T  T

0.00000000E+00  0.00000000E+00  0.00000000E+00
0.00000000E+00  0.00000000E+00  0.00000000E+00
0.00000000E+00  0.00000000E+00  0.00000000E+00
0.00000000E+00  0.00000000E+00  0.00000000E+00
0.00000000E+00  0.00000000E+00  0.00000000E+00
0.00000000E+00  0.00000000E+00  0.00000000E+00
0.00000000E+00  0.00000000E+00  0.00000000E+00
