Nb3C2  (n=2)
1.00000000000000
3.1278896806887126  0.0000000000000003  -0.0000000000000000
-1.5639448403443557  2.7088319244909522  0.0000000000000000
-0.0000000000000000  0.0000000000000000  34.3385824646276632
Nb  C  Cl
3  2  2
Selective  dynamics
Direct
0.0000000000000000  0.0000000000000000  0.0534461258893478  T  T  T
0.0000000000000000  0.0000000000000000  0.1359779844471941  T  T  T
-0.0000000000000000  -0.0000000000000000  0.2185098430050402  T  T  T
0.3333333333333357  0.6666666666666643  0.0933458418186779  T  T  T
0.3333333333333357  0.6666666666666643  0.1786101270757100  T  T  T
0.6666666666666643  0.3333333333333357  0.0000000000000000  T  T  T
0.6666666666666643  0.3333333333333357  0.2719559688943881  T  T  T

0.00000000E+00  0.00000000E+00  0.00000000E+00
0.00000000E+00  0.00000000E+00  0.00000000E+00
0.00000000E+00  0.00000000E+00  0.00000000E+00
0.00000000E+00  0.00000000E+00  0.00000000E+00
0.00000000E+00  0.00000000E+00  0.00000000E+00
0.00000000E+00  0.00000000E+00  0.00000000E+00
0.00000000E+00  0.00000000E+00  0.00000000E+00
