Ta3N2  (n=2)
1.00000000000000
3.0021512760194971  0.0000000000000002  0.0000000000000000
-1.5010756380097483  2.5999392714504355  -0.0000000000000000
-0.0000000000000000  -0.0000000000000000  34.5156269504155446
Ta  N  Cl
3  2  2
Selective  dynamics
Direct
0.0000000000000000  -0.0000000000000000  0.0537907739615623  T  T  T
0.0000000000000000  -0.0000000000000000  0.1378451992786486  T  T  T
0.0000000000000000  0.0000000000000000  0.2218996245957421  T  T  T
0.3333333333333357  0.6666666666666643  0.0971796754873634  T  T  T
0.3333333333333357  0.6666666666666643  0.1785107230699411  T  T  T
0.6666666666666643  0.3333333333333357  0.0000000000000000  T  T  T
0.6666666666666643  0.3333333333333357  0.2756903985573116  T  T  T

0.00000000E+00  0.00000000E+00  0.00000000E+00
0.00000000E+00  0.00000000E+00  0.00000000E+00
0.00000000E+00  0.00000000E+00  0.00000000E+00
0.00000000E+00  0.00000000E+00  0.00000000E+00
0.00000000E+00  0.00000000E+00  0.00000000E+00
0.00000000E+00  0.00000000E+00  0.00000000E+00
0.00000000E+00  0.00000000E+00  0.00000000E+00
