Hf3N2  (n=2)
1.00000000000000
3.1561166067994741  -0.0000000000000002  0.0000000000000000
-1.5780583033997371  2.7332771595469447  0.0000000000000000
0.0000000000000000  0.0000000000000000  34.4460528296799424
Hf  N  Cl
3  2  2
Selective  dynamics
Direct
0.0000000000000000  -0.0000000000000000  0.0529969024642113  T  T  T
0.0000000000000000  -0.0000000000000000  0.1371137191884710  T  T  T
0.0000000000000000  -0.0000000000000000  0.2212305359127308  T  T  T
0.3333333333333357  0.6666666666666643  0.0943216770339103  T  T  T
0.3333333333333357  0.6666666666666643  0.1799057613430391  T  T  T
0.6666666666666643  0.3333333333333357  0.0000000000000000  T  T  T
0.6666666666666643  0.3333333333333357  0.2742274383769419  T  T  T

0.00000000E+00  0.00000000E+00  0.00000000E+00
0.00000000E+00  0.00000000E+00  0.00000000E+00
0.00000000E+00  0.00000000E+00  0.00000000E+00
0.00000000E+00  0.00000000E+00  0.00000000E+00
0.00000000E+00  0.00000000E+00  0.00000000E+00
0.00000000E+00  0.00000000E+00  0.00000000E+00
0.00000000E+00  0.00000000E+00  0.00000000E+00
