Sc3C2  (n=2)
1.00000000000000
3.3398072778315600  -0.0000000000000006  0.0000000000000000
-1.6699036389157806  2.8923579477502130  0.0000000000000000
0.0000000000000000  0.0000000000000000  34.1593325072577585
Sc  C  Cl
3  2  2
Selective  dynamics
Direct
0.0000000000000000  -0.0000000000000000  0.0500382200863229  T  T  T
-0.0000000000000000  -0.0000000000000000  0.1340677910686806  T  T  T
-0.0000000000000000  -0.0000000000000000  0.2180973620510458  T  T  T
0.3333333333333357  0.6666666666666643  0.0883393678007995  T  T  T
0.3333333333333357  0.6666666666666643  0.1797962143365617  T  T  T
0.6666666666666643  0.3333333333333357  0.0000000000000000  T  T  T
0.6666666666666643  0.3333333333333357  0.2681355821373763  T  T  T

0.00000000E+00  0.00000000E+00  0.00000000E+00
0.00000000E+00  0.00000000E+00  0.00000000E+00
0.00000000E+00  0.00000000E+00  0.00000000E+00
0.00000000E+00  0.00000000E+00  0.00000000E+00
0.00000000E+00  0.00000000E+00  0.00000000E+00
0.00000000E+00  0.00000000E+00  0.00000000E+00
0.00000000E+00  0.00000000E+00  0.00000000E+00
