Ta3C2  (n=2)
1.00000000000000
3.1041150430840974  0.0000000000000003  0.0000000000000000
-1.5520575215420482  2.6882424841690913  0.0000000000000000
0.0000000000000000  0.0000000000000000  34.3313336961945197
Ta  C  Cl
3  2  2
Selective  dynamics
Direct
0.0000000000000000  0.0000000000000000  0.0534657270402639  T  T  T
0.0000000000000000  0.0000000000000000  0.1359011243019175  T  T  T
0.0000000000000000  0.0000000000000000  0.2183365215635783  T  T  T
0.3333333333333357  0.6666666666666643  0.0930032902686729  T  T  T
0.3333333333333357  0.6666666666666643  0.1787989583351622  T  T  T
0.6666666666666643  0.3333333333333357  0.0000000000000000  T  T  T
0.6666666666666643  0.3333333333333357  0.2718022486038421  T  T  T

0.00000000E+00  0.00000000E+00  0.00000000E+00
0.00000000E+00  0.00000000E+00  0.00000000E+00
0.00000000E+00  0.00000000E+00  0.00000000E+00
0.00000000E+00  0.00000000E+00  0.00000000E+00
0.00000000E+00  0.00000000E+00  0.00000000E+00
0.00000000E+00  0.00000000E+00  0.00000000E+00
0.00000000E+00  0.00000000E+00  0.00000000E+00
