Ti3C2  (n=2)
1.00000000000000
3.1746668623631442  0.0000000000000003  0.0000000000000000
-1.5873334311815721  2.7493421517800547  0.0000000000000000
0.0000000000000000  0.0000000000000000  33.4630126553389289
Ti  C  Cl
3  2  2
Selective  dynamics
Direct
-0.0000000000000000  0.0000000000000000  0.0507030921127129  T  T  T
-0.0000000000000000  -0.0000000000000000  0.1264532387221968  T  T  T
-0.0000000000000000  0.0000000000000000  0.2022033853316806  T  T  T
0.3333333333333357  0.6666666666666643  0.0845467806977849  T  T  T
0.3333333333333357  0.6666666666666643  0.1683596967466086  T  T  T
0.6666666666666643  0.3333333333333357  0.0000000000000000  T  T  T
0.6666666666666643  0.3333333333333357  0.2529064774443935  T  T  T

0.00000000E+00  0.00000000E+00  0.00000000E+00
0.00000000E+00  0.00000000E+00  0.00000000E+00
0.00000000E+00  0.00000000E+00  0.00000000E+00
0.00000000E+00  0.00000000E+00  0.00000000E+00
0.00000000E+00  0.00000000E+00  0.00000000E+00
0.00000000E+00  0.00000000E+00  0.00000000E+00
0.00000000E+00  0.00000000E+00  0.00000000E+00
