Hf3C2  (n=2)
1.00000000000000
3.3312450364118571  0.0000000000000001  -0.0000000000000000
-1.6656225182059285  2.8849428289703836  0.0000000000000000
0.0000000000000000  -0.0000000000000000  34.1505685472284313
Hf  C  Cl
3  2  2
Selective  dynamics
Direct
-0.0000000000000000  0.0000000000000000  0.0530643110266653  T  T  T
-0.0000000000000000  0.0000000000000000  0.1339738829614715  T  T  T
-0.0000000000000000  0.0000000000000000  0.2148834548962849  T  T  T
0.3333333333333357  0.6666666666666643  0.0882944961256142  T  T  T
0.3333333333333357  0.6666666666666643  0.1796532697973213  T  T  T
0.6666666666666643  0.3333333333333357  0.0000000000000000  T  T  T
0.6666666666666643  0.3333333333333357  0.2679477659229502  T  T  T

0.00000000E+00  0.00000000E+00  0.00000000E+00
0.00000000E+00  0.00000000E+00  0.00000000E+00
0.00000000E+00  0.00000000E+00  0.00000000E+00
0.00000000E+00  0.00000000E+00  0.00000000E+00
0.00000000E+00  0.00000000E+00  0.00000000E+00
0.00000000E+00  0.00000000E+00  0.00000000E+00
0.00000000E+00  0.00000000E+00  0.00000000E+00
