Nb3N2  (n=2)
1.00000000000000
3.0330176631990220  0.0000000000000001  0.0000000000000000
-1.5165088315995110  2.6266703468993806  0.0000000000000000
0.0000000000000000  0.0000000000000000  34.4742247085221507
Nb  N  Cl
3  2  2
Selective  dynamics
Direct
0.0000000000000000  0.0000000000000000  0.0535292126771958  T  T  T
0.0000000000000000  0.0000000000000000  0.1374102650404178  T  T  T
0.0000000000000000  0.0000000000000000  0.2212913174036474  T  T  T
0.3333333333333357  0.6666666666666643  0.0967765073870392  T  T  T
0.3333333333333357  0.6666666666666643  0.1780440226937967  T  T  T
0.6666666666666643  0.3333333333333357  0.0000000000000000  T  T  T
0.6666666666666643  0.3333333333333357  0.2748205300808430  T  T  T

0.00000000E+00  0.00000000E+00  0.00000000E+00
0.00000000E+00  0.00000000E+00  0.00000000E+00
0.00000000E+00  0.00000000E+00  0.00000000E+00
0.00000000E+00  0.00000000E+00  0.00000000E+00
0.00000000E+00  0.00000000E+00  0.00000000E+00
0.00000000E+00  0.00000000E+00  0.00000000E+00
0.00000000E+00  0.00000000E+00  0.00000000E+00
