Zr3C2  (n=2)
1.00000000000000
3.3810863062951957  -0.0000000000000000  0.0000000000000000
-1.6905431531475981  2.9281066350531093  -0.0000000000000000
0.0000000000000000  -0.0000000000000000  34.2737534688517016
Zr  C  Cl
3  2  2
Selective  dynamics
Direct
-0.0000000000000000  -0.0000000000000000  0.0533304849314640  T  T  T
-0.0000000000000000  -0.0000000000000000  0.1352894347752104  T  T  T
-0.0000000000000000  -0.0000000000000000  0.2172483846189567  T  T  T
0.3333333333333357  0.6666666666666643  0.0892905238967291  T  T  T
0.3333333333333357  0.6666666666666643  0.1812883456536917  T  T  T
0.6666666666666643  0.3333333333333357  0.0000000000000000  T  T  T
0.6666666666666643  0.3333333333333357  0.2705788695504207  T  T  T

0.00000000E+00  0.00000000E+00  0.00000000E+00
0.00000000E+00  0.00000000E+00  0.00000000E+00
0.00000000E+00  0.00000000E+00  0.00000000E+00
0.00000000E+00  0.00000000E+00  0.00000000E+00
0.00000000E+00  0.00000000E+00  0.00000000E+00
0.00000000E+00  0.00000000E+00  0.00000000E+00
0.00000000E+00  0.00000000E+00  0.00000000E+00
