Cr3N2  (n=2)
1.00000000000000
2.9787258453128063  0.0000000000000002  0.0000000000000000
-1.4893629226564034  2.5796522528883918  0.0000000000000000
0.0000000000000000  0.0000000000000000  33.1917157922152413
Cr  N  Cl
3  2  2
Selective  dynamics
Direct
-0.0000000000000000  -0.0000000000000000  0.0509799413295693  T  T  T
-0.0000000000000000  -0.0000000000000000  0.1234000495264143  T  T  T
-0.0000000000000000  -0.0000000000000000  0.1958200687541675  T  T  T
0.3333333333333357  0.6666666666666643  0.0826671874199636  T  T  T
0.3333333333333357  0.6666666666666643  0.1641328226637670  T  T  T
0.6666666666666643  0.3333333333333357  0.0000000000000000  T  T  T
0.6666666666666643  0.3333333333333357  0.2468000100837366  T  T  T

0.00000000E+00  0.00000000E+00  0.00000000E+00
0.00000000E+00  0.00000000E+00  0.00000000E+00
0.00000000E+00  0.00000000E+00  0.00000000E+00
0.00000000E+00  0.00000000E+00  0.00000000E+00
0.00000000E+00  0.00000000E+00  0.00000000E+00
0.00000000E+00  0.00000000E+00  0.00000000E+00
0.00000000E+00  0.00000000E+00  0.00000000E+00
