Zr3N2  (n=2)
1.00000000000000
3.2141269714605412  0.0000000000000001  0.0000000000000000
-1.6070634857302706  2.7835156092106095  0.0000000000000000
0.0000000000000000  0.0000000000000000  34.5347552772819739
Zr  N  Cl
3  2  2
Selective  dynamics
Direct
-0.0000000000000000  0.0000000000000000  0.0533157851548234  T  T  T
-0.0000000000000000  0.0000000000000000  0.1380457918512307  T  T  T
-0.0000000000000000  0.0000000000000000  0.2227757985476454  T  T  T
0.3333333333333357  0.6666666666666643  0.0949475467083882  T  T  T
0.3333333333333357  0.6666666666666643  0.1811440369940807  T  T  T
0.6666666666666643  0.3333333333333357  0.0000000000000000  T  T  T
0.6666666666666643  0.3333333333333357  0.2760915837024689  T  T  T

0.00000000E+00  0.00000000E+00  0.00000000E+00
0.00000000E+00  0.00000000E+00  0.00000000E+00
0.00000000E+00  0.00000000E+00  0.00000000E+00
0.00000000E+00  0.00000000E+00  0.00000000E+00
0.00000000E+00  0.00000000E+00  0.00000000E+00
0.00000000E+00  0.00000000E+00  0.00000000E+00
0.00000000E+00  0.00000000E+00  0.00000000E+00
