Ti3N2  (n=2)
1.00000000000000
3.0317899660443959  0.0000000000000001  0.0000000000000000
-1.5158949830221982  2.6256071296702843  0.0000000000000000
0.0000000000000000  0.0000000000000000  33.6800883752987303
Ti  N  Cl
3  2  2
Selective  dynamics
Direct
0.0000000000000000  0.0000000000000000  0.0506663139184835  T  T  T
0.0000000000000000  0.0000000000000000  0.1288608313401099  T  T  T
0.0000000000000000  0.0000000000000000  0.2070553487617363  T  T  T
0.3333333333333357  0.6666666666666643  0.0877963736311072  T  T  T
0.3333333333333357  0.6666666666666643  0.1699252890491053  T  T  T
0.6666666666666643  0.3333333333333357  0.0000000000000000  T  T  T
0.6666666666666643  0.3333333333333357  0.2577216626802197  T  T  T

0.00000000E+00  0.00000000E+00  0.00000000E+00
0.00000000E+00  0.00000000E+00  0.00000000E+00
0.00000000E+00  0.00000000E+00  0.00000000E+00
0.00000000E+00  0.00000000E+00  0.00000000E+00
0.00000000E+00  0.00000000E+00  0.00000000E+00
0.00000000E+00  0.00000000E+00  0.00000000E+00
0.00000000E+00  0.00000000E+00  0.00000000E+00
