Mo3N2  (n=2)
1.00000000000000
2.9535371549774903  0.0000000000000000  0.0000000000000000
-1.4767685774887451  2.5578382075097732  0.0000000000000000
0.0000000000000000  0.0000000000000000  34.2722258744440467
Mo  N  Cl
3  2  2
Selective  dynamics
Direct
0.0000000000000000  -0.0000000000000000  0.0541911512467768  T  T  T
0.0000000000000000  -0.0000000000000000  0.1352731787601534  T  T  T
0.0000000000000000  -0.0000000000000000  0.2163552062735301  T  T  T
0.3333333333333357  0.6666666666666643  0.0948802834514505  T  T  T
0.3333333333333357  0.6666666666666643  0.1756660740688492  T  T  T
0.6666666666666643  0.3333333333333357  0.0000000000000000  T  T  T
0.6666666666666643  0.3333333333333357  0.2705463575203068  T  T  T

0.00000000E+00  0.00000000E+00  0.00000000E+00
0.00000000E+00  0.00000000E+00  0.00000000E+00
0.00000000E+00  0.00000000E+00  0.00000000E+00
0.00000000E+00  0.00000000E+00  0.00000000E+00
0.00000000E+00  0.00000000E+00  0.00000000E+00
0.00000000E+00  0.00000000E+00  0.00000000E+00
0.00000000E+00  0.00000000E+00  0.00000000E+00
