Mo3C2  (n=2)
1.00000000000000
3.0004440329712980  0.0000000000000000  0.0000000000000000
-1.5002220164856490  2.5984607554135462  0.0000000000000000
0.0000000000000000  0.0000000000000000  34.2239518358360755
Mo  C  Cl
3  2  2
Selective  dynamics
Direct
0.0000000000000000  -0.0000000000000000  0.0539146159914340  T  T  T
0.0000000000000000  -0.0000000000000000  0.1347587192747477  T  T  T
0.0000000000000000  -0.0000000000000000  0.2156028225580757  T  T  T
0.3333333333333357  0.6666666666666643  0.0938232193636852  T  T  T
0.3333333333333357  0.6666666666666643  0.1756942191858102  T  T  T
0.6666666666666643  0.3333333333333357  0.0000000000000000  T  T  T
0.6666666666666643  0.3333333333333357  0.2695174385495024  T  T  T

0.00000000E+00  0.00000000E+00  0.00000000E+00
0.00000000E+00  0.00000000E+00  0.00000000E+00
0.00000000E+00  0.00000000E+00  0.00000000E+00
0.00000000E+00  0.00000000E+00  0.00000000E+00
0.00000000E+00  0.00000000E+00  0.00000000E+00
0.00000000E+00  0.00000000E+00  0.00000000E+00
0.00000000E+00  0.00000000E+00  0.00000000E+00
