Cr3C2  (n=2)
1.00000000000000
2.8843442768584762  0.0000000000000000  0.0000000000000000
-1.4421721384292385  2.4979154169326470  0.0000000000000000
0.0000000000000000  0.0000000000000000  33.3822313471939935
Cr  C  Cl
3  2  2
Selective  dynamics
Direct
0.0000000000000000  0.0000000000000000  0.0506642530194574  T  T  T
0.0000000000000000  0.0000000000000000  0.1255492968701466  T  T  T
0.0000000000000000  0.0000000000000000  0.2004343407208492  T  T  T
0.3333333333333357  0.6666666666666643  0.0870033468859595  T  T  T
0.3333333333333357  0.6666666666666643  0.1640952468543338  T  T  T
0.6666666666666643  0.3333333333333357  0.0000000000000000  T  T  T
0.6666666666666643  0.3333333333333357  0.2510985937403067  T  T  T

0.00000000E+00  0.00000000E+00  0.00000000E+00
0.00000000E+00  0.00000000E+00  0.00000000E+00
0.00000000E+00  0.00000000E+00  0.00000000E+00
0.00000000E+00  0.00000000E+00  0.00000000E+00
0.00000000E+00  0.00000000E+00  0.00000000E+00
0.00000000E+00  0.00000000E+00  0.00000000E+00
0.00000000E+00  0.00000000E+00  0.00000000E+00
