Sc3N2  (n=2)
1.00000000000000
3.1332140012237542  0.0000000000000001  0.0000000000000000
-1.5666070006118769  2.7134429206538577  0.0000000000000000
0.0000000000000002  0.0000000000000005  32.6393945631903506
Sc  N  F
3  2  2
Selective  dynamics
Direct
-0.0000000000000000  -0.0000000000000000  0.0397077096362557  T  T  T
0.6666666666666643  0.3333333333333357  0.1180876162478556  T  T  T
0.3333333333333357  0.6666666666666643  0.1967366220462727  T  T  T
0.3333333333333357  0.6666666666666643  0.0784700791477963  T  T  T
-0.0000000000000000  -0.0000000000000000  0.1615153647296776  T  T  T
0.3333333333333357  0.6666666666666643  0.0000000000000000  T  T  T
0.6666666666666643  0.3333333333333357  0.2340544199862645  T  T  T

0.00000000E+00  0.00000000E+00  0.00000000E+00
0.00000000E+00  0.00000000E+00  0.00000000E+00
0.00000000E+00  0.00000000E+00  0.00000000E+00
0.00000000E+00  0.00000000E+00  0.00000000E+00
0.00000000E+00  0.00000000E+00  0.00000000E+00
0.00000000E+00  0.00000000E+00  0.00000000E+00
0.00000000E+00  0.00000000E+00  0.00000000E+00
