Ta3N2  (n=2)
1.00000000000000
2.9127684343997688  0.0000000000000000  0.0000000000000001
-1.4563842171998844  2.5225314595520851  0.0000000000000000
-0.0000000000000002  -0.0000000000000007  33.6983554598870612
Ta  N  F
3  2  2
Selective  dynamics
Direct
0.0000000000000000  0.0000000000000000  0.0440556528569684  T  T  T
0.6666666666666643  0.3333333333333357  0.1278111822595565  T  T  T
0.3333333333333357  0.6666666666666643  0.2128833668002442  T  T  T
0.3333333333333357  0.6666666666666643  0.0833172536895680  T  T  T
0.0000000000000000  -0.0000000000000000  0.1706746866882362  T  T  T
0.3333333333333357  0.6666666666666643  0.0000000000000000  T  T  T
0.6666666666666643  0.3333333333333357  0.2581240342793931  T  T  T

0.00000000E+00  0.00000000E+00  0.00000000E+00
0.00000000E+00  0.00000000E+00  0.00000000E+00
0.00000000E+00  0.00000000E+00  0.00000000E+00
0.00000000E+00  0.00000000E+00  0.00000000E+00
0.00000000E+00  0.00000000E+00  0.00000000E+00
0.00000000E+00  0.00000000E+00  0.00000000E+00
0.00000000E+00  0.00000000E+00  0.00000000E+00
