Cr3N2  (n=2)
1.00000000000000
2.8950810700525804  0.0000000000000000  0.0000000000000000
-1.4475405350262902  2.5072137526893288  0.0000000000000000
0.0000000000000001  0.0000000000000001  32.3115524095299236
Cr  N  F
3  2  2
Selective  dynamics
Direct
0.0000000000000000  0.0000000000000000  0.0417095468355504  T  T  T
0.6666666666666643  0.3333333333333357  0.1124631331068279  T  T  T
0.3333333333333357  0.6666666666666643  0.1881917797720377  T  T  T
0.3333333333333357  0.6666666666666643  0.0765940425035453  T  T  T
0.0000000000000000  0.0000000000000000  0.1550514713885886  T  T  T
0.3333333333333357  0.6666666666666643  0.0000000000000000  T  T  T
0.6666666666666643  0.3333333333333357  0.2262829193986194  T  T  T

0.00000000E+00  0.00000000E+00  0.00000000E+00
0.00000000E+00  0.00000000E+00  0.00000000E+00
0.00000000E+00  0.00000000E+00  0.00000000E+00
0.00000000E+00  0.00000000E+00  0.00000000E+00
0.00000000E+00  0.00000000E+00  0.00000000E+00
0.00000000E+00  0.00000000E+00  0.00000000E+00
0.00000000E+00  0.00000000E+00  0.00000000E+00
