Ta3C2  (n=2)
1.00000000000000
3.0700524536138190  -0.0000000000000001  0.0000000000000000
-1.5350262268069095  2.6587434159277321  0.0000000000000000
0.0000000000000000  0.0000000000000000  33.0637218365293251
Ta  C  F
3  2  2
Selective  dynamics
Direct
0.0000000000000000  -0.0000000000000000  0.0433151742972140  T  T  T
0.6666666666666643  0.3333333333333357  0.1241072316186419  T  T  T
0.3333333333333357  0.6666666666666643  0.1988483743077088  T  T  T
0.3333333333333357  0.6666666666666643  0.0816926659138732  T  T  T
-0.0000000000000000  -0.0000000000000000  0.1629070198319192  T  T  T
0.3333333333333357  0.6666666666666643  0.0000000000000000  T  T  T
0.6666666666666643  0.3333333333333357  0.2438842752306366  T  T  T

0.00000000E+00  0.00000000E+00  0.00000000E+00
0.00000000E+00  0.00000000E+00  0.00000000E+00
0.00000000E+00  0.00000000E+00  0.00000000E+00
0.00000000E+00  0.00000000E+00  0.00000000E+00
0.00000000E+00  0.00000000E+00  0.00000000E+00
0.00000000E+00  0.00000000E+00  0.00000000E+00
0.00000000E+00  0.00000000E+00  0.00000000E+00
