Mo3C2  (n=2)
1.00000000000000
3.0130234054641978  0.0000000000000000  0.0000000000000000
-1.5065117027320987  2.6093548113976599  0.0000000000000000
-0.0000000000000001  0.0000000000000003  32.9568344470575525
Mo  C  F
3  2  2
Selective  dynamics
Direct
-0.0000000000000000  -0.0000000000000000  0.0456928293147184  T  T  T
0.6666666666666643  0.3333333333333357  0.1211242251444402  T  T  T
0.3333333333333357  0.6666666666666643  0.1953249046166348  T  T  T
0.3333333333333357  0.6666666666666643  0.0806140889962106  T  T  T
-0.0000000000000000  -0.0000000000000000  0.1615299131798940  T  T  T
0.3333333333333357  0.6666666666666643  0.0000000000000000  T  T  T
0.6666666666666643  0.3333333333333357  0.2414319997826112  T  T  T

0.00000000E+00  0.00000000E+00  0.00000000E+00
0.00000000E+00  0.00000000E+00  0.00000000E+00
0.00000000E+00  0.00000000E+00  0.00000000E+00
0.00000000E+00  0.00000000E+00  0.00000000E+00
0.00000000E+00  0.00000000E+00  0.00000000E+00
0.00000000E+00  0.00000000E+00  0.00000000E+00
0.00000000E+00  0.00000000E+00  0.00000000E+00
