Hf3C2  (n=2)
1.00000000000000
3.2331022576026669  0.0000000000000000  0.0000000000000000
-1.6165511288013334  2.7999486882399749  0.0000000000000000
-0.0000000000000006  -0.0000000000000010  32.8944502693512817
Hf  C  F
3  2  2
Selective  dynamics
Direct
0.0000000000000000  0.0000000000000000  0.0427738615419403  T  T  T
0.6666666666666643  0.3333333333333357  0.1209816863995431  T  T  T
0.3333333333333357  0.6666666666666643  0.1990604163995530  T  T  T
0.3333333333333357  0.6666666666666643  0.0800829726116153  T  T  T
0.0000000000000000  0.0000000000000000  0.1647544107154043  T  T  T
0.3333333333333357  0.6666666666666643  0.0000000000000000  T  T  T
0.6666666666666643  0.3333333333333357  0.2399933789654108  T  T  T

0.00000000E+00  0.00000000E+00  0.00000000E+00
0.00000000E+00  0.00000000E+00  0.00000000E+00
0.00000000E+00  0.00000000E+00  0.00000000E+00
0.00000000E+00  0.00000000E+00  0.00000000E+00
0.00000000E+00  0.00000000E+00  0.00000000E+00
0.00000000E+00  0.00000000E+00  0.00000000E+00
0.00000000E+00  0.00000000E+00  0.00000000E+00
