Nb3N2  (n=2)
1.00000000000000
2.9431037614451916  0.0000000000000000  0.0000000000000000
-1.4715518807225958  2.5488026235059520  0.0000000000000000
0.0000000000000000  0.0000000000000002  33.6134722904519236
Nb  N  F
3  2  2
Selective  dynamics
Direct
0.0000000000000000  0.0000000000000000  0.0435868995554004  T  T  T
0.6666666666666643  0.3333333333333357  0.1272741906598935  T  T  T
0.3333333333333357  0.6666666666666643  0.2116465433778819  T  T  T
0.3333333333333357  0.6666666666666643  0.0826682961632447  T  T  T
0.0000000000000000  0.0000000000000000  0.1700376751485460  T  T  T
0.3333333333333357  0.6666666666666643  0.0000000000000000  T  T  T
0.6666666666666643  0.3333333333333357  0.2562505954762259  T  T  T

0.00000000E+00  0.00000000E+00  0.00000000E+00
0.00000000E+00  0.00000000E+00  0.00000000E+00
0.00000000E+00  0.00000000E+00  0.00000000E+00
0.00000000E+00  0.00000000E+00  0.00000000E+00
0.00000000E+00  0.00000000E+00  0.00000000E+00
0.00000000E+00  0.00000000E+00  0.00000000E+00
0.00000000E+00  0.00000000E+00  0.00000000E+00
