Zr3C2  (n=2)
1.00000000000000
3.2843798155454995  0.0000000000000000  0.0000000000000000
-1.6421899077727500  2.8443563561084528  0.0000000000000000
-0.0000000000000002  -0.0000000000000017  33.0030758071743477
Zr  C  F
3  2  2
Selective  dynamics
Direct
0.0000000000000000  0.0000000000000000  0.0425833357981256  T  T  T
0.6666666666666643  0.3333333333333357  0.1221448191815623  T  T  T
0.3333333333333357  0.6666666666666643  0.2015638084036074  T  T  T
0.3333333333333357  0.6666666666666643  0.0803854220105273  T  T  T
0.0000000000000000  0.0000000000000000  0.1663122703994891  T  T  T
0.3333333333333357  0.6666666666666643  0.0000000000000000  T  T  T
0.6666666666666643  0.3333333333333357  0.2424948466601591  T  T  T

0.00000000E+00  0.00000000E+00  0.00000000E+00
0.00000000E+00  0.00000000E+00  0.00000000E+00
0.00000000E+00  0.00000000E+00  0.00000000E+00
0.00000000E+00  0.00000000E+00  0.00000000E+00
0.00000000E+00  0.00000000E+00  0.00000000E+00
0.00000000E+00  0.00000000E+00  0.00000000E+00
0.00000000E+00  0.00000000E+00  0.00000000E+00
