Ti3N2  (n=2)
1.00000000000000
2.9146805767074655  0.0000000000000000  0.0000000000000000
-1.4573402883537327  2.5241874233777031  0.0000000000000000
-0.0000000000000002  -0.0000000000000005  32.5722801189901574
Ti  N  F
3  2  2
Selective  dynamics
Direct
0.0000000000000000  0.0000000000000000  0.0402270244098553  T  T  T
0.6666666666666643  0.3333333333333357  0.1170557685103097  T  T  T
0.3333333333333357  0.6666666666666643  0.1922955282000704  T  T  T
0.3333333333333357  0.6666666666666643  0.0781218641366084  T  T  T
0.0000000000000000  0.0000000000000000  0.1555392189768775  T  T  T
0.3333333333333357  0.6666666666666643  0.0000000000000000  T  T  T
0.6666666666666643  0.3333333333333357  0.2324762064960689  T  T  T

0.00000000E+00  0.00000000E+00  0.00000000E+00
0.00000000E+00  0.00000000E+00  0.00000000E+00
0.00000000E+00  0.00000000E+00  0.00000000E+00
0.00000000E+00  0.00000000E+00  0.00000000E+00
0.00000000E+00  0.00000000E+00  0.00000000E+00
0.00000000E+00  0.00000000E+00  0.00000000E+00
0.00000000E+00  0.00000000E+00  0.00000000E+00
