Ti3C2  (n=2)
1.00000000000000
3.0127985844185190  0.0000000000000000  0.0000000000000000
-1.5063992922092595  2.6091601106449089  0.0000000000000000
0.0000000000000003  0.0000000000000004  32.4432870459840146
Ti  C  F
3  2  2
Selective  dynamics
Direct
-0.0000000000000000  -0.0000000000000000  0.0410894812551454  T  T  T
0.6666666666666643  0.3333333333333357  0.1159845253948167  T  T  T
0.3333333333333357  0.6666666666666643  0.1902699700989868  T  T  T
0.3333333333333357  0.6666666666666643  0.0770122105746316  T  T  T
-0.0000000000000000  -0.0000000000000000  0.1565292640451550  T  T  T
0.3333333333333357  0.6666666666666643  0.0000000000000000  T  T  T
0.6666666666666643  0.3333333333333357  0.2294245658719522  T  T  T

0.00000000E+00  0.00000000E+00  0.00000000E+00
0.00000000E+00  0.00000000E+00  0.00000000E+00
0.00000000E+00  0.00000000E+00  0.00000000E+00
0.00000000E+00  0.00000000E+00  0.00000000E+00
0.00000000E+00  0.00000000E+00  0.00000000E+00
0.00000000E+00  0.00000000E+00  0.00000000E+00
0.00000000E+00  0.00000000E+00  0.00000000E+00
