Sc3C2  (n=2)
1.00000000000000
3.1909757762402884  0.0000000000000000  0.0000000000000001
-1.5954878881201442  2.7634660851504629  -0.0000000000000001
0.0000000000000008  0.0000000000000022  32.9618644473158682
Sc  C  F
3  2  2
Selective  dynamics
Direct
-0.0000000000000000  -0.0000000000000000  0.0392698185736060  T  T  T
0.6666666666666643  0.3333333333333357  0.1228543173869177  T  T  T
0.3333333333333357  0.6666666666666643  0.2056681507345037  T  T  T
0.3333333333333357  0.6666666666666643  0.0802185923336033  T  T  T
-0.0000000000000000  -0.0000000000000000  0.1663590672573355  T  T  T
0.3333333333333357  0.6666666666666643  0.0000000000000000  T  T  T
0.6666666666666643  0.3333333333333357  0.2415477577138150  T  T  T

0.00000000E+00  0.00000000E+00  0.00000000E+00
0.00000000E+00  0.00000000E+00  0.00000000E+00
0.00000000E+00  0.00000000E+00  0.00000000E+00
0.00000000E+00  0.00000000E+00  0.00000000E+00
0.00000000E+00  0.00000000E+00  0.00000000E+00
0.00000000E+00  0.00000000E+00  0.00000000E+00
0.00000000E+00  0.00000000E+00  0.00000000E+00
