Nb3C2  (n=2)
1.00000000000000
3.0888913995867653  0.0000000000000001  0.0000000000000000
-1.5444456997933826  2.6750584216997266  -0.0000000000000001
-0.0000000000000001  0.0000000000000000  33.0601427114852839
Nb  C  F
3  2  2
Selective  dynamics
Direct
0.0000000000000000  -0.0000000000000000  0.0427309034095172  T  T  T
0.6666666666666643  0.3333333333333357  0.1239405482492545  T  T  T
0.3333333333333357  0.6666666666666643  0.1992908943359708  T  T  T
0.3333333333333357  0.6666666666666643  0.0813409826068205  T  T  T
0.0000000000000000  -0.0000000000000000  0.1630043576568359  T  T  T
0.3333333333333357  0.6666666666666643  0.0000000000000000  T  T  T
0.6666666666666643  0.3333333333333357  0.2438024173647970  T  T  T

0.00000000E+00  0.00000000E+00  0.00000000E+00
0.00000000E+00  0.00000000E+00  0.00000000E+00
0.00000000E+00  0.00000000E+00  0.00000000E+00
0.00000000E+00  0.00000000E+00  0.00000000E+00
0.00000000E+00  0.00000000E+00  0.00000000E+00
0.00000000E+00  0.00000000E+00  0.00000000E+00
0.00000000E+00  0.00000000E+00  0.00000000E+00
