Mo3N2  (n=2)
1.00000000000000
2.7878588300625244  0.0000000000000000  0.0000000000000000
-1.3939294150312624  2.4143565690903386  0.0000000000000000
-0.0000000000000007  0.0000000000000012  33.9990351113728124
Mo  N  F
3  2  2
Selective  dynamics
Direct
0.0000000000000000  0.0000000000000000  0.0463368827582139  T  T  T
0.6666666666666643  0.3333333333333357  0.1341630319115941  T  T  T
0.3333333333333357  0.6666666666666643  0.2196958004170315  T  T  T
0.3333333333333357  0.6666666666666643  0.0860075919626678  T  T  T
0.0000000000000000  0.0000000000000000  0.1772037949041755  T  T  T
0.3333333333333357  0.6666666666666643  0.0000000000000000  T  T  T
0.6666666666666643  0.3333333333333357  0.2646850147921579  T  T  T

0.00000000E+00  0.00000000E+00  0.00000000E+00
0.00000000E+00  0.00000000E+00  0.00000000E+00
0.00000000E+00  0.00000000E+00  0.00000000E+00
0.00000000E+00  0.00000000E+00  0.00000000E+00
0.00000000E+00  0.00000000E+00  0.00000000E+00
0.00000000E+00  0.00000000E+00  0.00000000E+00
0.00000000E+00  0.00000000E+00  0.00000000E+00
