Zr3N2  (n=2)
1.00000000000000
3.1524031108550021  0.0000000000000000  0.0000000000000000
-1.5762015554275011  2.7300611771146044  0.0000000000000000
-0.0000000000000001  0.0000000000000001  33.2541328981393320
Zr  N  F
3  2  2
Selective  dynamics
Direct
0.0000000000000000  0.0000000000000000  0.0420241823181104  T  T  T
0.6666666666666643  0.3333333333333357  0.1240836356908206  T  T  T
0.3333333333333357  0.6666666666666643  0.2053808620125276  T  T  T
0.3333333333333357  0.6666666666666643  0.0826532450266009  T  T  T
0.0000000000000000  0.0000000000000000  0.1646709372250516  T  T  T
0.3333333333333357  0.6666666666666643  0.0000000000000000  T  T  T
0.6666666666666643  0.3333333333333357  0.2482137460454180  T  T  T

0.00000000E+00  0.00000000E+00  0.00000000E+00
0.00000000E+00  0.00000000E+00  0.00000000E+00
0.00000000E+00  0.00000000E+00  0.00000000E+00
0.00000000E+00  0.00000000E+00  0.00000000E+00
0.00000000E+00  0.00000000E+00  0.00000000E+00
0.00000000E+00  0.00000000E+00  0.00000000E+00
0.00000000E+00  0.00000000E+00  0.00000000E+00
