Cr3C2  (n=2)
1.00000000000000
2.9040242280258246  0.0000000000000001  0.0000000000000000
-1.4520121140129123  2.5149587546834975  0.0000000000000001
-0.0000000000000009  0.0000000000000004  32.1126062989082257
Cr  C  F
3  2  2
Selective  dynamics
Direct
-0.0000000000000000  -0.0000000000000000  0.0426147946128909  T  T  T
0.6666666666666643  0.3333333333333357  0.1114166165863405  T  T  T
0.3333333333333357  0.6666666666666643  0.1816700858691321  T  T  T
0.3333333333333357  0.6666666666666643  0.0751665991440369  T  T  T
-0.0000000000000000  -0.0000000000000000  0.1494238042380046  T  T  T
0.3333333333333357  0.6666666666666643  0.0000000000000000  T  T  T
0.6666666666666643  0.3333333333333357  0.2214895369345976  T  T  T

0.00000000E+00  0.00000000E+00  0.00000000E+00
0.00000000E+00  0.00000000E+00  0.00000000E+00
0.00000000E+00  0.00000000E+00  0.00000000E+00
0.00000000E+00  0.00000000E+00  0.00000000E+00
0.00000000E+00  0.00000000E+00  0.00000000E+00
0.00000000E+00  0.00000000E+00  0.00000000E+00
0.00000000E+00  0.00000000E+00  0.00000000E+00
