Hf3N2  (n=2)
1.00000000000000
3.0890913064387582  0.0000000000000000  0.0000000000000000
-1.5445456532193791  2.6752315460802203  0.0000000000000000
0.0000000000000000  0.0000000000000000  33.2076096590033600
Hf  N  F
3  2  2
Selective  dynamics
Direct
-0.0000000000000000  -0.0000000000000000  0.0420153579269376  T  T  T
0.6666666666666643  0.3333333333333357  0.1233021758800232  T  T  T
0.3333333333333357  0.6666666666666643  0.2039789070874684  T  T  T
0.3333333333333357  0.6666666666666643  0.0826902992604718  T  T  T
-0.0000000000000000  0.0000000000000000  0.1629844611434822  T  T  T
0.3333333333333357  0.6666666666666643  0.0000000000000000  T  T  T
0.6666666666666643  0.3333333333333357  0.2471605075849862  T  T  T

0.00000000E+00  0.00000000E+00  0.00000000E+00
0.00000000E+00  0.00000000E+00  0.00000000E+00
0.00000000E+00  0.00000000E+00  0.00000000E+00
0.00000000E+00  0.00000000E+00  0.00000000E+00
0.00000000E+00  0.00000000E+00  0.00000000E+00
0.00000000E+00  0.00000000E+00  0.00000000E+00
0.00000000E+00  0.00000000E+00  0.00000000E+00
