Ta3C2  (n=2)
1.00000000000000
3.3674148289093866  0.0000000000000000  0.0000000000000000
-1.6837074144546933  2.9162667871275021  0.0000000000000000
0.0000000000000000  0.0000000000000002  33.7939164137631849
Ta  C  Te
3  2  2
Selective  dynamics
Direct
0.0000000000000000  0.0000000000000000  0.0622999784852808  T  T  T
0.6666666666666643  0.3333333333333357  0.1301109392899739  T  T  T
0.3333333333333357  0.6666666666666643  0.1979219000946670  T  T  T
0.3333333333333357  0.6666666666666643  0.0917977750878628  T  T  T
0.0000000000000000  0.0000000000000000  0.1684241034920772  T  T  T
0.6666666666666643  0.3333333333333357  0.0000000000000000  T  T  T
0.6666666666666643  0.3333333333333357  0.2602218785799477  T  T  T

0.00000000E+00  0.00000000E+00  0.00000000E+00
0.00000000E+00  0.00000000E+00  0.00000000E+00
0.00000000E+00  0.00000000E+00  0.00000000E+00
0.00000000E+00  0.00000000E+00  0.00000000E+00
0.00000000E+00  0.00000000E+00  0.00000000E+00
0.00000000E+00  0.00000000E+00  0.00000000E+00
0.00000000E+00  0.00000000E+00  0.00000000E+00
