Hf3N2  (n=2)
1.00000000000000
3.4083445226741445  0.0000000000000001  0.0000000000000000
-1.7041722613370724  2.9517129417366790  0.0000000000000000
0.0000000000000002  0.0000000000000005  34.0461180528607059
Hf  N  Te
3  2  2
Selective  dynamics
Direct
0.0000000000000000  0.0000000000000000  0.0618354046899958  T  T  T
0.6666666666666643  0.3333333333333357  0.1328509470421122  T  T  T
0.3333333333333357  0.6666666666666643  0.2038664893942364  T  T  T
0.3333333333333357  0.6666666666666643  0.0957830866199766  T  T  T
0.0000000000000000  -0.0000000000000000  0.1699188074642554  T  T  T
0.6666666666666643  0.3333333333333357  0.0000000000000000  T  T  T
0.6666666666666643  0.3333333333333357  0.2657018940842394  T  T  T

0.00000000E+00  0.00000000E+00  0.00000000E+00
0.00000000E+00  0.00000000E+00  0.00000000E+00
0.00000000E+00  0.00000000E+00  0.00000000E+00
0.00000000E+00  0.00000000E+00  0.00000000E+00
0.00000000E+00  0.00000000E+00  0.00000000E+00
0.00000000E+00  0.00000000E+00  0.00000000E+00
0.00000000E+00  0.00000000E+00  0.00000000E+00
