Ti3C2  (n=2)
1.00000000000000
3.2235132887175042  -0.0000000000000000  0.0000000000000000
-1.6117566443587521  2.7916443975314227  -0.0000000000000000
0.0000000000000001  0.0000000000000002  33.9608536081908952
Ti  C  Te
3  2  2
Selective  dynamics
Direct
0.0000000000000000  0.0000000000000000  0.0644427620292619  T  T  T
0.6666666666666643  0.3333333333333357  0.1319291574878092  T  T  T
0.3333333333333357  0.6666666666666643  0.1994155529463649  T  T  T
0.3333333333333357  0.6666666666666643  0.0945236429791462  T  T  T
-0.0000000000000000  -0.0000000000000000  0.1693346719964638  T  T  T
0.6666666666666643  0.3333333333333357  0.0000000000000000  T  T  T
0.6666666666666643  0.3333333333333357  0.2638583149756182  T  T  T

0.00000000E+00  0.00000000E+00  0.00000000E+00
0.00000000E+00  0.00000000E+00  0.00000000E+00
0.00000000E+00  0.00000000E+00  0.00000000E+00
0.00000000E+00  0.00000000E+00  0.00000000E+00
0.00000000E+00  0.00000000E+00  0.00000000E+00
0.00000000E+00  0.00000000E+00  0.00000000E+00
0.00000000E+00  0.00000000E+00  0.00000000E+00
