Sc3C2  (n=2)
1.00000000000000
3.3527351475346037  0.0000000000000000  0.0000000000000000
-1.6763675737673018  2.9035538101075606  0.0000000000000000
-0.0000000000000001  0.0000000000000004  35.0619941371973596
Sc  C  Te
3  2  2
Selective  dynamics
Direct
-0.0000000000000000  -0.0000000000000000  0.0705978024590318  T  T  T
0.6666666666666643  0.3333333333333357  0.1434886175872413  T  T  T
0.3333333333333357  0.6666666666666643  0.2163794327154665  T  T  T
0.3333333333333357  0.6666666666666643  0.1027422253925573  T  T  T
0.0000000000000000  0.0000000000000000  0.1842350097819332  T  T  T
0.6666666666666643  0.3333333333333357  0.0000000000000000  T  T  T
0.6666666666666643  0.3333333333333357  0.2869772351744982  T  T  T

0.00000000E+00  0.00000000E+00  0.00000000E+00
0.00000000E+00  0.00000000E+00  0.00000000E+00
0.00000000E+00  0.00000000E+00  0.00000000E+00
0.00000000E+00  0.00000000E+00  0.00000000E+00
0.00000000E+00  0.00000000E+00  0.00000000E+00
0.00000000E+00  0.00000000E+00  0.00000000E+00
0.00000000E+00  0.00000000E+00  0.00000000E+00
