Ti3N2  (n=2)
1.00000000000000
3.2291844069388813  0.0000000000000000  0.0000000000000000
-1.6145922034694407  2.7965557299717343  0.0000000000000000
0.0000000000000000  -0.0000000000000009  33.6189381199424417
Ti  N  Te
3  2  2
Selective  dynamics
Direct
-0.0000000000000000  -0.0000000000000000  0.0636697301510543  T  T  T
0.6666666666666643  0.3333333333333357  0.1281857578188869  T  T  T
0.3333333333333357  0.6666666666666643  0.1927017854867195  T  T  T
0.3333333333333357  0.6666666666666643  0.0917723002589709  T  T  T
-0.0000000000000000  0.0000000000000000  0.1645992153788029  T  T  T
0.6666666666666643  0.3333333333333357  0.0000000000000000  T  T  T
0.6666666666666643  0.3333333333333357  0.2563715156377818  T  T  T

0.00000000E+00  0.00000000E+00  0.00000000E+00
0.00000000E+00  0.00000000E+00  0.00000000E+00
0.00000000E+00  0.00000000E+00  0.00000000E+00
0.00000000E+00  0.00000000E+00  0.00000000E+00
0.00000000E+00  0.00000000E+00  0.00000000E+00
0.00000000E+00  0.00000000E+00  0.00000000E+00
0.00000000E+00  0.00000000E+00  0.00000000E+00
