Mo3N2  (n=2)
1.00000000000000
3.3332955577474621  0.0000000000000000  -0.0000000000000001
-1.6666477788737311  2.8867186315002717  0.0000000000000000
-0.0000000000000006  0.0000000000000011  33.3216375770900939
Mo  N  Te
3  2  2
Selective  dynamics
Direct
0.0000000000000000  -0.0000000000000000  0.0621250897784843  T  T  T
0.6666666666666643  0.3333333333333357  0.1248657023801962  T  T  T
0.3333333333333357  0.6666666666666643  0.1876116633399021  T  T  T
0.3333333333333357  0.6666666666666643  0.0919229453776144  T  T  T
-0.0000000000000000  -0.0000000000000000  0.1578104008667643  T  T  T
0.6666666666666643  0.3333333333333357  0.0000000000000000  T  T  T
0.6666666666666643  0.3333333333333357  0.2497367531183863  T  T  T

0.00000000E+00  0.00000000E+00  0.00000000E+00
0.00000000E+00  0.00000000E+00  0.00000000E+00
0.00000000E+00  0.00000000E+00  0.00000000E+00
0.00000000E+00  0.00000000E+00  0.00000000E+00
0.00000000E+00  0.00000000E+00  0.00000000E+00
0.00000000E+00  0.00000000E+00  0.00000000E+00
0.00000000E+00  0.00000000E+00  0.00000000E+00
