Sc3N2  (n=2)
1.00000000000000
3.3219156047317440  0.0000000000000000  0.0000000000000000
-1.6609578023658720  2.8768633030437178  0.0000000000000000
0.0000000000000000  0.0000000000000000  34.4687133903674621
Sc  N  Te
3  2  2
Selective  dynamics
Direct
-0.0000000000000000  0.0000000000000000  0.0661049630812399  T  T  T
0.6666666666666643  0.3333333333333357  0.1373522893519658  T  T  T
0.3333333333333357  0.6666666666666643  0.2085996156226836  T  T  T
0.3333333333333357  0.6666666666666643  0.0988105613203288  T  T  T
-0.0000000000000000  -0.0000000000000000  0.1758940173835948  T  T  T
0.6666666666666643  0.3333333333333357  0.0000000000000000  T  T  T
0.6666666666666643  0.3333333333333357  0.2747045787039316  T  T  T

0.00000000E+00  0.00000000E+00  0.00000000E+00
0.00000000E+00  0.00000000E+00  0.00000000E+00
0.00000000E+00  0.00000000E+00  0.00000000E+00
0.00000000E+00  0.00000000E+00  0.00000000E+00
0.00000000E+00  0.00000000E+00  0.00000000E+00
0.00000000E+00  0.00000000E+00  0.00000000E+00
0.00000000E+00  0.00000000E+00  0.00000000E+00
