Nb3N2  (n=2)
1.00000000000000
3.2940211235983812  0.0000000000000000  0.0000000000000000
-1.6470105617991906  2.8527059737186917  0.0000000000000000
0.0000000000000000  -0.0000000000000003  34.0286757269739724
Nb  N  Te
3  2  2
Selective  dynamics
Direct
-0.0000000000000000  0.0000000000000000  0.0619282853122606  T  T  T
0.6666666666666643  0.3333333333333357  0.1326627547809156  T  T  T
0.3333333333333357  0.6666666666666643  0.2033972242495790  T  T  T
0.3333333333333357  0.6666666666666643  0.0969204135131514  T  T  T
-0.0000000000000000  -0.0000000000000000  0.1684050960486801  T  T  T
0.6666666666666643  0.3333333333333357  0.0000000000000000  T  T  T
0.6666666666666643  0.3333333333333357  0.2653255095618397  T  T  T

0.00000000E+00  0.00000000E+00  0.00000000E+00
0.00000000E+00  0.00000000E+00  0.00000000E+00
0.00000000E+00  0.00000000E+00  0.00000000E+00
0.00000000E+00  0.00000000E+00  0.00000000E+00
0.00000000E+00  0.00000000E+00  0.00000000E+00
0.00000000E+00  0.00000000E+00  0.00000000E+00
0.00000000E+00  0.00000000E+00  0.00000000E+00
