Cr3C2  (n=2)
1.00000000000000
3.1584421093343482  0.0000000000000000  0.0000000000000000
-1.5792210546671741  2.7352911030819262  -0.0000000000000001
0.0000000000000002  -0.0000000000000012  33.1033897309536300
Cr  C  Te
3  2  2
Selective  dynamics
Direct
-0.0000000000000000  0.0000000000000000  0.0631114793031648  T  T  T
0.6666666666666643  0.3333333333333357  0.1223951655225237  T  T  T
0.3333333333333357  0.6666666666666643  0.1816788517418906  T  T  T
0.3333333333333357  0.6666666666666643  0.0872744289241641  T  T  T
-0.0000000000000000  -0.0000000000000000  0.1575159021208833  T  T  T
0.6666666666666643  0.3333333333333357  0.0000000000000000  T  T  T
0.6666666666666643  0.3333333333333357  0.2447903310450555  T  T  T

0.00000000E+00  0.00000000E+00  0.00000000E+00
0.00000000E+00  0.00000000E+00  0.00000000E+00
0.00000000E+00  0.00000000E+00  0.00000000E+00
0.00000000E+00  0.00000000E+00  0.00000000E+00
0.00000000E+00  0.00000000E+00  0.00000000E+00
0.00000000E+00  0.00000000E+00  0.00000000E+00
0.00000000E+00  0.00000000E+00  0.00000000E+00
