Ta3N2  (n=2)
1.00000000000000
3.2742076666795752  0.0000000000000000  -0.0000000000000000
-1.6371038333397876  2.8355470167815744  -0.0000000000000000
-0.0000000000000005  -0.0000000000000000  33.9882405987986260
Ta  N  Te
3  2  2
Selective  dynamics
Direct
-0.0000000000000000  0.0000000000000000  0.0614814179172276  T  T  T
0.6666666666666643  0.3333333333333357  0.1322257410275613  T  T  T
0.3333333333333357  0.6666666666666643  0.2029700641379019  T  T  T
0.3333333333333357  0.6666666666666643  0.0972714514339522  T  T  T
0.0000000000000000  0.0000000000000000  0.1671800306211702  T  T  T
0.6666666666666643  0.3333333333333357  0.0000000000000000  T  T  T
0.6666666666666643  0.3333333333333357  0.2644514820551296  T  T  T

0.00000000E+00  0.00000000E+00  0.00000000E+00
0.00000000E+00  0.00000000E+00  0.00000000E+00
0.00000000E+00  0.00000000E+00  0.00000000E+00
0.00000000E+00  0.00000000E+00  0.00000000E+00
0.00000000E+00  0.00000000E+00  0.00000000E+00
0.00000000E+00  0.00000000E+00  0.00000000E+00
0.00000000E+00  0.00000000E+00  0.00000000E+00
