Zr3N2  (n=2)
1.00000000000000
3.4628956327687845  -0.0000000000000001  0.0000000000000000
-1.7314478163843923  2.9989555889341064  0.0000000000000000
0.0000000000000002  0.0000000000000002  34.1502962022740064
Zr  N  Te
3  2  2
Selective  dynamics
Direct
-0.0000000000000000  -0.0000000000000000  0.0630841345381876  T  T  T
0.6666666666666643  0.3333333333333357  0.1339709639423926  T  T  T
0.3333333333333357  0.6666666666666643  0.2048577933466054  T  T  T
0.3333333333333357  0.6666666666666643  0.0952396302003242  T  T  T
0.0000000000000000  0.0000000000000000  0.1727022976844687  T  T  T
0.6666666666666643  0.3333333333333357  0.0000000000000000  T  T  T
0.6666666666666643  0.3333333333333357  0.2679419278847926  T  T  T

0.00000000E+00  0.00000000E+00  0.00000000E+00
0.00000000E+00  0.00000000E+00  0.00000000E+00
0.00000000E+00  0.00000000E+00  0.00000000E+00
0.00000000E+00  0.00000000E+00  0.00000000E+00
0.00000000E+00  0.00000000E+00  0.00000000E+00
0.00000000E+00  0.00000000E+00  0.00000000E+00
0.00000000E+00  0.00000000E+00  0.00000000E+00
