Cr3N2  (n=2)
1.00000000000000
3.1498795823075358  0.0000000000000000  0.0000000000000000
-1.5749397911537679  2.7278757371531355  0.0000000000000000
0.0000000000000000  0.0000000000000001  33.1013565534978795
Cr  N  Te
3  2  2
Selective  dynamics
Direct
-0.0000000000000000  0.0000000000000000  0.0636158927061786  T  T  T
0.6666666666666643  0.3333333333333357  0.1223719719825390  T  T  T
0.3333333333333357  0.6666666666666643  0.1811280512589151  T  T  T
0.3333333333333357  0.6666666666666643  0.0863656317720244  T  T  T
-0.0000000000000000  -0.0000000000000000  0.1583783121930614  T  T  T
0.6666666666666643  0.3333333333333357  0.0000000000000000  T  T  T
0.6666666666666643  0.3333333333333357  0.2447439439650939  T  T  T

0.00000000E+00  0.00000000E+00  0.00000000E+00
0.00000000E+00  0.00000000E+00  0.00000000E+00
0.00000000E+00  0.00000000E+00  0.00000000E+00
0.00000000E+00  0.00000000E+00  0.00000000E+00
0.00000000E+00  0.00000000E+00  0.00000000E+00
0.00000000E+00  0.00000000E+00  0.00000000E+00
0.00000000E+00  0.00000000E+00  0.00000000E+00
