Hf3C2  (n=2)
1.00000000000000
3.4025347285265801  0.0000000000000000  0.0000000000000000
-1.7012673642632901  2.9466815123107613  -0.0000000000000000
-0.0000000000000000  -0.0000000000000010  34.4654073564867005
Hf  C  Te
3  2  2
Selective  dynamics
Direct
-0.0000000000000000  -0.0000000000000000  0.0644460952253173  T  T  T
0.6666666666666643  0.3333333333333357  0.1373175030050087  T  T  T
0.3333333333333357  0.6666666666666643  0.2101889107847082  T  T  T
0.3333333333333357  0.6666666666666643  0.0975473399064996  T  T  T
0.0000000000000000  0.0000000000000000  0.1770876661035178  T  T  T
0.6666666666666643  0.3333333333333357  0.0000000000000000  T  T  T
0.6666666666666643  0.3333333333333357  0.2746350060100255  T  T  T

0.00000000E+00  0.00000000E+00  0.00000000E+00
0.00000000E+00  0.00000000E+00  0.00000000E+00
0.00000000E+00  0.00000000E+00  0.00000000E+00
0.00000000E+00  0.00000000E+00  0.00000000E+00
0.00000000E+00  0.00000000E+00  0.00000000E+00
0.00000000E+00  0.00000000E+00  0.00000000E+00
0.00000000E+00  0.00000000E+00  0.00000000E+00
