Nb3C2  (n=2)
1.00000000000000
3.3737377293686373  0.0000000000000000  0.0000000000000000
-1.6868688646843186  2.9217425794619429  -0.0000000000000001
0.0000000000000001  0.0000000000000002  33.8584690778637949
Nb  C  Te
3  2  2
Selective  dynamics
Direct
-0.0000000000000000  -0.0000000000000000  0.0623968163656176  T  T  T
0.6666666666666643  0.3333333333333357  0.1308161490924488  T  T  T
0.3333333333333357  0.6666666666666643  0.1992354818192800  T  T  T
0.3333333333333357  0.6666666666666643  0.0923616170241730  T  T  T
-0.0000000000000000  0.0000000000000000  0.1692706811607159  T  T  T
0.6666666666666643  0.3333333333333357  0.0000000000000000  T  T  T
0.6666666666666643  0.3333333333333357  0.2616322981848975  T  T  T

0.00000000E+00  0.00000000E+00  0.00000000E+00
0.00000000E+00  0.00000000E+00  0.00000000E+00
0.00000000E+00  0.00000000E+00  0.00000000E+00
0.00000000E+00  0.00000000E+00  0.00000000E+00
0.00000000E+00  0.00000000E+00  0.00000000E+00
0.00000000E+00  0.00000000E+00  0.00000000E+00
0.00000000E+00  0.00000000E+00  0.00000000E+00
