Mo3C2  (n=2)
1.00000000000000
3.2275071061541381  0.0000000000000000  0.0000000000000000
-1.6137535530770690  2.7951031448989223  0.0000000000000000
0.0000000000000000  0.0000000000000003  33.9597569782284765
Mo  C  Te
3  2  2
Selective  dynamics
Direct
0.0000000000000000  0.0000000000000000  0.0635805754187319  T  T  T
0.6666666666666643  0.3333333333333357  0.1319172717280051  T  T  T
0.3333333333333357  0.6666666666666643  0.2002539680372934  T  T  T
0.3333333333333357  0.6666666666666643  0.0940515078975750  T  T  T
-0.0000000000000000  0.0000000000000000  0.1697830355584353  T  T  T
0.6666666666666643  0.3333333333333357  0.0000000000000000  T  T  T
0.6666666666666643  0.3333333333333357  0.2638345434560253  T  T  T

0.00000000E+00  0.00000000E+00  0.00000000E+00
0.00000000E+00  0.00000000E+00  0.00000000E+00
0.00000000E+00  0.00000000E+00  0.00000000E+00
0.00000000E+00  0.00000000E+00  0.00000000E+00
0.00000000E+00  0.00000000E+00  0.00000000E+00
0.00000000E+00  0.00000000E+00  0.00000000E+00
0.00000000E+00  0.00000000E+00  0.00000000E+00
