Zr3C2  (n=2)
1.00000000000000
3.4354936139552943  0.0000000000000000  0.0000000000000000
-1.7177468069776471  2.9752247443911783  0.0000000000000000
-0.0000000000000001  -0.0000000000000012  34.6635469242521168
Zr  C  Te
3  2  2
Selective  dynamics
Direct
0.0000000000000000  0.0000000000000000  0.0654625760462038  T  T  T
0.6666666666666643  0.3333333333333357  0.1393906247587507  T  T  T
0.3333333333333357  0.6666666666666643  0.2133186734713058  T  T  T
0.3333333333333357  0.6666666666666643  0.0990113401138914  T  T  T
-0.0000000000000000  -0.0000000000000000  0.1797699094036182  T  T  T
0.6666666666666643  0.3333333333333357  0.0000000000000000  T  T  T
0.6666666666666643  0.3333333333333357  0.2787812495175179  T  T  T

0.00000000E+00  0.00000000E+00  0.00000000E+00
0.00000000E+00  0.00000000E+00  0.00000000E+00
0.00000000E+00  0.00000000E+00  0.00000000E+00
0.00000000E+00  0.00000000E+00  0.00000000E+00
0.00000000E+00  0.00000000E+00  0.00000000E+00
0.00000000E+00  0.00000000E+00  0.00000000E+00
0.00000000E+00  0.00000000E+00  0.00000000E+00
