Nb3C2  (n=2)
1.00000000000000
3.2882961819128234  -0.0000000000000001  0.0000000000000000
-1.6441480909564117  2.8477480290171884  0.0000000000000000
0.0000000000000000  0.0000000000000000  34.7632964713479140
Nb  C  I
3  2  2
Selective  dynamics
Direct
0.0000000000000000  -0.0000000000000000  0.0604330366696886  T  T  T
0.0000000000000000  -0.0000000000000000  0.1404253546466008  T  T  T
0.0000000000000000  -0.0000000000000000  0.2204176726235131  T  T  T
0.3333333333333357  0.6666666666666643  0.0980649645500369  T  T  T
0.3333333333333357  0.6666666666666643  0.1827857447431645  T  T  T
0.3333333333333357  0.6666666666666643  0.0000000000000000  T  T  T
0.3333333333333357  0.6666666666666643  0.2808507092932015  T  T  T

0.00000000E+00  0.00000000E+00  0.00000000E+00
0.00000000E+00  0.00000000E+00  0.00000000E+00
0.00000000E+00  0.00000000E+00  0.00000000E+00
0.00000000E+00  0.00000000E+00  0.00000000E+00
0.00000000E+00  0.00000000E+00  0.00000000E+00
0.00000000E+00  0.00000000E+00  0.00000000E+00
0.00000000E+00  0.00000000E+00  0.00000000E+00
