Hf3N2  (n=2)
1.00000000000000
3.3327299681600420  -0.0000000000000001  0.0000000000000000
-1.6663649840800212  2.8862288167764589  0.0000000000000000
0.0000000000000000  0.0000000000000000  34.9235125838804379
Hf  N  I
3  2  2
Selective  dynamics
Direct
0.0000000000000000  0.0000000000000000  0.0608248367778382  T  T  T
0.0000000000000000  -0.0000000000000000  0.1420749496495494  T  T  T
0.0000000000000000  0.0000000000000000  0.2233250625212606  T  T  T
0.3333333333333357  0.6666666666666643  0.1004011053365795  T  T  T
0.3333333333333357  0.6666666666666643  0.1837487939625133  T  T  T
0.3333333333333357  0.6666666666666643  0.0000000000000000  T  T  T
0.3333333333333357  0.6666666666666643  0.2841498992990988  T  T  T

0.00000000E+00  0.00000000E+00  0.00000000E+00
0.00000000E+00  0.00000000E+00  0.00000000E+00
0.00000000E+00  0.00000000E+00  0.00000000E+00
0.00000000E+00  0.00000000E+00  0.00000000E+00
0.00000000E+00  0.00000000E+00  0.00000000E+00
0.00000000E+00  0.00000000E+00  0.00000000E+00
0.00000000E+00  0.00000000E+00  0.00000000E+00
