Zr3N2  (n=2)
1.00000000000000
3.3877334104877588  0.0000000000000001  0.0000000000000000
-1.6938667052438794  2.9338631951649492  0.0000000000000000
0.0000000000000000  0.0000000000000000  35.0202171249721488
Zr  N  I
3  2  2
Selective  dynamics
Direct
0.0000000000000000  0.0000000000000000  0.0611438731210202  T  T  T
0.0000000000000000  0.0000000000000000  0.1430633209556321  T  T  T
0.0000000000000000  0.0000000000000000  0.2249827687902516  T  T  T
0.3333333333333357  0.6666666666666643  0.1010577210734404  T  T  T
0.3333333333333357  0.6666666666666643  0.1850689208378313  T  T  T
0.3333333333333357  0.6666666666666643  0.0000000000000000  T  T  T
0.3333333333333357  0.6666666666666643  0.2861266419112791  T  T  T

0.00000000E+00  0.00000000E+00  0.00000000E+00
0.00000000E+00  0.00000000E+00  0.00000000E+00
0.00000000E+00  0.00000000E+00  0.00000000E+00
0.00000000E+00  0.00000000E+00  0.00000000E+00
0.00000000E+00  0.00000000E+00  0.00000000E+00
0.00000000E+00  0.00000000E+00  0.00000000E+00
0.00000000E+00  0.00000000E+00  0.00000000E+00
