Ti3C2  (n=2)
1.00000000000000
3.3159407864859909  0.0000000000000000  0.0000000000000000
-1.6579703932429954  2.8716889586377592  0.0000000000000000
0.0000000000000000  0.0000000000000000  34.2438181845581155
Ti  C  I
3  2  2
Selective  dynamics
Direct
-0.0000000000000000  -0.0000000000000000  0.0612226368611200  T  T  T
-0.0000000000000000  0.0000000000000000  0.1349706118450091  T  T  T
-0.0000000000000000  -0.0000000000000000  0.2087185868288813  T  T  T
0.3333333333333357  0.6666666666666643  0.0938902677748153  T  T  T
0.3333333333333357  0.6666666666666643  0.1760509559151859  T  T  T
0.3333333333333357  0.6666666666666643  0.0000000000000000  T  T  T
0.3333333333333357  0.6666666666666643  0.2699412236900183  T  T  T

0.00000000E+00  0.00000000E+00  0.00000000E+00
0.00000000E+00  0.00000000E+00  0.00000000E+00
0.00000000E+00  0.00000000E+00  0.00000000E+00
0.00000000E+00  0.00000000E+00  0.00000000E+00
0.00000000E+00  0.00000000E+00  0.00000000E+00
0.00000000E+00  0.00000000E+00  0.00000000E+00
0.00000000E+00  0.00000000E+00  0.00000000E+00
