Sc3N2  (n=2)
1.00000000000000
3.4064658709266444  0.0000000000000002  0.0000000000000000
-1.7032329354633220  2.9500859819249343  0.0000000000000000
0.0000000000000000  0.0000000000000000  34.7369057333253863
Sc  N  I
3  2  2
Selective  dynamics
Direct
-0.0000000000000000  0.0000000000000000  0.0622868924672411  T  T  T
-0.0000000000000000  0.0000000000000000  0.1401521742908709  T  T  T
-0.0000000000000000  0.0000000000000000  0.2180174561145005  T  T  T
0.3333333333333357  0.6666666666666643  0.0969263510554990  T  T  T
0.3333333333333357  0.6666666666666643  0.1833779975262358  T  T  T
0.3333333333333357  0.6666666666666643  0.0000000000000000  T  T  T
0.3333333333333357  0.6666666666666643  0.2803043485817487  T  T  T

0.00000000E+00  0.00000000E+00  0.00000000E+00
0.00000000E+00  0.00000000E+00  0.00000000E+00
0.00000000E+00  0.00000000E+00  0.00000000E+00
0.00000000E+00  0.00000000E+00  0.00000000E+00
0.00000000E+00  0.00000000E+00  0.00000000E+00
0.00000000E+00  0.00000000E+00  0.00000000E+00
0.00000000E+00  0.00000000E+00  0.00000000E+00
