Nb3N2  (n=2)
1.00000000000000
3.2244825439286138  0.0000000000000002  0.0000000000000000
-1.6122412719643069  2.7924837971850689  -0.0000000000000000
-0.0000000000000000  -0.0000000000000000  34.8157339436310949
Nb  N  I
3  2  2
Selective  dynamics
Direct
-0.0000000000000000  0.0000000000000000  0.0608688260010558  T  T  T
-0.0000000000000000  0.0000000000000000  0.1409669254642614  T  T  T
-0.0000000000000000  0.0000000000000000  0.2210650249274756  T  T  T
0.3333333333333357  0.6666666666666643  0.1003222433178683  T  T  T
0.3333333333333357  0.6666666666666643  0.1816116076106545  T  T  T
0.3333333333333357  0.6666666666666643  0.0000000000000000  T  T  T
0.3333333333333357  0.6666666666666643  0.2819338509285313  T  T  T

0.00000000E+00  0.00000000E+00  0.00000000E+00
0.00000000E+00  0.00000000E+00  0.00000000E+00
0.00000000E+00  0.00000000E+00  0.00000000E+00
0.00000000E+00  0.00000000E+00  0.00000000E+00
0.00000000E+00  0.00000000E+00  0.00000000E+00
0.00000000E+00  0.00000000E+00  0.00000000E+00
0.00000000E+00  0.00000000E+00  0.00000000E+00
