Cr3C2  (n=2)
1.00000000000000
3.1814084615743616  -0.0000000000000001  0.0000000000000000
-1.5907042307871810  2.7551805475494251  0.0000000000000000
0.0000000000000000  0.0000000000000000  33.9936436496349614
Cr  C  I
3  2  2
Selective  dynamics
Direct
-0.0000000000000000  -0.0000000000000000  0.0624760286035720  T  T  T
-0.0000000000000000  -0.0000000000000000  0.1322841961622333  T  T  T
-0.0000000000000000  -0.0000000000000000  0.2020923637209013  T  T  T
0.3333333333333357  0.6666666666666643  0.0934882939850747  T  T  T
0.3333333333333357  0.6666666666666643  0.1710800983393919  T  T  T
0.3333333333333357  0.6666666666666643  0.0000000000000000  T  T  T
0.3333333333333357  0.6666666666666643  0.2645683923244733  T  T  T

0.00000000E+00  0.00000000E+00  0.00000000E+00
0.00000000E+00  0.00000000E+00  0.00000000E+00
0.00000000E+00  0.00000000E+00  0.00000000E+00
0.00000000E+00  0.00000000E+00  0.00000000E+00
0.00000000E+00  0.00000000E+00  0.00000000E+00
0.00000000E+00  0.00000000E+00  0.00000000E+00
0.00000000E+00  0.00000000E+00  0.00000000E+00
