Mo3C2  (n=2)
1.00000000000000
3.1400486657029547  0.0000000000000000  0.0000000000000000
-1.5700243328514774  2.7193619137822966  0.0000000000000000
0.0000000000000000  0.0000000000000000  34.8028309776050548
Mo  C  I
3  2  2
Selective  dynamics
Direct
-0.0000000000000000  -0.0000000000000000  0.0627634269406238  T  T  T
-0.0000000000000000  -0.0000000000000000  0.1408338158455125  T  T  T
-0.0000000000000000  -0.0000000000000000  0.2189042047504010  T  T  T
0.3333333333333357  0.6666666666666643  0.1000340900421419  T  T  T
0.3333333333333357  0.6666666666666643  0.1816335416488763  T  T  T
0.3333333333333357  0.6666666666666643  0.0000000000000000  T  T  T
0.3333333333333357  0.6666666666666643  0.2816676316910249  T  T  T

0.00000000E+00  0.00000000E+00  0.00000000E+00
0.00000000E+00  0.00000000E+00  0.00000000E+00
0.00000000E+00  0.00000000E+00  0.00000000E+00
0.00000000E+00  0.00000000E+00  0.00000000E+00
0.00000000E+00  0.00000000E+00  0.00000000E+00
0.00000000E+00  0.00000000E+00  0.00000000E+00
0.00000000E+00  0.00000000E+00  0.00000000E+00
