Mo3N2  (n=2)
1.00000000000000
3.0926738380633134  -0.0000000000000000  0.0000000000000000
-1.5463369190316565  2.6783341094337239  -0.0000000000000000
-0.0000000000000000  0.0000000000000000  34.8694146176587836
Mo  N  I
3  2  2
Selective  dynamics
Direct
-0.0000000000000000  -0.0000000000000000  0.0645523189066648  T  T  T
-0.0000000000000000  -0.0000000000000000  0.1415196487505719  T  T  T
-0.0000000000000000  -0.0000000000000000  0.2184869785944942  T  T  T
0.3333333333333357  0.6666666666666643  0.1017819957623545  T  T  T
0.3333333333333357  0.6666666666666643  0.1812573017387969  T  T  T
0.3333333333333357  0.6666666666666643  0.0000000000000000  T  T  T
0.3333333333333357  0.6666666666666643  0.2830392975011589  T  T  T

0.00000000E+00  0.00000000E+00  0.00000000E+00
0.00000000E+00  0.00000000E+00  0.00000000E+00
0.00000000E+00  0.00000000E+00  0.00000000E+00
0.00000000E+00  0.00000000E+00  0.00000000E+00
0.00000000E+00  0.00000000E+00  0.00000000E+00
0.00000000E+00  0.00000000E+00  0.00000000E+00
0.00000000E+00  0.00000000E+00  0.00000000E+00
