Hf3C2  (n=2)
1.00000000000000
3.4326133277163264  0.0000000000000000  0.0000000000000000
-1.7163066638581632  2.9727303439366670  0.0000000000000000
0.0000000000000000  0.0000000000000000  34.9449007022134737
Hf  C  I
3  2  2
Selective  dynamics
Direct
-0.0000000000000000  0.0000000000000000  0.0628960051826527  T  T  T
-0.0000000000000000  0.0000000000000000  0.1422940186174759  T  T  T
-0.0000000000000000  0.0000000000000000  0.2216920320523063  T  T  T
0.3333333333333357  0.6666666666666643  0.0982419421349047  T  T  T
0.3333333333333357  0.6666666666666643  0.1863460951000543  T  T  T
0.3333333333333357  0.6666666666666643  0.0000000000000000  T  T  T
0.3333333333333357  0.6666666666666643  0.2845880372349590  T  T  T

0.00000000E+00  0.00000000E+00  0.00000000E+00
0.00000000E+00  0.00000000E+00  0.00000000E+00
0.00000000E+00  0.00000000E+00  0.00000000E+00
0.00000000E+00  0.00000000E+00  0.00000000E+00
0.00000000E+00  0.00000000E+00  0.00000000E+00
0.00000000E+00  0.00000000E+00  0.00000000E+00
0.00000000E+00  0.00000000E+00  0.00000000E+00
