Cr3N2  (n=2)
1.00000000000000
3.0675077829116497  0.0000000000000000  0.0000000000000000
-1.5337538914558249  2.6565396662947136  0.0000000000000000
0.0000000000000000  0.0000000000000000  34.0490371031816892
Cr  N  I
3  2  2
Selective  dynamics
Direct
0.0000000000000000  0.0000000000000000  0.0620989558604816  T  T  T
0.0000000000000000  0.0000000000000000  0.1328824230147740  T  T  T
0.0000000000000000  0.0000000000000000  0.2036658901690735  T  T  T
0.3333333333333357  0.6666666666666643  0.0934494450630450  T  T  T
0.3333333333333357  0.6666666666666643  0.1723154009665102  T  T  T
0.3333333333333357  0.6666666666666643  0.0000000000000000  T  T  T
0.3333333333333357  0.6666666666666643  0.2657648460295552  T  T  T

0.00000000E+00  0.00000000E+00  0.00000000E+00
0.00000000E+00  0.00000000E+00  0.00000000E+00
0.00000000E+00  0.00000000E+00  0.00000000E+00
0.00000000E+00  0.00000000E+00  0.00000000E+00
0.00000000E+00  0.00000000E+00  0.00000000E+00
0.00000000E+00  0.00000000E+00  0.00000000E+00
0.00000000E+00  0.00000000E+00  0.00000000E+00
