Zr3C2  (n=2)
1.00000000000000
3.4743041850509733  0.0000000000000000  0.0000000000000000
-1.7371520925254866  3.0088356850399069  0.0000000000000000
0.0000000000000000  0.0000000000000000  35.0150463324372794
Zr  C  I
3  2  2
Selective  dynamics
Direct
-0.0000000000000000  0.0000000000000000  0.0630956556128155  T  T  T
-0.0000000000000000  0.0000000000000000  0.1430106108864214  T  T  T
-0.0000000000000000  0.0000000000000000  0.2229255661600356  T  T  T
0.3333333333333357  0.6666666666666643  0.0986871528893363  T  T  T
0.3333333333333357  0.6666666666666643  0.1873340688835065  T  T  T
0.3333333333333357  0.6666666666666643  0.0000000000000000  T  T  T
0.3333333333333357  0.6666666666666643  0.2860212217728676  T  T  T

0.00000000E+00  0.00000000E+00  0.00000000E+00
0.00000000E+00  0.00000000E+00  0.00000000E+00
0.00000000E+00  0.00000000E+00  0.00000000E+00
0.00000000E+00  0.00000000E+00  0.00000000E+00
0.00000000E+00  0.00000000E+00  0.00000000E+00
0.00000000E+00  0.00000000E+00  0.00000000E+00
0.00000000E+00  0.00000000E+00  0.00000000E+00
