Ta3N2  (n=2)
1.00000000000000
3.1851805455493065  -0.0000000000000001  0.0000000000000000
-1.5925902727746535  2.7584472681685459  0.0000000000000000
0.0000000000000000  0.0000000000000000  34.8890225711262616
Ta  N  I
3  2  2
Selective  dynamics
Direct
0.0000000000000000  -0.0000000000000000  0.0613696230888642  T  T  T
0.0000000000000000  -0.0000000000000000  0.1417211180245316  T  T  T
0.0000000000000000  -0.0000000000000000  0.2220726129601988  T  T  T
0.3333333333333357  0.6666666666666643  0.1013557938289885  T  T  T
0.3333333333333357  0.6666666666666643  0.1820864422200666  T  T  T
0.3333333333333357  0.6666666666666643  0.0000000000000000  T  T  T
0.3333333333333357  0.6666666666666643  0.2834422360490632  T  T  T

0.00000000E+00  0.00000000E+00  0.00000000E+00
0.00000000E+00  0.00000000E+00  0.00000000E+00
0.00000000E+00  0.00000000E+00  0.00000000E+00
0.00000000E+00  0.00000000E+00  0.00000000E+00
0.00000000E+00  0.00000000E+00  0.00000000E+00
0.00000000E+00  0.00000000E+00  0.00000000E+00
0.00000000E+00  0.00000000E+00  0.00000000E+00
