Ti3N2  (n=2)
1.00000000000000
3.2292236841799875  0.0000000000000001  0.0000000000000000
-1.6146118420899935  2.7965897450658010  0.0000000000000000
0.0000000000000000  0.0000000000000000  34.2895883624497912
Ti  N  I
3  2  2
Selective  dynamics
Direct
0.0000000000000000  0.0000000000000000  0.0602790547464496  T  T  T
0.0000000000000000  0.0000000000000000  0.1354578577067789  T  T  T
0.0000000000000000  0.0000000000000000  0.2106366606671169  T  T  T
0.3333333333333357  0.6666666666666643  0.0949162609653625  T  T  T
0.3333333333333357  0.6666666666666643  0.1759994544481955  T  T  T
0.3333333333333357  0.6666666666666643  0.0000000000000000  T  T  T
0.3333333333333357  0.6666666666666643  0.2709157154135665  T  T  T

0.00000000E+00  0.00000000E+00  0.00000000E+00
0.00000000E+00  0.00000000E+00  0.00000000E+00
0.00000000E+00  0.00000000E+00  0.00000000E+00
0.00000000E+00  0.00000000E+00  0.00000000E+00
0.00000000E+00  0.00000000E+00  0.00000000E+00
0.00000000E+00  0.00000000E+00  0.00000000E+00
0.00000000E+00  0.00000000E+00  0.00000000E+00
