Sc3C2  (n=2)
1.00000000000000
3.5140778628466984  0.0000000000000005  0.0000000000000000
-1.7570389314233490  3.0432807006249853  0.0000000000000000
0.0000000000000000  0.0000000000000000  34.7904978489551695
Sc  C  I
3  2  2
Selective  dynamics
Direct
-0.0000000000000000  -0.0000000000000000  0.0626408117344524  T  T  T
-0.0000000000000000  -0.0000000000000000  0.1407064924948890  T  T  T
-0.0000000000000000  -0.0000000000000000  0.2187721732553326  T  T  T
0.3333333333333357  0.6666666666666643  0.0981850296442611  T  T  T
0.3333333333333357  0.6666666666666643  0.1832279553455240  T  T  T
0.3333333333333357  0.6666666666666643  0.0000000000000000  T  T  T
0.3333333333333357  0.6666666666666643  0.2814129849897850  T  T  T

0.00000000E+00  0.00000000E+00  0.00000000E+00
0.00000000E+00  0.00000000E+00  0.00000000E+00
0.00000000E+00  0.00000000E+00  0.00000000E+00
0.00000000E+00  0.00000000E+00  0.00000000E+00
0.00000000E+00  0.00000000E+00  0.00000000E+00
0.00000000E+00  0.00000000E+00  0.00000000E+00
0.00000000E+00  0.00000000E+00  0.00000000E+00
