Ti4C3  (n=3)
1.00000000000000
3.2903159522766381  0.0000000000000004  0.0000000000000000
-1.6451579761383190  2.8494972016002942  0.0000000000000000
0.0000000000000000  0.0000000000000000  36.7702875524669821
Ti  C  I
4  3  2
Selective  dynamics
Direct
0.0000000000000000  -0.0000000000000000  0.0568289289743120  T  T  T
0.0000000000000000  -0.0000000000000000  0.1256776166948224  T  T  T
0.0000000000000000  0.0000000000000000  0.1944256062041514  T  T  T
0.0000000000000000  0.0000000000000000  0.2632742939246619  T  T  T
0.3333333333333357  0.6666666666666643  0.0853739190382493  T  T  T
0.3333333333333357  0.6666666666666643  0.1600516114494831  T  T  T
0.3333333333333357  0.6666666666666643  0.2347293038607169  T  T  T
0.6666666666666643  0.3333333333333357  0.0000000000000000  T  T  T
0.6666666666666643  0.3333333333333357  0.3201032228989814  T  T  T

0.00000000E+00  0.00000000E+00  0.00000000E+00
0.00000000E+00  0.00000000E+00  0.00000000E+00
0.00000000E+00  0.00000000E+00  0.00000000E+00
0.00000000E+00  0.00000000E+00  0.00000000E+00
0.00000000E+00  0.00000000E+00  0.00000000E+00
0.00000000E+00  0.00000000E+00  0.00000000E+00
0.00000000E+00  0.00000000E+00  0.00000000E+00
0.00000000E+00  0.00000000E+00  0.00000000E+00
0.00000000E+00  0.00000000E+00  0.00000000E+00
