Sc4N3  (n=3)
1.00000000000000
3.3543837773685392  -0.0000000000000003  0.0000000000000000
-1.6771918886842696  2.9049815665511427  0.0000000000000000
0.0000000000000000  0.0000000000000000  37.4746638793508140
Sc  N  I
4  3  2
Selective  dynamics
Direct
0.0000000000000000  -0.0000000000000000  0.0580086841153479  T  T  T
0.0000000000000000  -0.0000000000000000  0.1306578301002651  T  T  T
0.0000000000000000  -0.0000000000000000  0.2022247787875113  T  T  T
0.0000000000000000  -0.0000000000000000  0.2748739247724285  T  T  T
0.3333333333333357  0.6666666666666643  0.0870928605678271  T  T  T
0.3333333333333357  0.6666666666666643  0.1664413044438882  T  T  T
0.3333333333333357  0.6666666666666643  0.2457897483199424  T  T  T
0.6666666666666643  0.3333333333333357  0.0000000000000000  T  T  T
0.6666666666666643  0.3333333333333357  0.3328826088877763  T  T  T

0.00000000E+00  0.00000000E+00  0.00000000E+00
0.00000000E+00  0.00000000E+00  0.00000000E+00
0.00000000E+00  0.00000000E+00  0.00000000E+00
0.00000000E+00  0.00000000E+00  0.00000000E+00
0.00000000E+00  0.00000000E+00  0.00000000E+00
0.00000000E+00  0.00000000E+00  0.00000000E+00
0.00000000E+00  0.00000000E+00  0.00000000E+00
0.00000000E+00  0.00000000E+00  0.00000000E+00
0.00000000E+00  0.00000000E+00  0.00000000E+00
