Ti4N3  (n=3)
1.00000000000000
3.1584142159904469  0.0000000000000000  0.0000000000000000
-1.5792071079952237  2.7352669467914925  0.0000000000000000
0.0000000000000000  0.0000000000000000  36.9992242680096055
Ti  N  I
4  3  2
Selective  dynamics
Direct
-0.0000000000000000  0.0000000000000000  0.0568141862949910  T  T  T
-0.0000000000000000  0.0000000000000000  0.1266033412633260  T  T  T
-0.0000000000000000  0.0000000000000000  0.1977068167305650  T  T  T
-0.0000000000000000  0.0000000000000000  0.2674959716989000  T  T  T
0.3333333333333357  0.6666666666666643  0.0881373180711859  T  T  T
0.3333333333333357  0.6666666666666643  0.1621550789969455  T  T  T
0.3333333333333357  0.6666666666666643  0.2361728399226888  T  T  T
0.6666666666666643  0.3333333333333357  0.0000000000000000  T  T  T
0.6666666666666643  0.3333333333333357  0.3243101579938911  T  T  T

0.00000000E+00  0.00000000E+00  0.00000000E+00
0.00000000E+00  0.00000000E+00  0.00000000E+00
0.00000000E+00  0.00000000E+00  0.00000000E+00
0.00000000E+00  0.00000000E+00  0.00000000E+00
0.00000000E+00  0.00000000E+00  0.00000000E+00
0.00000000E+00  0.00000000E+00  0.00000000E+00
0.00000000E+00  0.00000000E+00  0.00000000E+00
0.00000000E+00  0.00000000E+00  0.00000000E+00
0.00000000E+00  0.00000000E+00  0.00000000E+00
