Hf4C3  (n=3)
1.00000000000000
3.4271721790736431  0.0000000000000000  0.0000000000000000
-1.7135860895368216  2.9680181720109595  0.0000000000000000
0.0000000000000000  0.0000000000000000  37.7141298562388556
Hf  C  I
4  3  2
Selective  dynamics
Direct
0.0000000000000000  0.0000000000000000  0.0581960507749934  T  T  T
0.0000000000000000  0.0000000000000000  0.1321130885385864  T  T  T
0.0000000000000000  0.0000000000000000  0.2050053841586067  T  T  T
0.0000000000000000  0.0000000000000000  0.2789224219221998  T  T  T
0.3333333333333357  0.6666666666666643  0.0882563006444238  T  T  T
0.3333333333333357  0.6666666666666643  0.1685592363485965  T  T  T
0.3333333333333357  0.6666666666666643  0.2488621720527616  T  T  T
0.6666666666666643  0.3333333333333357  0.0000000000000000  T  T  T
0.6666666666666643  0.3333333333333357  0.3371184726971931  T  T  T

0.00000000E+00  0.00000000E+00  0.00000000E+00
0.00000000E+00  0.00000000E+00  0.00000000E+00
0.00000000E+00  0.00000000E+00  0.00000000E+00
0.00000000E+00  0.00000000E+00  0.00000000E+00
0.00000000E+00  0.00000000E+00  0.00000000E+00
0.00000000E+00  0.00000000E+00  0.00000000E+00
0.00000000E+00  0.00000000E+00  0.00000000E+00
0.00000000E+00  0.00000000E+00  0.00000000E+00
0.00000000E+00  0.00000000E+00  0.00000000E+00
