Nb4N3  (n=3)
1.00000000000000
3.1281718635973061  0.0000000000000000  0.0000000000000000
-1.5640859317986531  2.7090763015054620  0.0000000000000000
0.0000000000000000  0.0000000000000000  37.9422137070558847
Nb  N  I
4  3  2
Selective  dynamics
Direct
-0.0000000000000000  0.0000000000000000  0.0581903343045874  T  T  T
-0.0000000000000000  0.0000000000000000  0.1328261233220528  T  T  T
-0.0000000000000000  0.0000000000000000  0.2082771609243562  T  T  T
-0.0000000000000000  0.0000000000000000  0.2829129499418296  T  T  T
0.3333333333333357  0.6666666666666643  0.0966990477990698  T  T  T
0.3333333333333357  0.6666666666666643  0.1705516421232085  T  T  T
0.3333333333333357  0.6666666666666643  0.2444042364473394  T  T  T
0.6666666666666643  0.3333333333333357  0.0000000000000000  T  T  T
0.6666666666666643  0.3333333333333357  0.3411032842464091  T  T  T

0.00000000E+00  0.00000000E+00  0.00000000E+00
0.00000000E+00  0.00000000E+00  0.00000000E+00
0.00000000E+00  0.00000000E+00  0.00000000E+00
0.00000000E+00  0.00000000E+00  0.00000000E+00
0.00000000E+00  0.00000000E+00  0.00000000E+00
0.00000000E+00  0.00000000E+00  0.00000000E+00
0.00000000E+00  0.00000000E+00  0.00000000E+00
0.00000000E+00  0.00000000E+00  0.00000000E+00
0.00000000E+00  0.00000000E+00  0.00000000E+00
