Ta4N3  (n=3)
1.00000000000000
3.1021403346112204  0.0000000000000000  0.0000000000000000
-1.5510701673056102  2.6865323359693178  0.0000000000000000
0.0000000000000000  0.0000000000000000  37.9919673291919224
Ta  N  I
4  3  2
Selective  dynamics
Direct
0.0000000000000000  0.0000000000000000  0.0582004592197462  T  T  T
0.0000000000000000  0.0000000000000000  0.1332845925331703  T  T  T
0.0000000000000000  0.0000000000000000  0.2086815714356181  T  T  T
0.0000000000000000  0.0000000000000000  0.2837657047490504  T  T  T
0.3333333333333357  0.6666666666666643  0.0971968761763927  T  T  T
0.3333333333333357  0.6666666666666643  0.1709830819843942  T  T  T
0.3333333333333357  0.6666666666666643  0.2447692877923956  T  T  T
0.6666666666666643  0.3333333333333357  0.0000000000000000  T  T  T
0.6666666666666643  0.3333333333333357  0.3419661639688049  T  T  T

0.00000000E+00  0.00000000E+00  0.00000000E+00
0.00000000E+00  0.00000000E+00  0.00000000E+00
0.00000000E+00  0.00000000E+00  0.00000000E+00
0.00000000E+00  0.00000000E+00  0.00000000E+00
0.00000000E+00  0.00000000E+00  0.00000000E+00
0.00000000E+00  0.00000000E+00  0.00000000E+00
0.00000000E+00  0.00000000E+00  0.00000000E+00
0.00000000E+00  0.00000000E+00  0.00000000E+00
0.00000000E+00  0.00000000E+00  0.00000000E+00
