Cr4C3  (n=3)
1.00000000000000
2.9946816414711037  0.0000000000000000  0.0000000000000000
-1.4973408207355519  2.5934703777559824  0.0000000000000000
0.0000000000000000  0.0000000000000000  36.6108245514776058
Cr  C  I
4  3  2
Selective  dynamics
Direct
-0.0000000000000000  0.0000000000000000  0.0578460601531431  T  T  T
-0.0000000000000000  0.0000000000000000  0.1244875669415136  T  T  T
-0.0000000000000000  0.0000000000000000  0.1926542809606462  T  T  T
0.0000000000000000  0.0000000000000000  0.2592957877490231  T  T  T
0.3333333333333357  0.6666666666666643  0.0888342095185682  T  T  T
0.3333333333333357  0.6666666666666643  0.1585709239510862  T  T  T
0.3333333333333357  0.6666666666666643  0.2283076383835916  T  T  T
0.6666666666666643  0.3333333333333357  0.0000000000000000  T  T  T
0.6666666666666643  0.3333333333333357  0.3171418479021664  T  T  T

0.00000000E+00  0.00000000E+00  0.00000000E+00
0.00000000E+00  0.00000000E+00  0.00000000E+00
0.00000000E+00  0.00000000E+00  0.00000000E+00
0.00000000E+00  0.00000000E+00  0.00000000E+00
0.00000000E+00  0.00000000E+00  0.00000000E+00
0.00000000E+00  0.00000000E+00  0.00000000E+00
0.00000000E+00  0.00000000E+00  0.00000000E+00
0.00000000E+00  0.00000000E+00  0.00000000E+00
0.00000000E+00  0.00000000E+00  0.00000000E+00
