Mo4C3  (n=3)
1.00000000000000
3.0664010511800357  0.0000000000000000  0.0000000000000000
-1.5332005255900178  2.6555812086814932  0.0000000000000000
0.0000000000000000  0.0000000000000000  37.8184540116210997
Mo  C  I
4  3  2
Selective  dynamics
Direct
-0.0000000000000000  0.0000000000000000  0.0605649169840186  T  T  T
-0.0000000000000000  -0.0000000000000000  0.1325789755942285  T  T  T
-0.0000000000000000  -0.0000000000000000  0.2063680899754577  T  T  T
-0.0000000000000000  0.0000000000000000  0.2783821485856753  T  T  T
0.3333333333333357  0.6666666666666643  0.0954879216112919  T  T  T
0.3333333333333357  0.6666666666666643  0.1694735327848431  T  T  T
0.3333333333333357  0.6666666666666643  0.2434591439583944  T  T  T
0.6666666666666643  0.3333333333333357  0.0000000000000000  T  T  T
0.6666666666666643  0.3333333333333357  0.3389470655696861  T  T  T

0.00000000E+00  0.00000000E+00  0.00000000E+00
0.00000000E+00  0.00000000E+00  0.00000000E+00
0.00000000E+00  0.00000000E+00  0.00000000E+00
0.00000000E+00  0.00000000E+00  0.00000000E+00
0.00000000E+00  0.00000000E+00  0.00000000E+00
0.00000000E+00  0.00000000E+00  0.00000000E+00
0.00000000E+00  0.00000000E+00  0.00000000E+00
0.00000000E+00  0.00000000E+00  0.00000000E+00
0.00000000E+00  0.00000000E+00  0.00000000E+00
