Nb4C3  (n=3)
1.00000000000000
3.2198689628959309  0.0000000000000000  0.0000000000000000
-1.6099344814479655  2.7884883190394816  0.0000000000000000
0.0000000000000000  0.0000000000000000  37.8355041343279055
Nb  C  I
4  3  2
Selective  dynamics
Direct
0.0000000000000000  -0.0000000000000000  0.0580558714861964  T  T  T
0.0000000000000000  0.0000000000000000  0.1322027695719913  T  T  T
0.0000000000000000  0.0000000000000000  0.2070421916886764  T  T  T
0.0000000000000000  0.0000000000000000  0.2811890897744712  T  T  T
0.3333333333333357  0.6666666666666643  0.0932228356468523  T  T  T
0.3333333333333357  0.6666666666666643  0.1696224806303378  T  T  T
0.3333333333333357  0.6666666666666643  0.2460221256138076  T  T  T
0.6666666666666643  0.3333333333333357  0.0000000000000000  T  T  T
0.6666666666666643  0.3333333333333357  0.3392449612606677  T  T  T

0.00000000E+00  0.00000000E+00  0.00000000E+00
0.00000000E+00  0.00000000E+00  0.00000000E+00
0.00000000E+00  0.00000000E+00  0.00000000E+00
0.00000000E+00  0.00000000E+00  0.00000000E+00
0.00000000E+00  0.00000000E+00  0.00000000E+00
0.00000000E+00  0.00000000E+00  0.00000000E+00
0.00000000E+00  0.00000000E+00  0.00000000E+00
0.00000000E+00  0.00000000E+00  0.00000000E+00
0.00000000E+00  0.00000000E+00  0.00000000E+00
