Sc4C3  (n=3)
1.00000000000000
3.5072965995013261  0.0000000000000004  0.0000000000000000
-1.7536482997506631  3.0374079564049028  0.0000000000000000
0.0000000000000000  0.0000000000000000  37.2838456042127149
Sc  C  I
4  3  2
Selective  dynamics
Direct
-0.0000000000000000  -0.0000000000000000  0.0570957207766936  T  T  T
-0.0000000000000000  -0.0000000000000000  0.1288982004993698  T  T  T
-0.0000000000000000  -0.0000000000000000  0.2005701095728354  T  T  T
-0.0000000000000000  -0.0000000000000000  0.2723725892955116  T  T  T
0.3333333333333357  0.6666666666666643  0.0906234702298516  T  T  T
0.3333333333333357  0.6666666666666643  0.1647341550360990  T  T  T
0.3333333333333357  0.6666666666666643  0.2388448398423394  T  T  T
0.6666666666666643  0.3333333333333357  0.0000000000000000  T  T  T
0.6666666666666643  0.3333333333333357  0.3294683100721981  T  T  T

0.00000000E+00  0.00000000E+00  0.00000000E+00
0.00000000E+00  0.00000000E+00  0.00000000E+00
0.00000000E+00  0.00000000E+00  0.00000000E+00
0.00000000E+00  0.00000000E+00  0.00000000E+00
0.00000000E+00  0.00000000E+00  0.00000000E+00
0.00000000E+00  0.00000000E+00  0.00000000E+00
0.00000000E+00  0.00000000E+00  0.00000000E+00
0.00000000E+00  0.00000000E+00  0.00000000E+00
0.00000000E+00  0.00000000E+00  0.00000000E+00
