Zr4C3  (n=3)
1.00000000000000
3.4676471319079902  0.0000000000000000  0.0000000000000000
-1.7338235659539953  3.0030705114164320  0.0000000000000000
0.0000000000000000  0.0000000000000000  37.8677542964513805
Zr  C  I
4  3  2
Selective  dynamics
Direct
-0.0000000000000000  0.0000000000000000  0.0584900186974766  T  T  T
-0.0000000000000000  0.0000000000000000  0.1330511043417605  T  T  T
-0.0000000000000000  0.0000000000000000  0.2067565905036926  T  T  T
-0.0000000000000000  0.0000000000000000  0.2813176761479765  T  T  T
0.3333333333333357  0.6666666666666643  0.0891974510086103  T  T  T
0.3333333333333357  0.6666666666666643  0.1699038474227266  T  T  T
0.3333333333333357  0.6666666666666643  0.2506102438368366  T  T  T
0.6666666666666643  0.3333333333333357  0.0000000000000000  T  T  T
0.6666666666666643  0.3333333333333357  0.3398076948454593  T  T  T

0.00000000E+00  0.00000000E+00  0.00000000E+00
0.00000000E+00  0.00000000E+00  0.00000000E+00
0.00000000E+00  0.00000000E+00  0.00000000E+00
0.00000000E+00  0.00000000E+00  0.00000000E+00
0.00000000E+00  0.00000000E+00  0.00000000E+00
0.00000000E+00  0.00000000E+00  0.00000000E+00
0.00000000E+00  0.00000000E+00  0.00000000E+00
0.00000000E+00  0.00000000E+00  0.00000000E+00
0.00000000E+00  0.00000000E+00  0.00000000E+00
