Hf4N3  (n=3)
1.00000000000000
3.2599310760790354  -0.0000000000000006  0.0000000000000000
-1.6299655380395179  2.8231831267499339  0.0000000000000000
0.0000000000000000  0.0000000000000000  37.9477837923376242
Hf  N  I
4  3  2
Selective  dynamics
Direct
-0.0000000000000000  -0.0000000000000000  0.0567192733724686  T  T  T
-0.0000000000000000  -0.0000000000000000  0.1325192144076558  T  T  T
-0.0000000000000000  -0.0000000000000000  0.2086807846012904  T  T  T
-0.0000000000000000  -0.0000000000000000  0.2844807256364858  T  T  T
0.3333333333333357  0.6666666666666643  0.0950388300790505  T  T  T
0.3333333333333357  0.6666666666666643  0.1705999995044772  T  T  T
0.3333333333333357  0.6666666666666643  0.2461611689298956  T  T  T
0.6666666666666643  0.3333333333333357  0.0000000000000000  T  T  T
0.6666666666666643  0.3333333333333357  0.3411999990089546  T  T  T

0.00000000E+00  0.00000000E+00  0.00000000E+00
0.00000000E+00  0.00000000E+00  0.00000000E+00
0.00000000E+00  0.00000000E+00  0.00000000E+00
0.00000000E+00  0.00000000E+00  0.00000000E+00
0.00000000E+00  0.00000000E+00  0.00000000E+00
0.00000000E+00  0.00000000E+00  0.00000000E+00
0.00000000E+00  0.00000000E+00  0.00000000E+00
0.00000000E+00  0.00000000E+00  0.00000000E+00
0.00000000E+00  0.00000000E+00  0.00000000E+00
