Zr4N3  (n=3)
1.00000000000000
3.3009046890070266  0.0000000000000001  0.0000000000000000
-1.6504523445035133  2.8586673163724181  0.0000000000000000
0.0000000000000000  0.0000000000000000  38.1269493101308541
Zr  N  I
4  3  2
Selective  dynamics
Direct
0.0000000000000000  0.0000000000000000  0.0573491196583606  T  T  T
0.0000000000000000  0.0000000000000000  0.1337513483216099  T  T  T
0.0000000000000000  0.0000000000000000  0.2105444725518037  T  T  T
0.0000000000000000  0.0000000000000000  0.2869467012150530  T  T  T
0.3333333333333357  0.6666666666666643  0.0957749023930499  T  T  T
0.3333333333333357  0.6666666666666643  0.1721479104367109  T  T  T
0.3333333333333357  0.6666666666666643  0.2485209184803636  T  T  T
0.6666666666666643  0.3333333333333357  0.0000000000000000  T  T  T
0.6666666666666643  0.3333333333333357  0.3442958208734219  T  T  T

0.00000000E+00  0.00000000E+00  0.00000000E+00
0.00000000E+00  0.00000000E+00  0.00000000E+00
0.00000000E+00  0.00000000E+00  0.00000000E+00
0.00000000E+00  0.00000000E+00  0.00000000E+00
0.00000000E+00  0.00000000E+00  0.00000000E+00
0.00000000E+00  0.00000000E+00  0.00000000E+00
0.00000000E+00  0.00000000E+00  0.00000000E+00
0.00000000E+00  0.00000000E+00  0.00000000E+00
0.00000000E+00  0.00000000E+00  0.00000000E+00
