Mo4N3  (n=3)
1.00000000000000
3.0655303293399547  0.0000000000000005  0.0000000000000000
-1.5327651646699769  2.6548271414661766  0.0000000000000000
0.0000000000000000  0.0000000000000000  37.6109910393329159
Mo  N  I
4  3  2
Selective  dynamics
Direct
-0.0000000000000000  0.0000000000000000  0.0596363816667846  T  T  T
-0.0000000000000000  0.0000000000000000  0.1302401305930188  T  T  T
-0.0000000000000000  0.0000000000000000  0.2050605538836164  T  T  T
-0.0000000000000000  0.0000000000000000  0.2756643028098505  T  T  T
0.3333333333333357  0.6666666666666643  0.0950184408739674  T  T  T
0.3333333333333357  0.6666666666666643  0.1676503422383176  T  T  T
0.3333333333333357  0.6666666666666643  0.2402822436026609  T  T  T
0.6666666666666643  0.3333333333333357  0.0000000000000000  T  T  T
0.6666666666666643  0.3333333333333357  0.3353006844766351  T  T  T

0.00000000E+00  0.00000000E+00  0.00000000E+00
0.00000000E+00  0.00000000E+00  0.00000000E+00
0.00000000E+00  0.00000000E+00  0.00000000E+00
0.00000000E+00  0.00000000E+00  0.00000000E+00
0.00000000E+00  0.00000000E+00  0.00000000E+00
0.00000000E+00  0.00000000E+00  0.00000000E+00
0.00000000E+00  0.00000000E+00  0.00000000E+00
0.00000000E+00  0.00000000E+00  0.00000000E+00
0.00000000E+00  0.00000000E+00  0.00000000E+00
