Cr4N3  (n=3)
1.00000000000000
3.1111077582733682  0.0000000000000000  0.0000000000000000
-1.5555538791366836  2.6942983525771180  0.0000000000000000
0.0000000000000000  0.0000000000000000  36.6352585726125994
Cr  N  I
4  3  2
Selective  dynamics
Direct
-0.0000000000000000  -0.0000000000000000  0.0585995386608280  T  T  T
0.0000000000000000  0.0000000000000000  0.1257399414536671  T  T  T
0.0000000000000000  0.0000000000000000  0.1918573412173706  T  T  T
0.0000000000000000  0.0000000000000000  0.2589977440102098  T  T  T
0.3333333333333357  0.6666666666666643  0.0812280285950593  T  T  T
0.3333333333333357  0.6666666666666643  0.1587986413355222  T  T  T
0.3333333333333357  0.6666666666666643  0.2363692540759716  T  T  T
0.6666666666666643  0.3333333333333357  0.0000000000000000  T  T  T
0.6666666666666643  0.3333333333333357  0.3175972826710377  T  T  T

0.00000000E+00  0.00000000E+00  0.00000000E+00
0.00000000E+00  0.00000000E+00  0.00000000E+00
0.00000000E+00  0.00000000E+00  0.00000000E+00
0.00000000E+00  0.00000000E+00  0.00000000E+00
0.00000000E+00  0.00000000E+00  0.00000000E+00
0.00000000E+00  0.00000000E+00  0.00000000E+00
0.00000000E+00  0.00000000E+00  0.00000000E+00
0.00000000E+00  0.00000000E+00  0.00000000E+00
0.00000000E+00  0.00000000E+00  0.00000000E+00
