Ta4C3  (n=3)
1.00000000000000
3.1891611320831874  0.0000000000000000  0.0000000000000000
-1.5945805660415937  2.7618945573457436  0.0000000000000000
0.0000000000000000  0.0000000000000000  37.8725302814062559
Ta  C  I
4  3  2
Selective  dynamics
Direct
-0.0000000000000000  -0.0000000000000000  0.0583125505321179  T  T  T
-0.0000000000000000  -0.0000000000000000  0.1325994069920553  T  T  T
-0.0000000000000000  -0.0000000000000000  0.2072915426159804  T  T  T
-0.0000000000000000  -0.0000000000000000  0.2815783990759179  T  T  T
0.3333333333333357  0.6666666666666643  0.0933586451743414  T  T  T
0.3333333333333357  0.6666666666666643  0.1699454748040221  T  T  T
0.3333333333333357  0.6666666666666643  0.2465323044336944  T  T  T
0.6666666666666643  0.3333333333333357  0.0000000000000000  T  T  T
0.6666666666666643  0.3333333333333357  0.3398909496080357  T  T  T

0.00000000E+00  0.00000000E+00  0.00000000E+00
0.00000000E+00  0.00000000E+00  0.00000000E+00
0.00000000E+00  0.00000000E+00  0.00000000E+00
0.00000000E+00  0.00000000E+00  0.00000000E+00
0.00000000E+00  0.00000000E+00  0.00000000E+00
0.00000000E+00  0.00000000E+00  0.00000000E+00
0.00000000E+00  0.00000000E+00  0.00000000E+00
0.00000000E+00  0.00000000E+00  0.00000000E+00
0.00000000E+00  0.00000000E+00  0.00000000E+00
