Sc4C3  (n=3)
1.00000000000000
3.3058162919771634  0.0000000000000001  0.0000000000000000
-1.6529081459885817  2.8629208893691191  -0.0000000000000002
0.0000000000000006  -0.0000000000000001  37.4290431841706521
Sc  C  N  H
4  3  2  2
Selective  dynamics
Direct
0.0000000000000000  -0.0000000000000000  0.0523648783064510  T  T  T
0.6666666666666643  0.3333333333333357  0.1305621213488858  T  T  T
0.3333333333333357  0.6666666666666643  0.2027846092749895  T  T  T
0.0000000000000000  0.0000000000000000  0.2795450903639834  T  T  T
0.3333333333333357  0.6666666666666643  0.0978189006433402  T  T  T
0.0000000000000000  0.0000000000000000  0.1663297705953071  T  T  T
0.6666666666666643  0.3333333333333357  0.2374189411458525  T  T  T
0.3333333333333357  0.6666666666666643  0.0275903881608181  T  T  T
0.3333333333333357  0.6666666666666643  0.3045479404201638  T  T  T
0.3333333333333357  0.6666666666666643  0.0000000000000000  T  T  T
0.3333333333333357  0.6666666666666643  0.3320694874034904  T  T  T

0.00000000E+00  0.00000000E+00  0.00000000E+00
0.00000000E+00  0.00000000E+00  0.00000000E+00
0.00000000E+00  0.00000000E+00  0.00000000E+00
0.00000000E+00  0.00000000E+00  0.00000000E+00
0.00000000E+00  0.00000000E+00  0.00000000E+00
0.00000000E+00  0.00000000E+00  0.00000000E+00
0.00000000E+00  0.00000000E+00  0.00000000E+00
0.00000000E+00  0.00000000E+00  0.00000000E+00
0.00000000E+00  0.00000000E+00  0.00000000E+00
0.00000000E+00  0.00000000E+00  0.00000000E+00
0.00000000E+00  0.00000000E+00  0.00000000E+00
