Mo4N3  (n=3)
1.00000000000000
2.8555133051353860  0.0000000000000000  0.0000000000000000
-1.4277566525676930  2.4729470631248636  0.0000000000000000
-0.0000000000000001  0.0000000000000000  38.3184196716468506
Mo  N  H
4  5  2
Selective  dynamics
Direct
0.0000000000000000  -0.0000000000000000  0.0591747103493103  T  T  T
0.6666666666666643  0.3333333333333357  0.1359675811902361  T  T  T
0.3333333333333357  0.6666666666666643  0.2111934047559857  T  T  T
0.0000000000000000  -0.0000000000000000  0.2879271512269697  T  T  T
0.3333333333333357  0.6666666666666643  0.0941659419029975  T  T  T
0.0000000000000000  -0.0000000000000000  0.1716667630326373  T  T  T
0.6666666666666643  0.3333333333333357  0.2467877935753355  T  T  T
0.3333333333333357  0.6666666666666643  0.0266675787787499  T  T  T
0.3333333333333357  0.6666666666666643  0.3207903696411736  T  T  T
0.3333333333333357  0.6666666666666643  0.0000000000000000  T  T  T
0.3333333333333357  0.6666666666666643  0.3475722586101749  T  T  T

0.00000000E+00  0.00000000E+00  0.00000000E+00
0.00000000E+00  0.00000000E+00  0.00000000E+00
0.00000000E+00  0.00000000E+00  0.00000000E+00
0.00000000E+00  0.00000000E+00  0.00000000E+00
0.00000000E+00  0.00000000E+00  0.00000000E+00
0.00000000E+00  0.00000000E+00  0.00000000E+00
0.00000000E+00  0.00000000E+00  0.00000000E+00
0.00000000E+00  0.00000000E+00  0.00000000E+00
0.00000000E+00  0.00000000E+00  0.00000000E+00
0.00000000E+00  0.00000000E+00  0.00000000E+00
0.00000000E+00  0.00000000E+00  0.00000000E+00
