Zr4C3  (n=3)
1.00000000000000
3.3320087758269055  0.0000000000000000  0.0000000000000000
-1.6660043879134527  2.8856042457572060  0.0000000000000000
0.0000000000000000  0.0000000000000004  37.5762635313545701
Zr  C  N  H
4  3  2  2
Selective  dynamics
Direct
-0.0000000000000000  -0.0000000000000000  0.0576005610701004  T  T  T
0.6666666666666643  0.3333333333333357  0.1316317378936732  T  T  T
0.3333333333333357  0.6666666666666643  0.2045401599342990  T  T  T
-0.0000000000000000  -0.0000000000000000  0.2782055721928770  T  T  T
0.3333333333333357  0.6666666666666643  0.0963363125333429  T  T  T
-0.0000000000000000  0.0000000000000000  0.1685701437223316  T  T  T
0.6666666666666643  0.3333333333333357  0.2411770471556500  T  T  T
0.3333333333333357  0.6666666666666643  0.0274561201754738  T  T  T
0.3333333333333357  0.6666666666666643  0.3073904934216376  T  T  T
0.3333333333333357  0.6666666666666643  0.0000000000000000  T  T  T
0.3333333333333357  0.6666666666666643  0.3346863777677263  T  T  T

0.00000000E+00  0.00000000E+00  0.00000000E+00
0.00000000E+00  0.00000000E+00  0.00000000E+00
0.00000000E+00  0.00000000E+00  0.00000000E+00
0.00000000E+00  0.00000000E+00  0.00000000E+00
0.00000000E+00  0.00000000E+00  0.00000000E+00
0.00000000E+00  0.00000000E+00  0.00000000E+00
0.00000000E+00  0.00000000E+00  0.00000000E+00
0.00000000E+00  0.00000000E+00  0.00000000E+00
0.00000000E+00  0.00000000E+00  0.00000000E+00
0.00000000E+00  0.00000000E+00  0.00000000E+00
0.00000000E+00  0.00000000E+00  0.00000000E+00
