Cr4N3  (n=3)
1.00000000000000
2.7960677219626637  0.0000000000000000  0.0000000000000000
-1.3980338609813319  2.4214656779367609  0.0000000000000000
0.0000000000000000  0.0000000000000004  36.8486803895532518
Cr  N  H
4  5  2
Selective  dynamics
Direct
0.0000000000000000  0.0000000000000000  0.0582163569474710  T  T  T
0.6666666666666643  0.3333333333333357  0.1287359250966518  T  T  T
0.3333333333333357  0.6666666666666643  0.1973771161234068  T  T  T
0.0000000000000000  0.0000000000000000  0.2641672454804191  T  T  T
0.3333333333333357  0.6666666666666643  0.0915421250434478  T  T  T
0.0000000000000000  0.0000000000000000  0.1603379980374924  T  T  T
0.6666666666666643  0.3333333333333357  0.2283150357102743  T  T  T
0.3333333333333357  0.6666666666666643  0.0278451733053539  T  T  T
0.3333333333333357  0.6666666666666643  0.2936876028826617  T  T  T
0.3333333333333357  0.6666666666666643  0.0000000000000000  T  T  T
0.3333333333333357  0.6666666666666643  0.3215496529127378  T  T  T

0.00000000E+00  0.00000000E+00  0.00000000E+00
0.00000000E+00  0.00000000E+00  0.00000000E+00
0.00000000E+00  0.00000000E+00  0.00000000E+00
0.00000000E+00  0.00000000E+00  0.00000000E+00
0.00000000E+00  0.00000000E+00  0.00000000E+00
0.00000000E+00  0.00000000E+00  0.00000000E+00
0.00000000E+00  0.00000000E+00  0.00000000E+00
0.00000000E+00  0.00000000E+00  0.00000000E+00
0.00000000E+00  0.00000000E+00  0.00000000E+00
0.00000000E+00  0.00000000E+00  0.00000000E+00
0.00000000E+00  0.00000000E+00  0.00000000E+00
