Zr4N3  (n=3)
1.00000000000000
3.2540544360954260  0.0000000000000000  0.0000000000000000
-1.6270272180477130  2.8180938071659738  0.0000000000000000
-0.0000000000000001  -0.0000000000000004  37.4646883224252321
Zr  N  H
4  5  2
Selective  dynamics
Direct
0.0000000000000000  0.0000000000000000  0.0587244001294129  T  T  T
0.6666666666666643  0.3333333333333357  0.1308224660572441  T  T  T
0.3333333333333357  0.6666666666666643  0.2035562109803197  T  T  T
0.0000000000000000  -0.0000000000000000  0.2747760840669030  T  T  T
0.3333333333333357  0.6666666666666643  0.0966156428703243  T  T  T
0.0000000000000000  -0.0000000000000000  0.1669724894612261  T  T  T
0.6666666666666643  0.3333333333333357  0.2392577528039250  T  T  T
0.3333333333333357  0.6666666666666643  0.0273920974305585  T  T  T
0.3333333333333357  0.6666666666666643  0.3053736302120075  T  T  T
0.3333333333333357  0.6666666666666643  0.0000000000000000  T  T  T
0.3333333333333357  0.6666666666666643  0.3327049784894179  T  T  T

0.00000000E+00  0.00000000E+00  0.00000000E+00
0.00000000E+00  0.00000000E+00  0.00000000E+00
0.00000000E+00  0.00000000E+00  0.00000000E+00
0.00000000E+00  0.00000000E+00  0.00000000E+00
0.00000000E+00  0.00000000E+00  0.00000000E+00
0.00000000E+00  0.00000000E+00  0.00000000E+00
0.00000000E+00  0.00000000E+00  0.00000000E+00
0.00000000E+00  0.00000000E+00  0.00000000E+00
0.00000000E+00  0.00000000E+00  0.00000000E+00
0.00000000E+00  0.00000000E+00  0.00000000E+00
0.00000000E+00  0.00000000E+00  0.00000000E+00
