Hf4C3  (n=3)
1.00000000000000
3.2762055549330107  0.0000000000000000  0.0000000000000000
-1.6381027774665053  2.8372772388455703  -0.0000000000000001
-0.0000000000000003  0.0000000000000017  37.4358910105576399
Hf  C  N  H
4  3  2  2
Selective  dynamics
Direct
0.0000000000000000  0.0000000000000000  0.0576231085330354  T  T  T
0.6666666666666643  0.3333333333333357  0.1307591273605491  T  T  T
0.3333333333333357  0.6666666666666643  0.2028868582921461  T  T  T
0.0000000000000000  0.0000000000000000  0.2758483258265541  T  T  T
0.3333333333333357  0.6666666666666643  0.0959005546398157  T  T  T
-0.0000000000000000  -0.0000000000000000  0.1674279907065709  T  T  T
0.6666666666666643  0.3333333333333357  0.2393632419350838  T  T  T
0.3333333333333357  0.6666666666666643  0.0275505534743739  T  T  T
0.3333333333333357  0.6666666666666643  0.3048201160246358  T  T  T
0.3333333333333357  0.6666666666666643  0.0000000000000000  T  T  T
0.3333333333333357  0.6666666666666643  0.3321916662021075  T  T  T

0.00000000E+00  0.00000000E+00  0.00000000E+00
0.00000000E+00  0.00000000E+00  0.00000000E+00
0.00000000E+00  0.00000000E+00  0.00000000E+00
0.00000000E+00  0.00000000E+00  0.00000000E+00
0.00000000E+00  0.00000000E+00  0.00000000E+00
0.00000000E+00  0.00000000E+00  0.00000000E+00
0.00000000E+00  0.00000000E+00  0.00000000E+00
0.00000000E+00  0.00000000E+00  0.00000000E+00
0.00000000E+00  0.00000000E+00  0.00000000E+00
0.00000000E+00  0.00000000E+00  0.00000000E+00
0.00000000E+00  0.00000000E+00  0.00000000E+00
