Mo4C3  (n=3)
1.00000000000000
3.0418302659511904  0.0000000000000000  0.0000000000000000
-1.5209151329755952  2.6343022844028230  0.0000000000000000
-0.0000000000000002  -0.0000000000000004  37.1456459700065693
Mo  C  N  H
4  3  2  2
Selective  dynamics
Direct
0.0000000000000000  0.0000000000000000  0.0600498847060527  T  T  T
0.6666666666666643  0.3333333333333357  0.1321740004628047  T  T  T
0.3333333333333357  0.6666666666666643  0.1976761302815226  T  T  T
0.0000000000000000  0.0000000000000000  0.2670168428757984  T  T  T
0.3333333333333357  0.6666666666666643  0.0940110763721101  T  T  T
0.0000000000000000  0.0000000000000000  0.1633894615169905  T  T  T
0.6666666666666643  0.3333333333333357  0.2318385076338585  T  T  T
0.3333333333333357  0.6666666666666643  0.0275809014962994  T  T  T
0.3333333333333357  0.6666666666666643  0.2993637246136153  T  T  T
0.3333333333333357  0.6666666666666643  0.0000000000000000  T  T  T
0.3333333333333357  0.6666666666666643  0.3269736103072116  T  T  T

0.00000000E+00  0.00000000E+00  0.00000000E+00
0.00000000E+00  0.00000000E+00  0.00000000E+00
0.00000000E+00  0.00000000E+00  0.00000000E+00
0.00000000E+00  0.00000000E+00  0.00000000E+00
0.00000000E+00  0.00000000E+00  0.00000000E+00
0.00000000E+00  0.00000000E+00  0.00000000E+00
0.00000000E+00  0.00000000E+00  0.00000000E+00
0.00000000E+00  0.00000000E+00  0.00000000E+00
0.00000000E+00  0.00000000E+00  0.00000000E+00
0.00000000E+00  0.00000000E+00  0.00000000E+00
0.00000000E+00  0.00000000E+00  0.00000000E+00
