Nb4N3  (n=3)
1.00000000000000
3.0959346693738388  0.0000000000000000  0.0000000000000000
-1.5479673346869194  2.6811580722574950  0.0000000000000000
0.0000000000000000  0.0000000000000001  37.3400402377043648
Nb  N  H
4  5  2
Selective  dynamics
Direct
-0.0000000000000000  -0.0000000000000000  0.0599247734457518  T  T  T
0.6666666666666643  0.3333333333333357  0.1321591025105663  T  T  T
0.3333333333333357  0.6666666666666643  0.2015336480043281  T  T  T
-0.0000000000000000  -0.0000000000000000  0.2706510839404389  T  T  T
0.3333333333333357  0.6666666666666643  0.0956418834895173  T  T  T
-0.0000000000000000  -0.0000000000000000  0.1659950316108079  T  T  T
0.6666666666666643  0.3333333333333357  0.2355327418952106  T  T  T
0.3333333333333357  0.6666666666666643  0.0274037113020436  T  T  T
0.3333333333333357  0.6666666666666643  0.3030402759800533  T  T  T
0.3333333333333357  0.6666666666666643  0.0000000000000000  T  T  T
0.3333333333333357  0.6666666666666643  0.3304774220688687  T  T  T

0.00000000E+00  0.00000000E+00  0.00000000E+00
0.00000000E+00  0.00000000E+00  0.00000000E+00
0.00000000E+00  0.00000000E+00  0.00000000E+00
0.00000000E+00  0.00000000E+00  0.00000000E+00
0.00000000E+00  0.00000000E+00  0.00000000E+00
0.00000000E+00  0.00000000E+00  0.00000000E+00
0.00000000E+00  0.00000000E+00  0.00000000E+00
0.00000000E+00  0.00000000E+00  0.00000000E+00
0.00000000E+00  0.00000000E+00  0.00000000E+00
0.00000000E+00  0.00000000E+00  0.00000000E+00
0.00000000E+00  0.00000000E+00  0.00000000E+00
