Sc4N3  (n=3)
1.00000000000000
3.2051489189196070  0.0000000000000000  0.0000000000000000
-1.6025744594598035  2.7757403868734096  -0.0000000000000001
-0.0000000000000001  0.0000000000000001  37.2114129240083003
Sc  N  H
4  5  2
Selective  dynamics
Direct
-0.0000000000000000  -0.0000000000000000  0.0549975166488624  T  T  T
0.6666666666666643  0.3333333333333357  0.1286761921125104  T  T  T
0.3333333333333357  0.6666666666666643  0.2003178737020750  T  T  T
-0.0000000000000000  0.0000000000000000  0.2728862923644091  T  T  T
0.3333333333333357  0.6666666666666643  0.0978848530362940  T  T  T
-0.0000000000000000  -0.0000000000000000  0.1662435654382081  T  T  T
0.6666666666666643  0.3333333333333357  0.2343183076565979  T  T  T
0.3333333333333357  0.6666666666666643  0.0276491757214347  T  T  T
0.3333333333333357  0.6666666666666643  0.3005959937415510  T  T  T
0.3333333333333357  0.6666666666666643  0.0000000000000000  T  T  T
0.3333333333333357  0.6666666666666643  0.3281631081557149  T  T  T

0.00000000E+00  0.00000000E+00  0.00000000E+00
0.00000000E+00  0.00000000E+00  0.00000000E+00
0.00000000E+00  0.00000000E+00  0.00000000E+00
0.00000000E+00  0.00000000E+00  0.00000000E+00
0.00000000E+00  0.00000000E+00  0.00000000E+00
0.00000000E+00  0.00000000E+00  0.00000000E+00
0.00000000E+00  0.00000000E+00  0.00000000E+00
0.00000000E+00  0.00000000E+00  0.00000000E+00
0.00000000E+00  0.00000000E+00  0.00000000E+00
0.00000000E+00  0.00000000E+00  0.00000000E+00
0.00000000E+00  0.00000000E+00  0.00000000E+00
