Ta4C3  (n=3)
1.00000000000000
3.1373900679040285  0.0000000000000000  0.0000000000000000
-1.5686950339520143  2.7170595005201941  0.0000000000000000
-0.0000000000000002  -0.0000000000000005  37.2151776515861528
Ta  C  N  H
4  3  2  2
Selective  dynamics
Direct
-0.0000000000000000  -0.0000000000000000  0.0602396689467321  T  T  T
0.6666666666666643  0.3333333333333357  0.1286815313837145  T  T  T
0.3333333333333357  0.6666666666666643  0.2015277031278150  T  T  T
-0.0000000000000000  -0.0000000000000000  0.2686708699991691  T  T  T
0.3333333333333357  0.6666666666666643  0.0953087085988780  T  T  T
-0.0000000000000000  -0.0000000000000000  0.1647199335764839  T  T  T
0.6666666666666643  0.3333333333333357  0.2352351825434800  T  T  T
0.3333333333333357  0.6666666666666643  0.0275320820248860  T  T  T
0.3333333333333357  0.6666666666666643  0.3007406069203914  T  T  T
0.3333333333333357  0.6666666666666643  0.0000000000000000  T  T  T
0.3333333333333357  0.6666666666666643  0.3282310719015344  T  T  T

0.00000000E+00  0.00000000E+00  0.00000000E+00
0.00000000E+00  0.00000000E+00  0.00000000E+00
0.00000000E+00  0.00000000E+00  0.00000000E+00
0.00000000E+00  0.00000000E+00  0.00000000E+00
0.00000000E+00  0.00000000E+00  0.00000000E+00
0.00000000E+00  0.00000000E+00  0.00000000E+00
0.00000000E+00  0.00000000E+00  0.00000000E+00
0.00000000E+00  0.00000000E+00  0.00000000E+00
0.00000000E+00  0.00000000E+00  0.00000000E+00
0.00000000E+00  0.00000000E+00  0.00000000E+00
0.00000000E+00  0.00000000E+00  0.00000000E+00
