Hf4N3  (n=3)
1.00000000000000
3.2031055929515571  0.0000000000000000  0.0000000000000000
-1.6015527964757785  2.7739708146987154  0.0000000000000000
0.0000000000000000  -0.0000000000000004  37.2712493246285703
Hf  N  H
4  5  2
Selective  dynamics
Direct
0.0000000000000000  0.0000000000000000  0.0584950964800007  T  T  T
0.6666666666666643  0.3333333333333357  0.1295857400114196  T  T  T
0.3333333333333357  0.6666666666666643  0.2014760235618674  T  T  T
0.0000000000000000  -0.0000000000000000  0.2716483262114393  T  T  T
0.3333333333333357  0.6666666666666643  0.0962721306642743  T  T  T
0.0000000000000000  0.0000000000000000  0.1654213842896241  T  T  T
0.6666666666666643  0.3333333333333357  0.2365937032623974  T  T  T
0.3333333333333357  0.6666666666666643  0.0275028127038313  T  T  T
0.3333333333333357  0.6666666666666643  0.3017830748605103  T  T  T
0.3333333333333357  0.6666666666666643  0.0000000000000000  T  T  T
0.3333333333333357  0.6666666666666643  0.3292416955961767  T  T  T

0.00000000E+00  0.00000000E+00  0.00000000E+00
0.00000000E+00  0.00000000E+00  0.00000000E+00
0.00000000E+00  0.00000000E+00  0.00000000E+00
0.00000000E+00  0.00000000E+00  0.00000000E+00
0.00000000E+00  0.00000000E+00  0.00000000E+00
0.00000000E+00  0.00000000E+00  0.00000000E+00
0.00000000E+00  0.00000000E+00  0.00000000E+00
0.00000000E+00  0.00000000E+00  0.00000000E+00
0.00000000E+00  0.00000000E+00  0.00000000E+00
0.00000000E+00  0.00000000E+00  0.00000000E+00
0.00000000E+00  0.00000000E+00  0.00000000E+00
