Nb4C3  (n=3)
1.00000000000000
3.1449480764873905  0.0000000000000000  0.0000000000000000
-1.5724740382436952  2.7236049279728962  0.0000000000000000
0.0000000000000000  0.0000000000000002  37.3160433101410050
Nb  C  N  H
4  3  2  2
Selective  dynamics
Direct
-0.0000000000000000  -0.0000000000000000  0.0605240527437209  T  T  T
0.6666666666666643  0.3333333333333357  0.1301802509462476  T  T  T
0.3333333333333357  0.6666666666666643  0.2027642570925730  T  T  T
-0.0000000000000000  -0.0000000000000000  0.2702286265709026  T  T  T
0.3333333333333357  0.6666666666666643  0.0954699563022960  T  T  T
-0.0000000000000000  -0.0000000000000000  0.1656543951851253  T  T  T
0.6666666666666643  0.3333333333333357  0.2365691257482797  T  T  T
0.3333333333333357  0.6666666666666643  0.0274815145645697  T  T  T
0.3333333333333357  0.6666666666666643  0.3026385411980611  T  T  T
0.3333333333333357  0.6666666666666643  0.0000000000000000  T  T  T
0.3333333333333357  0.6666666666666643  0.3300468703978056  T  T  T

0.00000000E+00  0.00000000E+00  0.00000000E+00
0.00000000E+00  0.00000000E+00  0.00000000E+00
0.00000000E+00  0.00000000E+00  0.00000000E+00
0.00000000E+00  0.00000000E+00  0.00000000E+00
0.00000000E+00  0.00000000E+00  0.00000000E+00
0.00000000E+00  0.00000000E+00  0.00000000E+00
0.00000000E+00  0.00000000E+00  0.00000000E+00
0.00000000E+00  0.00000000E+00  0.00000000E+00
0.00000000E+00  0.00000000E+00  0.00000000E+00
0.00000000E+00  0.00000000E+00  0.00000000E+00
0.00000000E+00  0.00000000E+00  0.00000000E+00
