Cr4C3  (n=3)
1.00000000000000
2.8309159167361524  0.0000000000000001  0.0000000000000000
-1.4154579583680762  2.4516450998667074  0.0000000000000001
-0.0000000000000001  0.0000000000000002  36.5369971880123359
Cr  C  N  H
4  3  2  2
Selective  dynamics
Direct
0.0000000000000000  -0.0000000000000000  0.0588874201052661  T  T  T
0.6666666666666643  0.3333333333333357  0.1253157205577655  T  T  T
0.3333333333333357  0.6666666666666643  0.1925737923176239  T  T  T
0.0000000000000000  -0.0000000000000000  0.2578468561831541  T  T  T
0.3333333333333357  0.6666666666666643  0.0915585066291591  T  T  T
0.0000000000000000  -0.0000000000000000  0.1581369592389075  T  T  T
0.6666666666666643  0.3333333333333357  0.2240168833100205  T  T  T
0.3333333333333357  0.6666666666666643  0.0281218359686138  T  T  T
0.3333333333333357  0.6666666666666643  0.2877262910433347  T  T  T
0.3333333333333357  0.6666666666666643  0.0000000000000000  T  T  T
0.3333333333333357  0.6666666666666643  0.3157620515075493  T  T  T

0.00000000E+00  0.00000000E+00  0.00000000E+00
0.00000000E+00  0.00000000E+00  0.00000000E+00
0.00000000E+00  0.00000000E+00  0.00000000E+00
0.00000000E+00  0.00000000E+00  0.00000000E+00
0.00000000E+00  0.00000000E+00  0.00000000E+00
0.00000000E+00  0.00000000E+00  0.00000000E+00
0.00000000E+00  0.00000000E+00  0.00000000E+00
0.00000000E+00  0.00000000E+00  0.00000000E+00
0.00000000E+00  0.00000000E+00  0.00000000E+00
0.00000000E+00  0.00000000E+00  0.00000000E+00
0.00000000E+00  0.00000000E+00  0.00000000E+00
