Ti4N3  (n=3)
1.00000000000000
2.9862409703197850  0.0000000000000000  0.0000000000000000
-1.4931204851598925  2.5861605421634666  0.0000000000000000
0.0000000000000000  0.0000000000000003  36.7379173274125677
Ti  N  H
4  5  2
Selective  dynamics
Direct
-0.0000000000000000  -0.0000000000000000  0.0585119779738654  T  T  T
0.6666666666666643  0.3333333333333357  0.1267311637994725  T  T  T
0.3333333333333357  0.6666666666666643  0.1949649493365175  T  T  T
-0.0000000000000000  -0.0000000000000000  0.2618125700616236  T  T  T
0.3333333333333357  0.6666666666666643  0.0942986661014833  T  T  T
-0.0000000000000000  -0.0000000000000000  0.1606440836568712  T  T  T
0.6666666666666643  0.3333333333333357  0.2281812445004169  T  T  T
0.3333333333333357  0.6666666666666643  0.0279239745277143  T  T  T
0.3333333333333357  0.6666666666666643  0.2916833880104754  T  T  T
0.3333333333333357  0.6666666666666643  0.0000000000000000  T  T  T
0.3333333333333357  0.6666666666666643  0.3195041575929004  T  T  T

0.00000000E+00  0.00000000E+00  0.00000000E+00
0.00000000E+00  0.00000000E+00  0.00000000E+00
0.00000000E+00  0.00000000E+00  0.00000000E+00
0.00000000E+00  0.00000000E+00  0.00000000E+00
0.00000000E+00  0.00000000E+00  0.00000000E+00
0.00000000E+00  0.00000000E+00  0.00000000E+00
0.00000000E+00  0.00000000E+00  0.00000000E+00
0.00000000E+00  0.00000000E+00  0.00000000E+00
0.00000000E+00  0.00000000E+00  0.00000000E+00
0.00000000E+00  0.00000000E+00  0.00000000E+00
0.00000000E+00  0.00000000E+00  0.00000000E+00
