Ti4C3  (n=3)
1.00000000000000
3.0565723159194875  0.0000000000000000  0.0000000000000000
-1.5282861579597438  2.6470692741665425  0.0000000000000000
0.0000000000000001  -0.0000000000000008  36.7894995934683990
Ti  C  N  H
4  3  2  2
Selective  dynamics
Direct
-0.0000000000000000  -0.0000000000000000  0.0573381719470195  T  T  T
0.6666666666666643  0.3333333333333357  0.1268961513062398  T  T  T
0.3333333333333357  0.6666666666666643  0.1951219701223295  T  T  T
0.0000000000000000  0.0000000000000000  0.2639708265421509  T  T  T
0.3333333333333357  0.6666666666666643  0.0938443163758057  T  T  T
-0.0000000000000000  -0.0000000000000000  0.1613259840297806  T  T  T
0.6666666666666643  0.3333333333333357  0.2290963468214938  T  T  T
0.3333333333333357  0.6666666666666643  0.0280196827790439  T  T  T
0.3333333333333357  0.6666666666666643  0.2926324841420963  T  T  T
0.3333333333333357  0.6666666666666643  0.0000000000000000  T  T  T
0.3333333333333357  0.6666666666666643  0.3204582754249123  T  T  T

0.00000000E+00  0.00000000E+00  0.00000000E+00
0.00000000E+00  0.00000000E+00  0.00000000E+00
0.00000000E+00  0.00000000E+00  0.00000000E+00
0.00000000E+00  0.00000000E+00  0.00000000E+00
0.00000000E+00  0.00000000E+00  0.00000000E+00
0.00000000E+00  0.00000000E+00  0.00000000E+00
0.00000000E+00  0.00000000E+00  0.00000000E+00
0.00000000E+00  0.00000000E+00  0.00000000E+00
0.00000000E+00  0.00000000E+00  0.00000000E+00
0.00000000E+00  0.00000000E+00  0.00000000E+00
0.00000000E+00  0.00000000E+00  0.00000000E+00
