Ta4N3  (n=3)
1.00000000000000
3.0714786836359256  0.0000000000000000  0.0000000000000000
-1.5357393418179628  2.6599785672970855  0.0000000000000000
0.0000000000000001  0.0000000000000002  37.2953648392391841
Ta  N  H
4  5  2
Selective  dynamics
Direct
0.0000000000000000  0.0000000000000000  0.0596966229953398  T  T  T
0.6666666666666643  0.3333333333333357  0.1321291912527129  T  T  T
0.3333333333333357  0.6666666666666643  0.2008059545321567  T  T  T
0.0000000000000000  0.0000000000000000  0.2700451395512981  T  T  T
0.3333333333333357  0.6666666666666643  0.0958126199042416  T  T  T
0.0000000000000000  0.0000000000000000  0.1657971780674408  T  T  T
0.6666666666666643  0.3333333333333357  0.2349283431470611  T  T  T
0.3333333333333357  0.6666666666666643  0.0274090142950995  T  T  T
0.3333333333333357  0.6666666666666643  0.3021855906376940  T  T  T
0.3333333333333357  0.6666666666666643  0.0000000000000000  T  T  T
0.3333333333333357  0.6666666666666643  0.3296754138815393  T  T  T

0.00000000E+00  0.00000000E+00  0.00000000E+00
0.00000000E+00  0.00000000E+00  0.00000000E+00
0.00000000E+00  0.00000000E+00  0.00000000E+00
0.00000000E+00  0.00000000E+00  0.00000000E+00
0.00000000E+00  0.00000000E+00  0.00000000E+00
0.00000000E+00  0.00000000E+00  0.00000000E+00
0.00000000E+00  0.00000000E+00  0.00000000E+00
0.00000000E+00  0.00000000E+00  0.00000000E+00
0.00000000E+00  0.00000000E+00  0.00000000E+00
0.00000000E+00  0.00000000E+00  0.00000000E+00
0.00000000E+00  0.00000000E+00  0.00000000E+00
