Sc2N
1.00000000000000
3.1902156796366383  0.0000000000000000  0.0000000000000002
-1.5951078398183194  2.7628078221826473  0.0000000000000000
0.0000000000000005  0.0000000000000006  29.6578500901521984
Sc  N  O
2  1  2
Selective  dynamics
Direct
0.0000000000000000  0.0000000000000000  0.0300197074436185  T  T  T
0.6666666666666643  0.3333333333333357  0.1270331495906419  T  T  T
0.3333333333333357  0.6666666666666643  0.0785264285171302  T  T  T
0.3333333333333357  0.6666666666666643  0.0000000000000000  T  T  T
0.3333333333333357  0.6666666666666643  0.1570528570342603  T  T  T

0.00000000E+00  0.00000000E+00  0.00000000E+00
0.00000000E+00  0.00000000E+00  0.00000000E+00
0.00000000E+00  0.00000000E+00  0.00000000E+00
0.00000000E+00  0.00000000E+00  0.00000000E+00
0.00000000E+00  0.00000000E+00  0.00000000E+00
