Zr2NO2
1.00000000000000
3.1869226682794878  0.0000000000000027  0.0000000000000006
-1.5934613341397430  2.7599559906812150  -0.0000000000000005
0.0000000000000034  -0.0000000000000039  30.0834135035960237
Zr  N  O
2  1  2
Selective  Dynamics
Direct
0.0000000000000000  0.0000000000000000  0.0364442917770705  T  T  T
0.6666666666666643  0.3333333333333357  0.1325329921002544  T  T  T
0.3333333333333357  0.6666666666666643  0.0844886419386625  T  T  T
0.3333333333333357  0.6666666666666643  0.0000000000000000  T  T  T
0.3333333333333357  0.6666666666666643  0.1689772838773226  T  T  T

0.00000000E+00  0.00000000E+00  0.00000000E+00
0.00000000E+00  0.00000000E+00  0.00000000E+00
0.00000000E+00  0.00000000E+00  0.00000000E+00
0.00000000E+00  0.00000000E+00  0.00000000E+00
0.00000000E+00  0.00000000E+00  0.00000000E+00
