Ti2N
1.00000000000000
2.8935927213303296  0.0000000000000000  0.0000000000000000
-1.4467963606651648  2.5059248049159009  0.0000000000000000
0.0000000000000000  0.0000000000000000  29.8258713856038149
Ti  N  O
2  1  2
Selective  dynamics
Direct
0.0000000000000000  0.0000000000000000  0.0356065367193989  T  T  T
0.6666666666666643  0.3333333333333357  0.1261949852952483  T  T  T
0.3333333333333357  0.6666666666666643  0.0809007610073237  T  T  T
0.3333333333333357  0.6666666666666643  0.0000000000000000  T  T  T
0.3333333333333357  0.6666666666666643  0.1618015220146473  T  T  T

0.00000000E+00  0.00000000E+00  0.00000000E+00
0.00000000E+00  0.00000000E+00  0.00000000E+00
0.00000000E+00  0.00000000E+00  0.00000000E+00
0.00000000E+00  0.00000000E+00  0.00000000E+00
0.00000000E+00  0.00000000E+00  0.00000000E+00
