Nb2C
1.00000000000000
3.0502420204532870  0.0000000000000000  0.0000000000000000
-1.5251210102266435  2.6415870774787797  0.0000000000000000
0.0000000000000000  0.0000000000000001  30.0369086069533573
Nb  C  O
2  1  2
Selective  dynamics
Direct
0.0000000000000000  0.0000000000000000  0.0394701609694005  T  T  T
0.6666666666666643  0.3333333333333357  0.1282204849909910  T  T  T
0.3333333333333357  0.6666666666666643  0.0838453229801975  T  T  T
0.3333333333333357  0.6666666666666643  0.0000000000000000  T  T  T
0.3333333333333357  0.6666666666666643  0.1676906459603950  T  T  T

0.00000000E+00  0.00000000E+00  0.00000000E+00
0.00000000E+00  0.00000000E+00  0.00000000E+00
0.00000000E+00  0.00000000E+00  0.00000000E+00
0.00000000E+00  0.00000000E+00  0.00000000E+00
0.00000000E+00  0.00000000E+00  0.00000000E+00
