Mo2CO2
1.00000000000000
2.8758741959226870  0.0000000000000074  0.0000000000000015
-1.4379370979613462  2.4905801117901927  -0.0000000000000011
0.0000000000000051  0.0000000000000000  30.2168442157164137
Mo  C  O
2  1  2
Selective  Dynamics
Direct
0.0000000000000000  0.0000000000000000  0.0406488458638829  T  T  T
0.6666666666666643  0.3333333333333357  0.1319980453360619  T  T  T
0.3333333333333357  0.6666666666666643  0.0863234455999714  T  T  T
0.3333333333333357  0.6666666666666643  0.0000000000000000  T  T  T
0.3333333333333357  0.6666666666666643  0.1726468911999428  T  T  T

0.00000000E+00  0.00000000E+00  0.00000000E+00
0.00000000E+00  0.00000000E+00  0.00000000E+00
0.00000000E+00  0.00000000E+00  0.00000000E+00
0.00000000E+00  0.00000000E+00  0.00000000E+00
0.00000000E+00  0.00000000E+00  0.00000000E+00
