Cr2NO2
1.00000000000000
2.6699160064719210  -0.0000000000000010  -0.0000000000000004
-1.3349580032359611  2.3122150876122567  -0.0000000000000002
0.0000000000000011  -0.0000000000000004  29.8660803271934192
Cr  N  O
2  1  2
Selective  Dynamics
Direct
0.0000000000000000  0.0000000000000000  0.0377967570364742  T  T  T
0.6666666666666643  0.3333333333333357  0.1251332382586497  T  T  T
0.3333333333333357  0.6666666666666643  0.0814649976475620  T  T  T
0.3333333333333357  0.6666666666666643  0.0000000000000000  T  T  T
0.3333333333333357  0.6666666666666643  0.1629299952951240  T  T  T

0.00000000E+00  0.00000000E+00  0.00000000E+00
0.00000000E+00  0.00000000E+00  0.00000000E+00
0.00000000E+00  0.00000000E+00  0.00000000E+00
0.00000000E+00  0.00000000E+00  0.00000000E+00
0.00000000E+00  0.00000000E+00  0.00000000E+00
