Cr2C
1.00000000000000
2.6684176202945253  0.0000000000000000  0.0000000000000000
-1.3342088101472627  2.3109174470876472  0.0000000000000000
0.0000000000000000  -0.0000000000000001  29.8601175677428472
Cr  C  O
2  1  2
Selective  dynamics
Direct
0.0000000000000000  0.0000000000000000  0.0380705890397071  T  T  T
0.6666666666666643  0.3333333333333357  0.1246922519543621  T  T  T
0.3333333333333357  0.6666666666666643  0.0813814204970364  T  T  T
0.3333333333333357  0.6666666666666643  0.0000000000000000  T  T  T
0.3333333333333357  0.6666666666666643  0.1627628409940728  T  T  T

0.00000000E+00  0.00000000E+00  0.00000000E+00
0.00000000E+00  0.00000000E+00  0.00000000E+00
0.00000000E+00  0.00000000E+00  0.00000000E+00
0.00000000E+00  0.00000000E+00  0.00000000E+00
0.00000000E+00  0.00000000E+00  0.00000000E+00
