Ta2CO2
1.00000000000000
3.0440276704655940  0.0000000000000032  -0.0000000000000013
-1.5220138352327963  2.6362052924941874  0.0000000000000010
-0.0000000000000056  -0.0000000000000091  30.0096201974431196
Ta  C  O
2  1  2
Selective  Dynamics
Direct
0.0000000000000000  0.0000000000000000  0.0393964115525474  T  T  T
0.6666666666666643  0.3333333333333357  0.1275373971555664  T  T  T
0.3333333333333357  0.6666666666666643  0.0834669043540558  T  T  T
0.3333333333333356  0.6666666666666642  0.0000000000000000  T  T  T
0.3333333333333358  0.6666666666666644  0.1669338087081139  T  T  T

0.00000000E+00  0.00000000E+00  0.00000000E+00
0.00000000E+00  0.00000000E+00  0.00000000E+00
0.00000000E+00  0.00000000E+00  0.00000000E+00
0.00000000E+00  0.00000000E+00  0.00000000E+00
0.00000000E+00  0.00000000E+00  0.00000000E+00
