Mo2NO2
1.00000000000000
2.8605129456525771  0.0000000000000082  0.0000000000000000
-1.4302564728262916  2.4772768788289778  0.0000000000000001
-0.0000000000000015  0.0000000000000056  30.2415974111621182
Mo  N  O
2  1  2
Selective  Dynamics
Direct
0.0000000000000000  0.0000000000000000  0.0398169867501628  T  T  T
0.6666666666666643  0.3333333333333357  0.1335071052247999  T  T  T
0.3333333333333357  0.6666666666666643  0.0866620459874813  T  T  T
0.3333333333333357  0.6666666666666643  0.0000000000000000  T  T  T
0.3333333333333357  0.6666666666666643  0.1733240919749648  T  T  T

0.00000000E+00  0.00000000E+00  0.00000000E+00
0.00000000E+00  0.00000000E+00  0.00000000E+00
0.00000000E+00  0.00000000E+00  0.00000000E+00
0.00000000E+00  0.00000000E+00  0.00000000E+00
0.00000000E+00  0.00000000E+00  0.00000000E+00
