Ta2N
1.00000000000000
2.9709146731604945  0.0000000000000000  0.0000000000000000
-1.4854573365802473  2.5728875794929640  0.0000000000000000
0.0000000000000000  0.0000000000000000  30.1365849515960988
Ta  N  O
2  1  2
Selective  dynamics
Direct
0.0000000000000000  0.0000000000000000  0.0386832952648501  T  T  T
0.6666666666666643  0.3333333333333357  0.1317602025583550  T  T  T
0.3333333333333357  0.6666666666666643  0.0852217489116008  T  T  T
0.3333333333333357  0.6666666666666643  0.0000000000000000  T  T  T
0.3333333333333357  0.6666666666666643  0.1704434978232016  T  T  T

0.00000000E+00  0.00000000E+00  0.00000000E+00
0.00000000E+00  0.00000000E+00  0.00000000E+00
0.00000000E+00  0.00000000E+00  0.00000000E+00
0.00000000E+00  0.00000000E+00  0.00000000E+00
0.00000000E+00  0.00000000E+00  0.00000000E+00
