Hf2CO2
1.00000000000000
3.1703623860654115  -0.0000000000000022  0.0000000000000004
-1.5851811930327078  2.7456143655892915  0.0000000000000000
0.0000000000000014  -0.0000000000000011  30.0889113598032694
Hf  C  O
2  1  2
Selective  Dynamics
Direct
0.0000000000000000  0.0000000000000000  0.0360309114355407  T  T  T
0.6666666666666643  0.3333333333333357  0.1330982171975978  T  T  T
0.3333333333333357  0.6666666666666643  0.0845645643165705  T  T  T
0.3333333333333357  0.6666666666666643  0.0000000000000000  T  T  T
0.3333333333333357  0.6666666666666643  0.1691291286331385  T  T  T

0.00000000E+00  0.00000000E+00  0.00000000E+00
0.00000000E+00  0.00000000E+00  0.00000000E+00
0.00000000E+00  0.00000000E+00  0.00000000E+00
0.00000000E+00  0.00000000E+00  0.00000000E+00
0.00000000E+00  0.00000000E+00  0.00000000E+00
