Hf2NO2
1.00000000000000
3.1306499126032912  -0.0000000000000021  0.0000000000000003
-1.5653249563016485  2.7112223547218823  -0.0000000000000007
0.0000000000000035  -0.0000000000000009  30.0266659361690635
Hf  N  O
2  1  2
Selective  Dynamics
Direct
0.0000000000000000  0.0000000000000000  0.0362328033603633  T  T  T
0.6666666666666643  0.3333333333333357  0.1311739259400100  T  T  T
0.3333333333333357  0.6666666666666643  0.0837033646501878  T  T  T
0.3333333333333357  0.6666666666666643  0.0000000000000000  T  T  T
0.3333333333333357  0.6666666666666643  0.1674067293003756  T  T  T

0.00000000E+00  0.00000000E+00  0.00000000E+00
0.00000000E+00  0.00000000E+00  0.00000000E+00
0.00000000E+00  0.00000000E+00  0.00000000E+00
0.00000000E+00  0.00000000E+00  0.00000000E+00
0.00000000E+00  0.00000000E+00  0.00000000E+00
