Ti2C
1.00000000000000
2.9406747985239026  0.0000000000000000  0.0000000000000000
-1.4703373992619513  2.5466990798409115  0.0000000000000000
0.0000000000000000  -0.0000000000000001  29.8495532737846716
Ti  C  O
2  1  2
Selective  dynamics
Direct
0.0000000000000000  0.0000000000000000  0.0346432738697104  T  T  T
0.6666666666666643  0.3333333333333357  0.1278232538301793  T  T  T
0.3333333333333357  0.6666666666666643  0.0812332638499448  T  T  T
0.3333333333333357  0.6666666666666643  0.0000000000000000  T  T  T
0.3333333333333357  0.6666666666666643  0.1624665276998897  T  T  T

0.00000000E+00  0.00000000E+00  0.00000000E+00
0.00000000E+00  0.00000000E+00  0.00000000E+00
0.00000000E+00  0.00000000E+00  0.00000000E+00
0.00000000E+00  0.00000000E+00  0.00000000E+00
0.00000000E+00  0.00000000E+00  0.00000000E+00
