Sc2C
1.00000000000000
3.3498412784115499  0.0000000000000000  0.0000000000000000
-1.6749206392057749  2.9010476458376955  0.0000000000000000
0.0000000000000000  0.0000000000000001  29.1086410503590507
Sc  C  O
2  1  2
Selective  dynamics
Direct
0.0000000000000000  0.0000000000000000  0.0253756618740678  T  T  T
0.6666666666666643  0.3333333333333357  0.1157728391243486  T  T  T
0.3333333333333357  0.6666666666666643  0.0705742504992082  T  T  T
0.3333333333333357  0.6666666666666643  0.0000000000000000  T  T  T
0.3333333333333357  0.6666666666666643  0.1411485009984130  T  T  T

0.00000000E+00  0.00000000E+00  0.00000000E+00
0.00000000E+00  0.00000000E+00  0.00000000E+00
0.00000000E+00  0.00000000E+00  0.00000000E+00
0.00000000E+00  0.00000000E+00  0.00000000E+00
0.00000000E+00  0.00000000E+00  0.00000000E+00
