Zr2C
1.00000000000000
3.2096517686128125  -0.0000000000000006  0.0000000000000002
-1.6048258843064063  2.7796399689877003  0.0000000000000000
-0.0000000000000001  -0.0000000000000017  30.1570926277937197
Zr  C  O
2  1  2
Selective  dynamics
Direct
0.0000000000000000  0.0000000000000000  0.0361916484444788  T  T  T
0.6666666666666643  0.3333333333333357  0.1348159712701876  T  T  T
0.3333333333333357  0.6666666666666643  0.0855038098573332  T  T  T
0.3333333333333357  0.6666666666666643  0.0000000000000000  T  T  T
0.3333333333333357  0.6666666666666643  0.1710076197146665  T  T  T

0.00000000E+00  0.00000000E+00  0.00000000E+00
0.00000000E+00  0.00000000E+00  0.00000000E+00
0.00000000E+00  0.00000000E+00  0.00000000E+00
0.00000000E+00  0.00000000E+00  0.00000000E+00
0.00000000E+00  0.00000000E+00  0.00000000E+00
