Nb2N
1.00000000000000
2.9889084931658085  0.0000000000000000  0.0000000000000000
-1.4944542465829043  2.5884706847281427  0.0000000000000000
0.0000000000000000  0.0000000000000000  30.1497469521435200
Nb  N  O
2  1  2
Selective  dynamics
Direct
0.0000000000000000  0.0000000000000000  0.0388854723972854  T  T  T
0.6666666666666643  0.3333333333333357  0.1319201718529821  T  T  T
0.3333333333333357  0.6666666666666643  0.0854028221251355  T  T  T
0.3333333333333357  0.6666666666666643  0.0000000000000000  T  T  T
0.3333333333333357  0.6666666666666643  0.1708056442502711  T  T  T

0.00000000E+00  0.00000000E+00  0.00000000E+00
0.00000000E+00  0.00000000E+00  0.00000000E+00
0.00000000E+00  0.00000000E+00  0.00000000E+00
0.00000000E+00  0.00000000E+00  0.00000000E+00
0.00000000E+00  0.00000000E+00  0.00000000E+00
