Nb3N2  (n=2)
1.00000000000000
3.0818164371890142  0.0000000000000001  0.0000000000000000
-1.5409082185945071  2.6689313249106528  0.0000000000000001
0.0000000000000005  0.0000000000000002  34.0916116075975637
Nb  N  S
3  2  2
Selective  dynamics
Direct
-0.0000000000000000  -0.0000000000000000  0.0486783244467512  T  T  T
-0.0000000000000000  -0.0000000000000000  0.1328196167422744  T  T  T
-0.0000000000000000  -0.0000000000000000  0.2174321128464586  T  T  T
0.3333333333333357  0.6666666666666643  0.0920366451157921  T  T  T
0.3333333333333357  0.6666666666666643  0.1733342534003681  T  T  T
0.3333333333333357  0.6666666666666643  0.0000000000000000  T  T  T
0.6666666666666643  0.3333333333333357  0.2666817782698027  T  T  T

0.00000000E+00  0.00000000E+00  0.00000000E+00
0.00000000E+00  0.00000000E+00  0.00000000E+00
0.00000000E+00  0.00000000E+00  0.00000000E+00
0.00000000E+00  0.00000000E+00  0.00000000E+00
0.00000000E+00  0.00000000E+00  0.00000000E+00
0.00000000E+00  0.00000000E+00  0.00000000E+00
0.00000000E+00  0.00000000E+00  0.00000000E+00
