Ti3C2  (n=2)
1.00000000000000
3.1277710178256228  0.0000000000000001  -0.0000000000000000
-1.5638855089128114  2.7087291591034179  0.0000000000000000
-0.0000000000000001  -0.0000000000000001  33.5553381869006841
Ti  C  S
3  2  2
Selective  dynamics
Direct
-0.0000000000000000  -0.0000000000000000  0.0459636655283697  T  T  T
0.0000000000000000  0.0000000000000000  0.1264974182795574  T  T  T
0.0000000000000000  0.0000000000000000  0.2067193293906441  T  T  T
0.3333333333333357  0.6666666666666643  0.0877866891892137  T  T  T
0.3333333333333357  0.6666666666666643  0.1698878423667175  T  T  T
0.3333333333333357  0.6666666666666643  0.0000000000000000  T  T  T
0.6666666666666643  0.3333333333333357  0.2549620611554590  T  T  T

0.00000000E+00  0.00000000E+00  0.00000000E+00
0.00000000E+00  0.00000000E+00  0.00000000E+00
0.00000000E+00  0.00000000E+00  0.00000000E+00
0.00000000E+00  0.00000000E+00  0.00000000E+00
0.00000000E+00  0.00000000E+00  0.00000000E+00
0.00000000E+00  0.00000000E+00  0.00000000E+00
0.00000000E+00  0.00000000E+00  0.00000000E+00
