Ta3C2  (n=2)
1.00000000000000
3.1610383325693951  0.0000000000000000  0.0000000000000000
-1.5805191662846976  2.7375394989904760  -0.0000000000000000
0.0000000000000000  0.0000000000000004  33.9291228073559523
Ta  C  S
3  2  2
Selective  dynamics
Direct
0.0000000000000000  0.0000000000000000  0.0487549423889218  T  T  T
-0.0000000000000000  -0.0000000000000000  0.1320663457166049  T  T  T
-0.0000000000000000  -0.0000000000000000  0.2149236624739742  T  T  T
0.3333333333333357  0.6666666666666643  0.0904517288647963  T  T  T
0.3333333333333357  0.6666666666666643  0.1752241211425186  T  T  T
0.3333333333333357  0.6666666666666643  0.0000000000000000  T  T  T
0.6666666666666643  0.3333333333333357  0.2631698690842690  T  T  T

0.00000000E+00  0.00000000E+00  0.00000000E+00
0.00000000E+00  0.00000000E+00  0.00000000E+00
0.00000000E+00  0.00000000E+00  0.00000000E+00
0.00000000E+00  0.00000000E+00  0.00000000E+00
0.00000000E+00  0.00000000E+00  0.00000000E+00
0.00000000E+00  0.00000000E+00  0.00000000E+00
0.00000000E+00  0.00000000E+00  0.00000000E+00
