Mo3N2  (n=2)
1.00000000000000
2.9880916353410822  -0.0000000000000001  0.0000000000000000
-1.4940458176705411  2.5877632653013025  0.0000000000000000
0.0000000000000001  -0.0000000000000001  33.9020212736188356
Mo  N  S
3  2  2
Selective  dynamics
Direct
0.0000000000000000  0.0000000000000000  0.0478117398898944  T  T  T
0.0000000000000000  0.0000000000000000  0.1310526691347099  T  T  T
0.0000000000000000  0.0000000000000000  0.2147990312481743  T  T  T
0.3333333333333357  0.6666666666666643  0.0891310617133295  T  T  T
0.3333333333333357  0.6666666666666643  0.1682983949012148  T  T  T
0.3333333333333357  0.6666666666666643  0.0000000000000000  T  T  T
0.6666666666666643  0.3333333333333357  0.2625808414717155  T  T  T

0.00000000E+00  0.00000000E+00  0.00000000E+00
0.00000000E+00  0.00000000E+00  0.00000000E+00
0.00000000E+00  0.00000000E+00  0.00000000E+00
0.00000000E+00  0.00000000E+00  0.00000000E+00
0.00000000E+00  0.00000000E+00  0.00000000E+00
0.00000000E+00  0.00000000E+00  0.00000000E+00
0.00000000E+00  0.00000000E+00  0.00000000E+00
