Sc3N2  (n=2)
1.00000000000000
3.2097923155275456  0.0000000000000000  0.0000000000000000
-1.6048961577637728  2.7797616866578312  0.0000000000000000
-0.0000000000000001  -0.0000000000000001  34.0870454294103524
Sc  N  S
3  2  2
Selective  dynamics
Direct
0.0000000000000000  -0.0000000000000000  0.0500301971519202  T  T  T
0.0000000000000000  -0.0000000000000000  0.1327095848376174  T  T  T
0.0000000000000000  -0.0000000000000000  0.2147615638373169  T  T  T
0.3333333333333357  0.6666666666666643  0.0931911791652437  T  T  T
0.3333333333333357  0.6666666666666643  0.1767171280625719  T  T  T
0.3333333333333357  0.6666666666666643  0.0000000000000000  T  T  T
0.6666666666666643  0.3333333333333357  0.2665835455944222  T  T  T

0.00000000E+00  0.00000000E+00  0.00000000E+00
0.00000000E+00  0.00000000E+00  0.00000000E+00
0.00000000E+00  0.00000000E+00  0.00000000E+00
0.00000000E+00  0.00000000E+00  0.00000000E+00
0.00000000E+00  0.00000000E+00  0.00000000E+00
0.00000000E+00  0.00000000E+00  0.00000000E+00
0.00000000E+00  0.00000000E+00  0.00000000E+00
