Mo3C2  (n=2)
1.00000000000000
3.0128660315850704  -0.0000000000000001  0.0000000000000000
-1.5064330157925352  2.6092185217493871  0.0000000000000000
0.0000000000000000  -0.0000000000000001  33.8826330765311923
Mo  C  S
3  2  2
Selective  dynamics
Direct
0.0000000000000000  0.0000000000000000  0.0480821275170940  T  T  T
0.0000000000000000  0.0000000000000000  0.1307547057444568  T  T  T
-0.0000000000000000  0.0000000000000000  0.2133073031382590  T  T  T
0.3333333333333357  0.6666666666666643  0.0892672480220715  T  T  T
0.3333333333333357  0.6666666666666643  0.1708473652065570  T  T  T
0.3333333333333357  0.6666666666666643  0.0000000000000000  T  T  T
0.6666666666666643  0.3333333333333357  0.2621588781623866  T  T  T

0.00000000E+00  0.00000000E+00  0.00000000E+00
0.00000000E+00  0.00000000E+00  0.00000000E+00
0.00000000E+00  0.00000000E+00  0.00000000E+00
0.00000000E+00  0.00000000E+00  0.00000000E+00
0.00000000E+00  0.00000000E+00  0.00000000E+00
0.00000000E+00  0.00000000E+00  0.00000000E+00
0.00000000E+00  0.00000000E+00  0.00000000E+00
