Nb3C2  (n=2)
1.00000000000000
3.1708731055127362  0.0000000000000002  -0.0000000000000000
-1.5854365527563674  2.7460566624827405  0.0000000000000000
-0.0000000000000007  0.0000000000000007  33.9713007315163722
Nb  C  S
3  2  2
Selective  dynamics
Direct
0.0000000000000000  0.0000000000000000  0.0488655275262978  T  T  T
0.0000000000000000  0.0000000000000000  0.1324095129390079  T  T  T
-0.0000000000000000  -0.0000000000000000  0.2156355501275808  T  T  T
0.3333333333333357  0.6666666666666643  0.0908914924787274  T  T  T
0.3333333333333357  0.6666666666666643  0.1753002789390026  T  T  T
0.3333333333333357  0.6666666666666643  0.0000000000000000  T  T  T
0.6666666666666643  0.3333333333333357  0.2640846990940615  T  T  T

0.00000000E+00  0.00000000E+00  0.00000000E+00
0.00000000E+00  0.00000000E+00  0.00000000E+00
0.00000000E+00  0.00000000E+00  0.00000000E+00
0.00000000E+00  0.00000000E+00  0.00000000E+00
0.00000000E+00  0.00000000E+00  0.00000000E+00
0.00000000E+00  0.00000000E+00  0.00000000E+00
0.00000000E+00  0.00000000E+00  0.00000000E+00
