Sc3C2S2  (n=2)
1.00000000000000
3.6709622211400466  0.0000000000000000  0.0000000000000000
-1.8354811105700233  3.1791465398484080  0.0000000000000000
0.0000000000000000  0.0000000000000000  33.0462683097605776
Sc  C  S
3  2  2
Selective  dynamics
Direct
0.0000000000000000  0.0000000000000000  0.0379434242788759  T  T  T
0.0000000000000000  0.0000000000000000  0.1223519549960207  T  T  T
0.0000000000000000  0.0000000000000000  0.2063201360011992  T  T  T
0.3333333333333357  0.6666666666666643  0.1009920879708841  T  T  T
0.3333333333333357  0.6666666666666643  0.1462106533092125  T  T  T
0.3333333333333357  0.6666666666666643  0.0000000000000000  T  T  T
0.6666666666666643  0.3333333333333357  0.2434849295036446  T  T  T

0.00000000E+00  0.00000000E+00  0.00000000E+00
0.00000000E+00  0.00000000E+00  0.00000000E+00
0.00000000E+00  0.00000000E+00  0.00000000E+00
0.00000000E+00  0.00000000E+00  0.00000000E+00
0.00000000E+00  0.00000000E+00  0.00000000E+00
0.00000000E+00  0.00000000E+00  0.00000000E+00
0.00000000E+00  0.00000000E+00  0.00000000E+00
