Zr3C2  (n=2)
1.00000000000000
3.4074307692046744  -0.0000000000000001  0.0000000000000000
-1.7037153846023372  2.9509216093967803  -0.0000000000000000
-0.0000000000000001  -0.0000000000000003  34.0599747819428416
Zr  C  S
3  2  2
Selective  dynamics
Direct
-0.0000000000000000  -0.0000000000000000  0.0465894969662143  T  T  T
-0.0000000000000000  -0.0000000000000000  0.1333239404506147  T  T  T
0.0000000000000000  0.0000000000000000  0.2197308733180593  T  T  T
0.3333333333333357  0.6666666666666643  0.0912419138012619  T  T  T
0.3333333333333357  0.6666666666666643  0.1779345999046025  T  T  T
0.3333333333333357  0.6666666666666643  0.0000000000000000  T  T  T
0.6666666666666643  0.3333333333333357  0.2660006309442735  T  T  T

0.00000000E+00  0.00000000E+00  0.00000000E+00
0.00000000E+00  0.00000000E+00  0.00000000E+00
0.00000000E+00  0.00000000E+00  0.00000000E+00
0.00000000E+00  0.00000000E+00  0.00000000E+00
0.00000000E+00  0.00000000E+00  0.00000000E+00
0.00000000E+00  0.00000000E+00  0.00000000E+00
0.00000000E+00  0.00000000E+00  0.00000000E+00
