Hf3N2  (n=2)
1.00000000000000
3.2645960303942574  0.0000000000000000  0.0000000000000000
-1.6322980151971287  2.8272230960852123  0.0000000000000000
0.0000000000000001  -0.0000000000000002  33.9135772949918817
Hf  N  S
3  2  2
Selective  dynamics
Direct
-0.0000000000000000  -0.0000000000000000  0.0477794461506746  T  T  T
-0.0000000000000000  -0.0000000000000000  0.1321634601691054  T  T  T
-0.0000000000000000  -0.0000000000000000  0.2159164121673957  T  T  T
0.3333333333333357  0.6666666666666643  0.0908801004788673  T  T  T
0.3333333333333357  0.6666666666666643  0.1750364054959177  T  T  T
0.3333333333333357  0.6666666666666643  0.0000000000000000  T  T  T
0.6666666666666643  0.3333333333333357  0.2628321163957001  T  T  T

0.00000000E+00  0.00000000E+00  0.00000000E+00
0.00000000E+00  0.00000000E+00  0.00000000E+00
0.00000000E+00  0.00000000E+00  0.00000000E+00
0.00000000E+00  0.00000000E+00  0.00000000E+00
0.00000000E+00  0.00000000E+00  0.00000000E+00
0.00000000E+00  0.00000000E+00  0.00000000E+00
0.00000000E+00  0.00000000E+00  0.00000000E+00
