Cr3C2  (n=2)
1.00000000000000
2.8259882327928931  0.0000000000000000  0.0000000000000000
-1.4129941163964466  2.4473776003283243  0.0000000000000000
0.0000000000000000  0.0000000000000000  33.2305505451284446
Cr  C  S
3  2  2
Selective  dynamics
Direct
-0.0000000000000000  -0.0000000000000000  0.0464359501186421  T  T  T
-0.0000000000000000  -0.0000000000000000  0.1236493942229707  T  T  T
-0.0000000000000000  -0.0000000000000000  0.2006942513556794  T  T  T
0.3333333333333357  0.6666666666666643  0.0847713857943062  T  T  T
0.3333333333333357  0.6666666666666643  0.1614454167716029  T  T  T
0.3333333333333357  0.6666666666666643  0.0000000000000000  T  T  T
0.6666666666666643  0.3333333333333357  0.2476802343058090  T  T  T

0.00000000E+00  0.00000000E+00  0.00000000E+00
0.00000000E+00  0.00000000E+00  0.00000000E+00
0.00000000E+00  0.00000000E+00  0.00000000E+00
0.00000000E+00  0.00000000E+00  0.00000000E+00
0.00000000E+00  0.00000000E+00  0.00000000E+00
0.00000000E+00  0.00000000E+00  0.00000000E+00
0.00000000E+00  0.00000000E+00  0.00000000E+00
