Zr3N2  (n=2)
1.00000000000000
3.3114494311294878  -0.0000000000000001  0.0000000000000000
-1.6557247155647439  2.8677993316375927  0.0000000000000000
0.0000000000000000  0.0000000000000000  34.0273313417038423
Zr  N  S
3  2  2
Selective  dynamics
Direct
-0.0000000000000000  -0.0000000000000000  0.0482012222420302  T  T  T
-0.0000000000000000  -0.0000000000000000  0.1331941860443369  T  T  T
-0.0000000000000000  -0.0000000000000000  0.2178236802244571  T  T  T
0.3333333333333357  0.6666666666666643  0.0915806720542587  T  T  T
0.3333333333333357  0.6666666666666643  0.1762828997246116  T  T  T
0.3333333333333357  0.6666666666666643  0.0000000000000000  T  T  T
0.6666666666666643  0.3333333333333357  0.2652964833195708  T  T  T

0.00000000E+00  0.00000000E+00  0.00000000E+00
0.00000000E+00  0.00000000E+00  0.00000000E+00
0.00000000E+00  0.00000000E+00  0.00000000E+00
0.00000000E+00  0.00000000E+00  0.00000000E+00
0.00000000E+00  0.00000000E+00  0.00000000E+00
0.00000000E+00  0.00000000E+00  0.00000000E+00
0.00000000E+00  0.00000000E+00  0.00000000E+00
