Ta3N2  (n=2)
1.00000000000000
3.0649433762576739  -0.0000000000000001  0.0000000000000001
-1.5324716881288365  2.6543188253222625  -0.0000000000000001
0.0000000000000000  -0.0000000000000004  34.0873669515551896
Ta  N  S
3  2  2
Selective  dynamics
Direct
-0.0000000000000000  -0.0000000000000000  0.0485401722746930  T  T  T
-0.0000000000000000  -0.0000000000000000  0.1329661705672852  T  T  T
-0.0000000000000000  -0.0000000000000000  0.2176481351751805  T  T  T
0.3333333333333357  0.6666666666666643  0.0921047375337226  T  T  T
0.3333333333333357  0.6666666666666643  0.1737614460007270  T  T  T
0.3333333333333357  0.6666666666666643  0.0000000000000000  T  T  T
0.6666666666666643  0.3333333333333357  0.2665904633957242  T  T  T

0.00000000E+00  0.00000000E+00  0.00000000E+00
0.00000000E+00  0.00000000E+00  0.00000000E+00
0.00000000E+00  0.00000000E+00  0.00000000E+00
0.00000000E+00  0.00000000E+00  0.00000000E+00
0.00000000E+00  0.00000000E+00  0.00000000E+00
0.00000000E+00  0.00000000E+00  0.00000000E+00
0.00000000E+00  0.00000000E+00  0.00000000E+00
