Ti3N2  (n=2)
1.00000000000000
3.0634816106665683  0.0000000000000001  0.0000000000000000
-1.5317408053332839  2.6530528990743312  0.0000000000000000
0.0000000000000002  -0.0000000000000001  33.4126717387436614
Ti  N  S
3  2  2
Selective  dynamics
Direct
-0.0000000000000000  -0.0000000000000000  0.0475888850803029  T  T  T
-0.0000000000000000  -0.0000000000000000  0.1266455078205373  T  T  T
-0.0000000000000000  -0.0000000000000000  0.2050696912572353  T  T  T
0.3333333333333357  0.6666666666666643  0.0872149738276800  T  T  T
0.3333333333333357  0.6666666666666643  0.1667957723513118  T  T  T
0.3333333333333357  0.6666666666666643  0.0000000000000000  T  T  T
0.6666666666666643  0.3333333333333357  0.2517808753673760  T  T  T

0.00000000E+00  0.00000000E+00  0.00000000E+00
0.00000000E+00  0.00000000E+00  0.00000000E+00
0.00000000E+00  0.00000000E+00  0.00000000E+00
0.00000000E+00  0.00000000E+00  0.00000000E+00
0.00000000E+00  0.00000000E+00  0.00000000E+00
0.00000000E+00  0.00000000E+00  0.00000000E+00
0.00000000E+00  0.00000000E+00  0.00000000E+00
