Cr3N2  (n=2)
1.00000000000000
2.8031233361512258  0.0000000000000000  0.0000000000000000
-1.4015616680756131  2.4275760190149582  0.0000000000000000
-0.0000000000000003  -0.0000000000000003  33.1937310776274046
Cr  N  S
3  2  2
Selective  dynamics
Direct
-0.0000000000000000  -0.0000000000000000  0.0464976125343476  T  T  T
-0.0000000000000000  -0.0000000000000000  0.1235935913311995  T  T  T
-0.0000000000000000  -0.0000000000000000  0.2004532614885963  T  T  T
0.3333333333333357  0.6666666666666643  0.0845382731680029  T  T  T
0.3333333333333357  0.6666666666666643  0.1600745941192905  T  T  T
0.3333333333333357  0.6666666666666643  0.0000000000000000  T  T  T
0.6666666666666643  0.3333333333333357  0.2468457389880460  T  T  T

0.00000000E+00  0.00000000E+00  0.00000000E+00
0.00000000E+00  0.00000000E+00  0.00000000E+00
0.00000000E+00  0.00000000E+00  0.00000000E+00
0.00000000E+00  0.00000000E+00  0.00000000E+00
0.00000000E+00  0.00000000E+00  0.00000000E+00
0.00000000E+00  0.00000000E+00  0.00000000E+00
0.00000000E+00  0.00000000E+00  0.00000000E+00
