Hf3C2  (n=2)
1.00000000000000
3.3557169006159828  -0.0000000000000002  -0.0000000000000000
-1.6778584503079914  2.9061360851588431  0.0000000000000000
-0.0000000000000001  0.0000000000000004  33.9709003568066024
Hf  C  S
3  2  2
Selective  dynamics
Direct
0.0000000000000000  0.0000000000000000  0.0465565764905187  T  T  T
0.0000000000000000  0.0000000000000000  0.1324942619614491  T  T  T
-0.0000000000000000  -0.0000000000000000  0.2178925982204881  T  T  T
0.3333333333333357  0.6666666666666643  0.0906085580223494  T  T  T
0.3333333333333357  0.6666666666666643  0.1767680334280575  T  T  T
0.3333333333333357  0.6666666666666643  0.0000000000000000  T  T  T
0.6666666666666643  0.3333333333333357  0.2640760257332755  T  T  T

0.00000000E+00  0.00000000E+00  0.00000000E+00
0.00000000E+00  0.00000000E+00  0.00000000E+00
0.00000000E+00  0.00000000E+00  0.00000000E+00
0.00000000E+00  0.00000000E+00  0.00000000E+00
0.00000000E+00  0.00000000E+00  0.00000000E+00
0.00000000E+00  0.00000000E+00  0.00000000E+00
0.00000000E+00  0.00000000E+00  0.00000000E+00
