Hf3C2  (n=2)
1.00000000000000
3.2315400286640492  0.0000000000000000  0.0000000000000000
-1.6157700143320246  2.7985957583707637  0.0000000000000000
0.0000000000000000  0.0000000000000000  35.2749732924983022
Hf  C  N  H
3  2  2  2
Selective  dynamics
Direct
0.0000000000000000  0.0000000000000000  0.0610003611972887  T  T  T
-0.0000000000000000  0.0000000000000000  0.1456411207926150  T  T  T
-0.0000000000000000  0.0000000000000000  0.2302818803879491  T  T  T
0.3333333333333357  0.6666666666666643  0.1039874791045927  T  T  T
0.3333333333333357  0.6666666666666643  0.1872947624806373  T  T  T
0.3333333333333357  0.6666666666666643  0.0292886116782392  T  T  T
0.3333333333333357  0.6666666666666643  0.2619936299069988  T  T  T
0.3333333333333357  0.6666666666666643  0.0000000000000000  T  T  T
0.3333333333333357  0.6666666666666643  0.2912822415852377  T  T  T

0.00000000E+00  0.00000000E+00  0.00000000E+00
0.00000000E+00  0.00000000E+00  0.00000000E+00
0.00000000E+00  0.00000000E+00  0.00000000E+00
0.00000000E+00  0.00000000E+00  0.00000000E+00
0.00000000E+00  0.00000000E+00  0.00000000E+00
0.00000000E+00  0.00000000E+00  0.00000000E+00
0.00000000E+00  0.00000000E+00  0.00000000E+00
0.00000000E+00  0.00000000E+00  0.00000000E+00
0.00000000E+00  0.00000000E+00  0.00000000E+00
