Cr3C2  (n=2)
1.00000000000000
2.6988131130044763  0.0000000000000000  0.0000000000000000
-1.3494065565022382  2.3372407159143762  0.0000000000000000
0.0000000000000000  0.0000000000000000  34.5849124454193060
Cr  C  N  H
3  2  2  2
Selective  dynamics
Direct
0.0000000000000000  0.0000000000000000  0.0627527606750910  T  T  T
0.0000000000000000  0.0000000000000000  0.1385707201159777  T  T  T
0.0000000000000000  0.0000000000000000  0.2143886795568726  T  T  T
0.3333333333333357  0.6666666666666643  0.1009047284410345  T  T  T
0.3333333333333357  0.6666666666666643  0.1762367117909127  T  T  T
0.3333333333333357  0.6666666666666643  0.0296278024749480  T  T  T
0.3333333333333357  0.6666666666666643  0.2475136377569992  T  T  T
0.3333333333333357  0.6666666666666643  0.0000000000000000  T  T  T
0.3333333333333357  0.6666666666666643  0.2771414402319473  T  T  T

0.00000000E+00  0.00000000E+00  0.00000000E+00
0.00000000E+00  0.00000000E+00  0.00000000E+00
0.00000000E+00  0.00000000E+00  0.00000000E+00
0.00000000E+00  0.00000000E+00  0.00000000E+00
0.00000000E+00  0.00000000E+00  0.00000000E+00
0.00000000E+00  0.00000000E+00  0.00000000E+00
0.00000000E+00  0.00000000E+00  0.00000000E+00
0.00000000E+00  0.00000000E+00  0.00000000E+00
0.00000000E+00  0.00000000E+00  0.00000000E+00
