Mo3C2  (n=2)
1.00000000000000
2.9223792235645392  0.0000000000000000  0.0000000000000000
-1.4611896117822696  2.5308546471371622  0.0000000000000000
0.0000000000000000  0.0000000000000000  35.1405091714170794
Mo  C  N  H
3  2  2  2
Selective  dynamics
Direct
0.0000000000000000  -0.0000000000000000  0.0640584953063439  T  T  T
0.0000000000000000  -0.0000000000000000  0.1442851770011444  T  T  T
0.0000000000000000  -0.0000000000000000  0.2245118586959611  T  T  T
0.3333333333333357  0.6666666666666643  0.1040911149857329  T  T  T
0.3333333333333357  0.6666666666666643  0.1844792390165559  T  T  T
0.3333333333333357  0.6666666666666643  0.0290820814824679  T  T  T
0.3333333333333357  0.6666666666666643  0.2594882725198371  T  T  T
0.3333333333333357  0.6666666666666643  0.0000000000000000  T  T  T
0.3333333333333357  0.6666666666666643  0.2885703540023051  T  T  T

0.00000000E+00  0.00000000E+00  0.00000000E+00
0.00000000E+00  0.00000000E+00  0.00000000E+00
0.00000000E+00  0.00000000E+00  0.00000000E+00
0.00000000E+00  0.00000000E+00  0.00000000E+00
0.00000000E+00  0.00000000E+00  0.00000000E+00
0.00000000E+00  0.00000000E+00  0.00000000E+00
0.00000000E+00  0.00000000E+00  0.00000000E+00
0.00000000E+00  0.00000000E+00  0.00000000E+00
0.00000000E+00  0.00000000E+00  0.00000000E+00
