Ta3N2  (n=2)
1.00000000000000
2.9875543443374117  -0.0000000000000002  0.0000000000000000
-1.4937771721687061  2.5872979574547479  0.0000000000000000
0.0000000000000000  0.0000000000000000  35.2705104285834707
Ta  N  H
3  4  2
Selective  dynamics
Direct
0.0000000000000000  -0.0000000000000000  0.0637536723113823  T  T  T
0.0000000000000000  -0.0000000000000000  0.1455962828972788  T  T  T
0.0000000000000000  -0.0000000000000000  0.2274388934831834  T  T  T
0.3333333333333357  0.6666666666666643  0.1053290619694597  T  T  T
0.3333333333333357  0.6666666666666643  0.1858635038250980  T  T  T
0.3333333333333357  0.6666666666666643  0.0289211108984728  T  T  T
0.3333333333333357  0.6666666666666643  0.2622714548960927  T  T  T
0.3333333333333357  0.6666666666666643  0.0000000000000000  T  T  T
0.3333333333333357  0.6666666666666643  0.2911925657945732  T  T  T

0.00000000E+00  0.00000000E+00  0.00000000E+00
0.00000000E+00  0.00000000E+00  0.00000000E+00
0.00000000E+00  0.00000000E+00  0.00000000E+00
0.00000000E+00  0.00000000E+00  0.00000000E+00
0.00000000E+00  0.00000000E+00  0.00000000E+00
0.00000000E+00  0.00000000E+00  0.00000000E+00
0.00000000E+00  0.00000000E+00  0.00000000E+00
0.00000000E+00  0.00000000E+00  0.00000000E+00
0.00000000E+00  0.00000000E+00  0.00000000E+00
