Zr3C2  (n=2)
1.00000000000000
3.2754350284337557  0.0000000000000000  0.0000000000000000
-1.6377175142168778  2.8366099433092296  0.0000000000000000
0.0000000000000000  0.0000000000000000  35.4094129022420319
Zr  C  N  H
3  2  2  2
Selective  dynamics
Direct
-0.0000000000000000  -0.0000000000000000  0.0610385482260175  T  T  T
-0.0000000000000000  -0.0000000000000000  0.1469865220722518  T  T  T
-0.0000000000000000  -0.0000000000000000  0.2329344959184942  T  T  T
0.3333333333333357  0.6666666666666643  0.1048418120973766  T  T  T
0.3333333333333357  0.6666666666666643  0.1891312320471270  T  T  T
0.3333333333333357  0.6666666666666643  0.0291599960077843  T  T  T
0.3333333333333357  0.6666666666666643  0.2648130481367194  T  T  T
0.3333333333333357  0.6666666666666643  0.0000000000000000  T  T  T
0.3333333333333357  0.6666666666666643  0.2939730441445115  T  T  T

0.00000000E+00  0.00000000E+00  0.00000000E+00
0.00000000E+00  0.00000000E+00  0.00000000E+00
0.00000000E+00  0.00000000E+00  0.00000000E+00
0.00000000E+00  0.00000000E+00  0.00000000E+00
0.00000000E+00  0.00000000E+00  0.00000000E+00
0.00000000E+00  0.00000000E+00  0.00000000E+00
0.00000000E+00  0.00000000E+00  0.00000000E+00
0.00000000E+00  0.00000000E+00  0.00000000E+00
0.00000000E+00  0.00000000E+00  0.00000000E+00
