Hf3N2  (n=2)
1.00000000000000
3.1494856095637562  0.0000000000000000  0.0000000000000000
-1.5747428047818781  2.7275345468654133  0.0000000000000000
0.0000000000000000  0.0000000000000000  35.1473339385945422
Hf  N  H
3  4  2
Selective  dynamics
Direct
-0.0000000000000000  0.0000000000000000  0.0622047604675531  T  T  T
-0.0000000000000000  0.0000000000000000  0.1443542482670553  T  T  T
-0.0000000000000000  0.0000000000000000  0.2265037360665658  T  T  T
0.3333333333333357  0.6666666666666643  0.1036246724343217  T  T  T
0.3333333333333357  0.6666666666666643  0.1850838240997972  T  T  T
0.3333333333333357  0.6666666666666643  0.0292254255736923  T  T  T
0.3333333333333357  0.6666666666666643  0.2594830709604267  T  T  T
0.3333333333333357  0.6666666666666643  0.0000000000000000  T  T  T
0.3333333333333357  0.6666666666666643  0.2887084965341273  T  T  T

0.00000000E+00  0.00000000E+00  0.00000000E+00
0.00000000E+00  0.00000000E+00  0.00000000E+00
0.00000000E+00  0.00000000E+00  0.00000000E+00
0.00000000E+00  0.00000000E+00  0.00000000E+00
0.00000000E+00  0.00000000E+00  0.00000000E+00
0.00000000E+00  0.00000000E+00  0.00000000E+00
0.00000000E+00  0.00000000E+00  0.00000000E+00
0.00000000E+00  0.00000000E+00  0.00000000E+00
0.00000000E+00  0.00000000E+00  0.00000000E+00
