Sc3C2N2H2  (n=2)
1.00000000000000
3.4990433704275947  0.0000000000000000  0.0000000000000000
-1.7495216852137974  3.0302604477416160  0.0000000000000000
0.0000000000000000  0.0000000000000000  34.2985833168882692
Sc  C  N  H
3  2  2  2
Selective  dynamics
Direct
0.0000000000000000  0.0000000000000000  0.0534051297356462  T  T  T
0.0000000000000000  0.0000000000000000  0.1355805431465710  T  T  T
0.0000000000000000  0.0000000000000000  0.2177113322525411  T  T  T
0.3333333333333357  0.6666666666666643  0.1129584354151087  T  T  T
0.3333333333333357  0.6666666666666643  0.1582017861291298  T  T  T
0.3333333333333357  0.6666666666666643  0.0302084071844046  T  T  T
0.3333333333333357  0.6666666666666643  0.2408983019445191  T  T  T
0.3333333333333357  0.6666666666666643  0.0000000000000000  T  T  T
0.3333333333333357  0.6666666666666643  0.2711069209762301  T  T  T

0.00000000E+00  0.00000000E+00  0.00000000E+00
0.00000000E+00  0.00000000E+00  0.00000000E+00
0.00000000E+00  0.00000000E+00  0.00000000E+00
0.00000000E+00  0.00000000E+00  0.00000000E+00
0.00000000E+00  0.00000000E+00  0.00000000E+00
0.00000000E+00  0.00000000E+00  0.00000000E+00
0.00000000E+00  0.00000000E+00  0.00000000E+00
0.00000000E+00  0.00000000E+00  0.00000000E+00
0.00000000E+00  0.00000000E+00  0.00000000E+00
