Ta3C2  (n=2)
1.00000000000000
3.0636231857816396  0.0000000000000000  0.0000000000000000
-1.5318115928908198  2.6531755066054337  0.0000000000000000
0.0000000000000000  0.0000000000000000  35.1856566187283448
Ta  C  N  H
3  2  2  2
Selective  dynamics
Direct
0.0000000000000000  0.0000000000000000  0.0634650913579357  T  T  T
0.0000000000000000  0.0000000000000000  0.1447416020837708  T  T  T
0.0000000000000000  0.0000000000000000  0.2260181128096059  T  T  T
0.3333333333333357  0.6666666666666643  0.1038451741846931  T  T  T
0.3333333333333357  0.6666666666666643  0.1856380299828404  T  T  T
0.3333333333333357  0.6666666666666643  0.0291477754820496  T  T  T
0.3333333333333357  0.6666666666666643  0.2603354286855002  T  T  T
0.3333333333333357  0.6666666666666643  0.0000000000000000  T  T  T
0.3333333333333357  0.6666666666666643  0.2894832041675416  T  T  T

0.00000000E+00  0.00000000E+00  0.00000000E+00
0.00000000E+00  0.00000000E+00  0.00000000E+00
0.00000000E+00  0.00000000E+00  0.00000000E+00
0.00000000E+00  0.00000000E+00  0.00000000E+00
0.00000000E+00  0.00000000E+00  0.00000000E+00
0.00000000E+00  0.00000000E+00  0.00000000E+00
0.00000000E+00  0.00000000E+00  0.00000000E+00
0.00000000E+00  0.00000000E+00  0.00000000E+00
0.00000000E+00  0.00000000E+00  0.00000000E+00
