Cr3N2  (n=2)
1.00000000000000
2.6851525257522888  0.0000000000000000  0.0000000000000000
-1.3425762628761444  2.3254103003315887  0.0000000000000000
0.0000000000000000  0.0000000000000000  34.5156510055318719
Cr  N  H
3  4  2
Selective  dynamics
Direct
0.0000000000000000  0.0000000000000000  0.0627003390234734  T  T  T
0.0000000000000000  0.0000000000000000  0.1378454516764985  T  T  T
0.0000000000000000  0.0000000000000000  0.2129905643295238  T  T  T
0.3333333333333357  0.6666666666666643  0.1006036861730357  T  T  T
0.3333333333333357  0.6666666666666643  0.1750872171799614  T  T  T
0.3333333333333357  0.6666666666666643  0.0296725543772134  T  T  T
0.3333333333333357  0.6666666666666643  0.2460183489757837  T  T  T
0.3333333333333357  0.6666666666666643  0.0000000000000000  T  T  T
0.3333333333333357  0.6666666666666643  0.2756909033529973  T  T  T

0.00000000E+00  0.00000000E+00  0.00000000E+00
0.00000000E+00  0.00000000E+00  0.00000000E+00
0.00000000E+00  0.00000000E+00  0.00000000E+00
0.00000000E+00  0.00000000E+00  0.00000000E+00
0.00000000E+00  0.00000000E+00  0.00000000E+00
0.00000000E+00  0.00000000E+00  0.00000000E+00
0.00000000E+00  0.00000000E+00  0.00000000E+00
0.00000000E+00  0.00000000E+00  0.00000000E+00
0.00000000E+00  0.00000000E+00  0.00000000E+00
