Nb3N2  (n=2)
1.00000000000000
3.0000589021490036  0.0000000000000000  0.0000000000000000
-1.5000294510745018  2.5981272221779701  0.0000000000000000
0.0000000000000000  0.0000000000000000  35.2788940586330710
Nb  N  H
3  4  2
Selective  dynamics
Direct
-0.0000000000000000  0.0000000000000000  0.0640348569391403  T  T  T
-0.0000000000000000  0.0000000000000000  0.1456805029311490  T  T  T
-0.0000000000000000  0.0000000000000000  0.2273261489231660  T  T  T
0.3333333333333357  0.6666666666666643  0.1058372866865667  T  T  T
0.3333333333333357  0.6666666666666643  0.1855237191757312  T  T  T
0.3333333333333357  0.6666666666666643  0.0289478146045864  T  T  T
0.3333333333333357  0.6666666666666643  0.2624131912577198  T  T  T
0.3333333333333357  0.6666666666666643  0.0000000000000000  T  T  T
0.3333333333333357  0.6666666666666643  0.2913610058623062  T  T  T

0.00000000E+00  0.00000000E+00  0.00000000E+00
0.00000000E+00  0.00000000E+00  0.00000000E+00
0.00000000E+00  0.00000000E+00  0.00000000E+00
0.00000000E+00  0.00000000E+00  0.00000000E+00
0.00000000E+00  0.00000000E+00  0.00000000E+00
0.00000000E+00  0.00000000E+00  0.00000000E+00
0.00000000E+00  0.00000000E+00  0.00000000E+00
0.00000000E+00  0.00000000E+00  0.00000000E+00
0.00000000E+00  0.00000000E+00  0.00000000E+00
