Mo3N2  (n=2)
1.00000000000000
2.9079848902373211  0.0000000000000000  0.0000000000000000
-1.4539924451186605  2.5183887888081031  0.0000000000000000
0.0000000000000000  0.0000000000000000  35.1256714282473013
Mo  N  H
3  4  2
Selective  dynamics
Direct
-0.0000000000000000  0.0000000000000000  0.0639619731090123  T  T  T
-0.0000000000000000  0.0000000000000000  0.1441349163806185  T  T  T
-0.0000000000000000  0.0000000000000000  0.2243078596522330  T  T  T
0.3333333333333357  0.6666666666666643  0.1046183491407212  T  T  T
0.3333333333333357  0.6666666666666643  0.1836514836205158  T  T  T
0.3333333333333357  0.6666666666666643  0.0291305593185390  T  T  T
0.3333333333333357  0.6666666666666643  0.2591392734427063  T  T  T
0.3333333333333357  0.6666666666666643  0.0000000000000000  T  T  T
0.3333333333333357  0.6666666666666643  0.2882698327612452  T  T  T

0.00000000E+00  0.00000000E+00  0.00000000E+00
0.00000000E+00  0.00000000E+00  0.00000000E+00
0.00000000E+00  0.00000000E+00  0.00000000E+00
0.00000000E+00  0.00000000E+00  0.00000000E+00
0.00000000E+00  0.00000000E+00  0.00000000E+00
0.00000000E+00  0.00000000E+00  0.00000000E+00
0.00000000E+00  0.00000000E+00  0.00000000E+00
0.00000000E+00  0.00000000E+00  0.00000000E+00
0.00000000E+00  0.00000000E+00  0.00000000E+00
