Sc3N2  (n=2)
1.00000000000000
3.2304564656349086  0.0000000000000000  0.0000000000000000
-1.6152282328174543  2.7976573651872965  0.0000000000000000
0.0000000000000000  0.0000000000000000  34.7962205747814011
Sc  N  H
3  4  2
Selective  dynamics
Direct
0.0000000000000000  -0.0000000000000000  0.0570896696532174  T  T  T
0.0000000000000000  -0.0000000000000000  0.1407655833444299  T  T  T
0.0000000000000000  -0.0000000000000000  0.2244414970356507  T  T  T
0.3333333333333357  0.6666666666666643  0.1047452580979930  T  T  T
0.3333333333333357  0.6666666666666643  0.1767859085908751  T  T  T
0.3333333333333357  0.6666666666666643  0.0296135748979746  T  T  T
0.3333333333333357  0.6666666666666643  0.2519175917909016  T  T  T
0.3333333333333357  0.6666666666666643  0.0000000000000000  T  T  T
0.3333333333333357  0.6666666666666643  0.2815311666888680  T  T  T

0.00000000E+00  0.00000000E+00  0.00000000E+00
0.00000000E+00  0.00000000E+00  0.00000000E+00
0.00000000E+00  0.00000000E+00  0.00000000E+00
0.00000000E+00  0.00000000E+00  0.00000000E+00
0.00000000E+00  0.00000000E+00  0.00000000E+00
0.00000000E+00  0.00000000E+00  0.00000000E+00
0.00000000E+00  0.00000000E+00  0.00000000E+00
0.00000000E+00  0.00000000E+00  0.00000000E+00
0.00000000E+00  0.00000000E+00  0.00000000E+00
