Nb3C2  (n=2)
1.00000000000000
3.0791659706282761  0.0000000000000000  0.0000000000000000
-1.5395829853141381  2.6666359531390333  0.0000000000000000
0.0000000000000000  0.0000000000000000  35.2160691555488654
Nb  C  N  H
3  2  2  2
Selective  dynamics
Direct
0.0000000000000000  -0.0000000000000000  0.0635003928206153  T  T  T
0.0000000000000000  0.0000000000000000  0.1450484026258673  T  T  T
0.0000000000000000  -0.0000000000000000  0.2265964124311111  T  T  T
0.3333333333333357  0.6666666666666643  0.1041922407665944  T  T  T
0.3333333333333357  0.6666666666666643  0.1859045644851320  T  T  T
0.3333333333333357  0.6666666666666643  0.0291381362013875  T  T  T
0.3333333333333357  0.6666666666666643  0.2609586690503470  T  T  T
0.3333333333333357  0.6666666666666643  0.0000000000000000  T  T  T
0.3333333333333357  0.6666666666666643  0.2900968052517344  T  T  T

0.00000000E+00  0.00000000E+00  0.00000000E+00
0.00000000E+00  0.00000000E+00  0.00000000E+00
0.00000000E+00  0.00000000E+00  0.00000000E+00
0.00000000E+00  0.00000000E+00  0.00000000E+00
0.00000000E+00  0.00000000E+00  0.00000000E+00
0.00000000E+00  0.00000000E+00  0.00000000E+00
0.00000000E+00  0.00000000E+00  0.00000000E+00
0.00000000E+00  0.00000000E+00  0.00000000E+00
0.00000000E+00  0.00000000E+00  0.00000000E+00
