Ti3C2  (n=2)
1.00000000000000
3.0155878013097102  0.0000000000000000  0.0000000000000000
-1.5077939006548551  2.6115756433589268  0.0000000000000000
0.0000000000000000  0.0000000000000000  34.8243220903250972
Ti  C  N  H
3  2  2  2
Selective  dynamics
Direct
0.0000000000000000  -0.0000000000000000  0.0603055451190114  T  T  T
0.0000000000000000  -0.0000000000000000  0.1410554678543873  T  T  T
0.0000000000000000  -0.0000000000000000  0.2218053905897711  T  T  T
0.3333333333333357  0.6666666666666643  0.1016552999161040  T  T  T
0.3333333333333357  0.6666666666666643  0.1804556357926628  T  T  T
0.3333333333333357  0.6666666666666643  0.0296502532554653  T  T  T
0.3333333333333357  0.6666666666666643  0.2524606824533095  T  T  T
0.3333333333333357  0.6666666666666643  0.0000000000000000  T  T  T
0.3333333333333357  0.6666666666666643  0.2821109357087669  T  T  T

0.00000000E+00  0.00000000E+00  0.00000000E+00
0.00000000E+00  0.00000000E+00  0.00000000E+00
0.00000000E+00  0.00000000E+00  0.00000000E+00
0.00000000E+00  0.00000000E+00  0.00000000E+00
0.00000000E+00  0.00000000E+00  0.00000000E+00
0.00000000E+00  0.00000000E+00  0.00000000E+00
0.00000000E+00  0.00000000E+00  0.00000000E+00
0.00000000E+00  0.00000000E+00  0.00000000E+00
0.00000000E+00  0.00000000E+00  0.00000000E+00
