Ti3N2  (n=2)
1.00000000000000
2.9446782318343461  0.0000000000000000  0.0000000000000000
-1.4723391159171730  2.5501661547776027  0.0000000000000000
0.0000000000000000  0.0000000000000000  34.6702477929784862
Ti  N  H
3  4  2
Selective  dynamics
Direct
-0.0000000000000000  0.0000000000000000  0.0618251725595810  T  T  T
-0.0000000000000000  0.0000000000000000  0.1394603212922080  T  T  T
-0.0000000000000000  0.0000000000000000  0.2170954700248431  T  T  T
0.3333333333333357  0.6666666666666643  0.1011678079055792  T  T  T
0.3333333333333357  0.6666666666666643  0.1777528346788367  T  T  T
0.3333333333333357  0.6666666666666643  0.0296387876081741  T  T  T
0.3333333333333357  0.6666666666666643  0.2492818549762418  T  T  T
0.3333333333333357  0.6666666666666643  0.0000000000000000  T  T  T
0.3333333333333357  0.6666666666666643  0.2789206425844160  T  T  T

0.00000000E+00  0.00000000E+00  0.00000000E+00
0.00000000E+00  0.00000000E+00  0.00000000E+00
0.00000000E+00  0.00000000E+00  0.00000000E+00
0.00000000E+00  0.00000000E+00  0.00000000E+00
0.00000000E+00  0.00000000E+00  0.00000000E+00
0.00000000E+00  0.00000000E+00  0.00000000E+00
0.00000000E+00  0.00000000E+00  0.00000000E+00
0.00000000E+00  0.00000000E+00  0.00000000E+00
0.00000000E+00  0.00000000E+00  0.00000000E+00
