Zr3N2  (n=2)
1.00000000000000
3.2012314056210265  0.0000000000000000  0.0000000000000000
-1.6006157028105132  2.7723477207982357  0.0000000000000000
0.0000000000000000  0.0000000000000000  35.2475415984767295
Zr  N  H
3  4  2
Selective  dynamics
Direct
-0.0000000000000000  -0.0000000000000000  0.0624958585392218  T  T  T
-0.0000000000000000  -0.0000000000000000  0.1453653380313949  T  T  T
-0.0000000000000000  -0.0000000000000000  0.2282348175235762  T  T  T
0.3333333333333357  0.6666666666666643  0.1043685122967872  T  T  T
0.3333333333333357  0.6666666666666643  0.1863621637660025  T  T  T
0.3333333333333357  0.6666666666666643  0.0291463556806296  T  T  T
0.3333333333333357  0.6666666666666643  0.2615843203821683  T  T  T
0.3333333333333357  0.6666666666666643  0.0000000000000000  T  T  T
0.3333333333333357  0.6666666666666643  0.2907306760627980  T  T  T

0.00000000E+00  0.00000000E+00  0.00000000E+00
0.00000000E+00  0.00000000E+00  0.00000000E+00
0.00000000E+00  0.00000000E+00  0.00000000E+00
0.00000000E+00  0.00000000E+00  0.00000000E+00
0.00000000E+00  0.00000000E+00  0.00000000E+00
0.00000000E+00  0.00000000E+00  0.00000000E+00
0.00000000E+00  0.00000000E+00  0.00000000E+00
0.00000000E+00  0.00000000E+00  0.00000000E+00
0.00000000E+00  0.00000000E+00  0.00000000E+00
